<?xml version="1.0"?>
<VTKFile type="UnstructuredGrid" version="0.1">
<UnstructuredGrid>
<Piece NumberOfPoints="      1156" NumberOfCells="      1024">
<Points>
<DataArray type="Float64"                                    Name="coordinates"                                                      NumberOfComponents=" 3" format="ascii">
              0.133000000               0.000000000               0.000000000               0.155937500               0.000000000               0.000000000               0.178875000               0.000000000               0.000000000               0.201812500               0.000000000               0.000000000               0.224750000               0.000000000               0.000000000               0.247687500               0.000000000               0.000000000               0.270625000               0.000000000               0.000000000               0.293562500               0.000000000               0.000000000               0.316500000               0.000000000               0.000000000               0.339437500               0.000000000               0.000000000               0.362375000               0.000000000               0.000000000               0.385312500               0.000000000               0.000000000               0.408250000               0.000000000               0.000000000               0.431187500               0.000000000               0.000000000               0.454125000               0.000000000               0.000000000               0.477062500               0.000000000               0.000000000               0.500000000               0.000000000               0.000000000               0.132359569               0.013036280               0.000000000               0.155337096               0.016127762               0.000000000               0.178314623               0.019219245               0.000000000               0.201292150               0.022310727               0.000000000               0.224269676               0.025402210               0.000000000               0.247247203               0.028493692               0.000000000               0.270224730               0.031585175               0.000000000               0.293202257               0.034676657               0.000000000               0.316179784               0.037768140               0.000000000               0.339157311               0.040859622               0.000000000               0.362134838               0.043951105               0.000000000               0.385112365               0.047042587               0.000000000               0.408089892               0.050134070               0.000000000               0.431067419               0.053225552               0.000000000               0.454044946               0.056317035               0.000000000               0.477022473               0.059408517               0.000000000               0.500000000               0.062500000               0.000000000               0.130444442               0.025947013               0.000000000               0.153541665               0.032137825               0.000000000               0.176638887               0.038328636               0.000000000               0.199736109               0.044519448               0.000000000               0.222833332               0.050710260               0.000000000               0.245930554               0.056901071               0.000000000               0.269027776               0.063091883               0.000000000               0.292124999               0.069282695               0.000000000               0.315222221               0.075473506               0.000000000               0.338319444               0.081664318               0.000000000               0.361416666               0.087855130               0.000000000               0.384513888               0.094045942               0.000000000               0.407611111               0.100236753               0.000000000               0.430708333               0.106427565               0.000000000               0.453805555               0.112618377               0.000000000               0.476902778               0.118809188               0.000000000               0.500000000               0.125000000               0.000000000               0.127273065               0.038607862               0.000000000               0.150568498               0.047913621               0.000000000               0.173863932               0.057219379               0.000000000               0.197159365               0.066525138               0.000000000               0.220454798               0.075830897               0.000000000               0.243750232               0.085136655               0.000000000               0.267045665               0.094442414               0.000000000               0.290341099               0.103748172               0.000000000               0.313636532               0.113053931               0.000000000               0.336931966               0.122359690               0.000000000               0.360227399               0.131665448               0.000000000               0.383522833               0.140971207               0.000000000               0.406818266               0.150276966               0.000000000               0.430113700               0.159582724               0.000000000               0.453409133               0.168888483               0.000000000               0.476704567               0.178194241               0.000000000               0.500000000               0.187500000               0.000000000               0.122875978               0.050896897               0.000000000               0.146446229               0.063340840               0.000000000               0.170016481               0.075784784               0.000000000               0.193586732               0.088228728               0.000000000               0.217156983               0.100672672               0.000000000               0.240727235               0.113116616               0.000000000               0.264297486               0.125560560               0.000000000               0.287867738               0.138004504               0.000000000               0.311437989               0.150448448               0.000000000               0.335008240               0.162892392               0.000000000               0.358578492               0.175336336               0.000000000               0.382148743               0.187780280               0.000000000               0.405718994               0.200224224               0.000000000               0.429289246               0.212668168               0.000000000               0.452859497               0.225112112               0.000000000               0.476429749               0.237556056               0.000000000               0.500000000               0.250000000               0.000000000               0.117295528               0.062695766               0.000000000               0.141214558               0.078308531               0.000000000               0.165133587               0.093921295               0.000000000               0.189052617               0.109534060               0.000000000               0.212971646               0.125146824               0.000000000               0.236890676               0.140759589               0.000000000               0.260809705               0.156372354               0.000000000               0.284728735               0.171985118               0.000000000               0.308647764               0.187597883               0.000000000               0.332566794               0.203210648               0.000000000               0.356485823               0.218823412               0.000000000               0.380404853               0.234436177               0.000000000               0.404323882               0.250048941               0.000000000               0.428242912               0.265661706               0.000000000               0.452161941               0.281274471               0.000000000               0.476080971               0.296887235               0.000000000               0.500000000               0.312500000               0.000000000               0.110585458               0.073890841               0.000000000               0.134923867               0.092710163               0.000000000               0.159262276               0.111529486               0.000000000               0.183600685               0.130348808               0.000000000               0.207939094               0.149168131               0.000000000               0.232277503               0.167987453               0.000000000               0.256615912               0.186806776               0.000000000               0.280954320               0.205626098               0.000000000               0.305292729               0.224445420               0.000000000               0.329631138               0.243264743               0.000000000               0.353969547               0.262084065               0.000000000               0.378307956               0.280903388               0.000000000               0.402646365               0.299722710               0.000000000               0.426984773               0.318542033               0.000000000               0.451323182               0.337361355               0.000000000               0.475661591               0.356180678               0.000000000               0.500000000               0.375000000               0.000000000               0.102810390               0.084374307               0.000000000               0.127634741               0.106444663               0.000000000               0.152459092               0.128515018               0.000000000               0.177283442               0.150585374               0.000000000               0.202107793               0.172655730               0.000000000               0.226932143               0.194726086               0.000000000               0.251756494               0.216796442               0.000000000               0.276580845               0.238866798               0.000000000               0.301405195               0.260937153               0.000000000               0.326229546               0.283007509               0.000000000               0.351053896               0.305077865               0.000000000               0.375878247               0.327148221               0.000000000               0.400702598               0.349218577               0.000000000               0.425526948               0.371288933               0.000000000               0.450351299               0.393359288               0.000000000               0.475175649               0.415429644               0.000000000               0.500000000               0.437500000               0.000000000               0.094045202               0.094045202               0.000000000               0.119417377               0.119417377               0.000000000               0.144789552               0.144789552               0.000000000               0.170161727               0.170161727               0.000000000               0.195533901               0.195533901               0.000000000               0.220906076               0.220906076               0.000000000               0.246278251               0.246278251               0.000000000               0.271650426               0.271650426               0.000000000               0.297022601               0.297022601               0.000000000               0.322394776               0.322394776               0.000000000               0.347766951               0.347766951               0.000000000               0.373139126               0.373139126               0.000000000               0.398511300               0.398511300               0.000000000               0.423883475               0.423883475               0.000000000               0.449255650               0.449255650               0.000000000               0.474627825               0.474627825               0.000000000               0.500000000               0.500000000               0.000000000               0.084374307               0.102810390               0.000000000               0.106444663               0.127634741               0.000000000               0.128515018               0.152459092               0.000000000               0.150585374               0.177283442               0.000000000               0.172655730               0.202107793               0.000000000               0.194726086               0.226932143               0.000000000               0.216796442               0.251756494               0.000000000               0.238866798               0.276580845               0.000000000               0.260937153               0.301405195               0.000000000               0.283007509               0.326229546               0.000000000               0.305077865               0.351053896               0.000000000               0.327148221               0.375878247               0.000000000               0.349218577               0.400702598               0.000000000               0.371288933               0.425526948               0.000000000               0.393359288               0.450351299               0.000000000               0.415429644               0.475175649               0.000000000               0.437500000               0.500000000               0.000000000               0.073890841               0.110585458               0.000000000               0.092710163               0.134923867               0.000000000               0.111529486               0.159262276               0.000000000               0.130348808               0.183600685               0.000000000               0.149168131               0.207939094               0.000000000               0.167987453               0.232277503               0.000000000               0.186806776               0.256615912               0.000000000               0.205626098               0.280954320               0.000000000               0.224445420               0.305292729               0.000000000               0.243264743               0.329631138               0.000000000               0.262084065               0.353969547               0.000000000               0.280903388               0.378307956               0.000000000               0.299722710               0.402646365               0.000000000               0.318542033               0.426984773               0.000000000               0.337361355               0.451323182               0.000000000               0.356180678               0.475661591               0.000000000               0.375000000               0.500000000               0.000000000               0.062695766               0.117295528               0.000000000               0.078308531               0.141214558               0.000000000               0.093921295               0.165133587               0.000000000               0.109534060               0.189052617               0.000000000               0.125146824               0.212971646               0.000000000               0.140759589               0.236890676               0.000000000               0.156372354               0.260809705               0.000000000               0.171985118               0.284728735               0.000000000               0.187597883               0.308647764               0.000000000               0.203210648               0.332566794               0.000000000               0.218823412               0.356485823               0.000000000               0.234436177               0.380404853               0.000000000               0.250048941               0.404323882               0.000000000               0.265661706               0.428242912               0.000000000               0.281274471               0.452161941               0.000000000               0.296887235               0.476080971               0.000000000               0.312500000               0.500000000               0.000000000               0.050896897               0.122875978               0.000000000               0.063340840               0.146446229               0.000000000               0.075784784               0.170016481               0.000000000               0.088228728               0.193586732               0.000000000               0.100672672               0.217156983               0.000000000               0.113116616               0.240727235               0.000000000               0.125560560               0.264297486               0.000000000               0.138004504               0.287867738               0.000000000               0.150448448               0.311437989               0.000000000               0.162892392               0.335008240               0.000000000               0.175336336               0.358578492               0.000000000               0.187780280               0.382148743               0.000000000               0.200224224               0.405718994               0.000000000               0.212668168               0.429289246               0.000000000               0.225112112               0.452859497               0.000000000               0.237556056               0.476429749               0.000000000               0.250000000               0.500000000               0.000000000               0.038607862               0.127273065               0.000000000               0.047913621               0.150568498               0.000000000               0.057219379               0.173863932               0.000000000               0.066525138               0.197159365               0.000000000               0.075830897               0.220454798               0.000000000               0.085136655               0.243750232               0.000000000               0.094442414               0.267045665               0.000000000               0.103748172               0.290341099               0.000000000               0.113053931               0.313636532               0.000000000               0.122359690               0.336931966               0.000000000               0.131665448               0.360227399               0.000000000               0.140971207               0.383522833               0.000000000               0.150276966               0.406818266               0.000000000               0.159582724               0.430113700               0.000000000               0.168888483               0.453409133               0.000000000               0.178194241               0.476704567               0.000000000               0.187500000               0.500000000               0.000000000               0.025947013               0.130444442               0.000000000               0.032137825               0.153541665               0.000000000               0.038328636               0.176638887               0.000000000               0.044519448               0.199736109               0.000000000               0.050710260               0.222833332               0.000000000               0.056901071               0.245930554               0.000000000               0.063091883               0.269027776               0.000000000               0.069282695               0.292124999               0.000000000               0.075473506               0.315222221               0.000000000               0.081664318               0.338319444               0.000000000               0.087855130               0.361416666               0.000000000               0.094045942               0.384513888               0.000000000               0.100236753               0.407611111               0.000000000               0.106427565               0.430708333               0.000000000               0.112618377               0.453805555               0.000000000               0.118809188               0.476902778               0.000000000               0.125000000               0.500000000               0.000000000               0.013036280               0.132359569               0.000000000               0.016127762               0.155337096               0.000000000               0.019219245               0.178314623               0.000000000               0.022310727               0.201292150               0.000000000               0.025402210               0.224269676               0.000000000               0.028493692               0.247247203               0.000000000               0.031585175               0.270224730               0.000000000               0.034676657               0.293202257               0.000000000               0.037768140               0.316179784               0.000000000               0.040859622               0.339157311               0.000000000               0.043951105               0.362134838               0.000000000               0.047042587               0.385112365               0.000000000               0.050134070               0.408089892               0.000000000               0.053225552               0.431067419               0.000000000               0.056317035               0.454044946               0.000000000               0.059408517               0.477022473               0.000000000               0.062500000               0.500000000               0.000000000               0.000000000               0.133000000               0.000000000               0.000000000               0.155937500               0.000000000               0.000000000               0.178875000               0.000000000               0.000000000               0.201812500               0.000000000               0.000000000               0.224750000               0.000000000               0.000000000               0.247687500               0.000000000               0.000000000               0.270625000               0.000000000               0.000000000               0.293562500               0.000000000               0.000000000               0.316500000               0.000000000               0.000000000               0.339437500               0.000000000               0.000000000               0.362375000               0.000000000               0.000000000               0.385312500               0.000000000               0.000000000               0.408250000               0.000000000               0.000000000               0.431187500               0.000000000               0.000000000               0.454125000               0.000000000               0.000000000               0.477062500               0.000000000               0.000000000               0.500000000               0.000000000               0.133000000               0.000000000               0.000000000               0.155937500               0.000000000               0.000000000               0.178875000               0.000000000               0.000000000               0.201812500               0.000000000               0.000000000               0.224750000               0.000000000               0.000000000               0.247687500               0.000000000               0.000000000               0.270625000               0.000000000               0.000000000               0.293562500               0.000000000               0.000000000               0.316500000               0.000000000               0.000000000               0.339437500               0.000000000               0.000000000               0.362375000               0.000000000               0.000000000               0.385312500               0.000000000               0.000000000               0.408250000               0.000000000               0.000000000               0.431187500               0.000000000               0.000000000               0.454125000               0.000000000               0.000000000               0.477062500               0.000000000               0.000000000               0.500000000               0.000000000               0.000000000               0.132359569              -0.013036280               0.000000000               0.155337096              -0.016127762               0.000000000               0.178314623              -0.019219245               0.000000000               0.201292150              -0.022310727               0.000000000               0.224269676              -0.025402210               0.000000000               0.247247203              -0.028493692               0.000000000               0.270224730              -0.031585175               0.000000000               0.293202257              -0.034676657               0.000000000               0.316179784              -0.037768140               0.000000000               0.339157311              -0.040859622               0.000000000               0.362134838              -0.043951105               0.000000000               0.385112365              -0.047042587               0.000000000               0.408089892              -0.050134070               0.000000000               0.431067419              -0.053225552               0.000000000               0.454044946              -0.056317035               0.000000000               0.477022473              -0.059408517               0.000000000               0.500000000              -0.062500000               0.000000000               0.130444442              -0.025947013               0.000000000               0.153541665              -0.032137825               0.000000000               0.176638887              -0.038328636               0.000000000               0.199736109              -0.044519448               0.000000000               0.222833332              -0.050710260               0.000000000               0.245930554              -0.056901071               0.000000000               0.269027776              -0.063091883               0.000000000               0.292124999              -0.069282695               0.000000000               0.315222221              -0.075473506               0.000000000               0.338319444              -0.081664318               0.000000000               0.361416666              -0.087855130               0.000000000               0.384513888              -0.094045942               0.000000000               0.407611111              -0.100236753               0.000000000               0.430708333              -0.106427565               0.000000000               0.453805555              -0.112618377               0.000000000               0.476902778              -0.118809188               0.000000000               0.500000000              -0.125000000               0.000000000               0.127273065              -0.038607862               0.000000000               0.150568498              -0.047913621               0.000000000               0.173863932              -0.057219379               0.000000000               0.197159365              -0.066525138               0.000000000               0.220454798              -0.075830897               0.000000000               0.243750232              -0.085136655               0.000000000               0.267045665              -0.094442414               0.000000000               0.290341099              -0.103748172               0.000000000               0.313636532              -0.113053931               0.000000000               0.336931966              -0.122359690               0.000000000               0.360227399              -0.131665448               0.000000000               0.383522833              -0.140971207               0.000000000               0.406818266              -0.150276966               0.000000000               0.430113700              -0.159582724               0.000000000               0.453409133              -0.168888483               0.000000000               0.476704567              -0.178194241               0.000000000               0.500000000              -0.187500000               0.000000000               0.122875978              -0.050896897               0.000000000               0.146446229              -0.063340840               0.000000000               0.170016481              -0.075784784               0.000000000               0.193586732              -0.088228728               0.000000000               0.217156983              -0.100672672               0.000000000               0.240727235              -0.113116616               0.000000000               0.264297486              -0.125560560               0.000000000               0.287867738              -0.138004504               0.000000000               0.311437989              -0.150448448               0.000000000               0.335008240              -0.162892392               0.000000000               0.358578492              -0.175336336               0.000000000               0.382148743              -0.187780280               0.000000000               0.405718994              -0.200224224               0.000000000               0.429289246              -0.212668168               0.000000000               0.452859497              -0.225112112               0.000000000               0.476429749              -0.237556056               0.000000000               0.500000000              -0.250000000               0.000000000               0.117295528              -0.062695766               0.000000000               0.141214558              -0.078308531               0.000000000               0.165133587              -0.093921295               0.000000000               0.189052617              -0.109534060               0.000000000               0.212971646              -0.125146824               0.000000000               0.236890676              -0.140759589               0.000000000               0.260809705              -0.156372354               0.000000000               0.284728735              -0.171985118               0.000000000               0.308647764              -0.187597883               0.000000000               0.332566794              -0.203210648               0.000000000               0.356485823              -0.218823412               0.000000000               0.380404853              -0.234436177               0.000000000               0.404323882              -0.250048941               0.000000000               0.428242912              -0.265661706               0.000000000               0.452161941              -0.281274471               0.000000000               0.476080971              -0.296887235               0.000000000               0.500000000              -0.312500000               0.000000000               0.110585458              -0.073890841               0.000000000               0.134923867              -0.092710163               0.000000000               0.159262276              -0.111529486               0.000000000               0.183600685              -0.130348808               0.000000000               0.207939094              -0.149168131               0.000000000               0.232277503              -0.167987453               0.000000000               0.256615912              -0.186806776               0.000000000               0.280954320              -0.205626098               0.000000000               0.305292729              -0.224445420               0.000000000               0.329631138              -0.243264743               0.000000000               0.353969547              -0.262084065               0.000000000               0.378307956              -0.280903388               0.000000000               0.402646365              -0.299722710               0.000000000               0.426984773              -0.318542033               0.000000000               0.451323182              -0.337361355               0.000000000               0.475661591              -0.356180678               0.000000000               0.500000000              -0.375000000               0.000000000               0.102810390              -0.084374307               0.000000000               0.127634741              -0.106444663               0.000000000               0.152459092              -0.128515018               0.000000000               0.177283442              -0.150585374               0.000000000               0.202107793              -0.172655730               0.000000000               0.226932143              -0.194726086               0.000000000               0.251756494              -0.216796442               0.000000000               0.276580845              -0.238866798               0.000000000               0.301405195              -0.260937153               0.000000000               0.326229546              -0.283007509               0.000000000               0.351053896              -0.305077865               0.000000000               0.375878247              -0.327148221               0.000000000               0.400702598              -0.349218577               0.000000000               0.425526948              -0.371288933               0.000000000               0.450351299              -0.393359288               0.000000000               0.475175649              -0.415429644               0.000000000               0.500000000              -0.437500000               0.000000000               0.094045202              -0.094045202               0.000000000               0.119417377              -0.119417377               0.000000000               0.144789552              -0.144789552               0.000000000               0.170161727              -0.170161727               0.000000000               0.195533901              -0.195533901               0.000000000               0.220906076              -0.220906076               0.000000000               0.246278251              -0.246278251               0.000000000               0.271650426              -0.271650426               0.000000000               0.297022601              -0.297022601               0.000000000               0.322394776              -0.322394776               0.000000000               0.347766951              -0.347766951               0.000000000               0.373139126              -0.373139126               0.000000000               0.398511300              -0.398511300               0.000000000               0.423883475              -0.423883475               0.000000000               0.449255650              -0.449255650               0.000000000               0.474627825              -0.474627825               0.000000000               0.500000000              -0.500000000               0.000000000               0.084374307              -0.102810390               0.000000000               0.106444663              -0.127634741               0.000000000               0.128515018              -0.152459092               0.000000000               0.150585374              -0.177283442               0.000000000               0.172655730              -0.202107793               0.000000000               0.194726086              -0.226932143               0.000000000               0.216796442              -0.251756494               0.000000000               0.238866798              -0.276580845               0.000000000               0.260937153              -0.301405195               0.000000000               0.283007509              -0.326229546               0.000000000               0.305077865              -0.351053896               0.000000000               0.327148221              -0.375878247               0.000000000               0.349218577              -0.400702598               0.000000000               0.371288933              -0.425526948               0.000000000               0.393359288              -0.450351299               0.000000000               0.415429644              -0.475175649               0.000000000               0.437500000              -0.500000000               0.000000000               0.073890841              -0.110585458               0.000000000               0.092710163              -0.134923867               0.000000000               0.111529486              -0.159262276               0.000000000               0.130348808              -0.183600685               0.000000000               0.149168131              -0.207939094               0.000000000               0.167987453              -0.232277503               0.000000000               0.186806776              -0.256615912               0.000000000               0.205626098              -0.280954320               0.000000000               0.224445420              -0.305292729               0.000000000               0.243264743              -0.329631138               0.000000000               0.262084065              -0.353969547               0.000000000               0.280903388              -0.378307956               0.000000000               0.299722710              -0.402646365               0.000000000               0.318542033              -0.426984773               0.000000000               0.337361355              -0.451323182               0.000000000               0.356180678              -0.475661591               0.000000000               0.375000000              -0.500000000               0.000000000               0.062695766              -0.117295528               0.000000000               0.078308531              -0.141214558               0.000000000               0.093921295              -0.165133587               0.000000000               0.109534060              -0.189052617               0.000000000               0.125146824              -0.212971646               0.000000000               0.140759589              -0.236890676               0.000000000               0.156372354              -0.260809705               0.000000000               0.171985118              -0.284728735               0.000000000               0.187597883              -0.308647764               0.000000000               0.203210648              -0.332566794               0.000000000               0.218823412              -0.356485823               0.000000000               0.234436177              -0.380404853               0.000000000               0.250048941              -0.404323882               0.000000000               0.265661706              -0.428242912               0.000000000               0.281274471              -0.452161941               0.000000000               0.296887235              -0.476080971               0.000000000               0.312500000              -0.500000000               0.000000000               0.050896897              -0.122875978               0.000000000               0.063340840              -0.146446229               0.000000000               0.075784784              -0.170016481               0.000000000               0.088228728              -0.193586732               0.000000000               0.100672672              -0.217156983               0.000000000               0.113116616              -0.240727235               0.000000000               0.125560560              -0.264297486               0.000000000               0.138004504              -0.287867738               0.000000000               0.150448448              -0.311437989               0.000000000               0.162892392              -0.335008240               0.000000000               0.175336336              -0.358578492               0.000000000               0.187780280              -0.382148743               0.000000000               0.200224224              -0.405718994               0.000000000               0.212668168              -0.429289246               0.000000000               0.225112112              -0.452859497               0.000000000               0.237556056              -0.476429749               0.000000000               0.250000000              -0.500000000               0.000000000               0.038607862              -0.127273065               0.000000000               0.047913621              -0.150568498               0.000000000               0.057219379              -0.173863932               0.000000000               0.066525138              -0.197159365               0.000000000               0.075830897              -0.220454798               0.000000000               0.085136655              -0.243750232               0.000000000               0.094442414              -0.267045665               0.000000000               0.103748172              -0.290341099               0.000000000               0.113053931              -0.313636532               0.000000000               0.122359690              -0.336931966               0.000000000               0.131665448              -0.360227399               0.000000000               0.140971207              -0.383522833               0.000000000               0.150276966              -0.406818266               0.000000000               0.159582724              -0.430113700               0.000000000               0.168888483              -0.453409133               0.000000000               0.178194241              -0.476704567               0.000000000               0.187500000              -0.500000000               0.000000000               0.025947013              -0.130444442               0.000000000               0.032137825              -0.153541665               0.000000000               0.038328636              -0.176638887               0.000000000               0.044519448              -0.199736109               0.000000000               0.050710260              -0.222833332               0.000000000               0.056901071              -0.245930554               0.000000000               0.063091883              -0.269027776               0.000000000               0.069282695              -0.292124999               0.000000000               0.075473506              -0.315222221               0.000000000               0.081664318              -0.338319444               0.000000000               0.087855130              -0.361416666               0.000000000               0.094045942              -0.384513888               0.000000000               0.100236753              -0.407611111               0.000000000               0.106427565              -0.430708333               0.000000000               0.112618377              -0.453805555               0.000000000               0.118809188              -0.476902778               0.000000000               0.125000000              -0.500000000               0.000000000               0.013036280              -0.132359569               0.000000000               0.016127762              -0.155337096               0.000000000               0.019219245              -0.178314623               0.000000000               0.022310727              -0.201292150               0.000000000               0.025402210              -0.224269676               0.000000000               0.028493692              -0.247247203               0.000000000               0.031585175              -0.270224730               0.000000000               0.034676657              -0.293202257               0.000000000               0.037768140              -0.316179784               0.000000000               0.040859622              -0.339157311               0.000000000               0.043951105              -0.362134838               0.000000000               0.047042587              -0.385112365               0.000000000               0.050134070              -0.408089892               0.000000000               0.053225552              -0.431067419               0.000000000               0.056317035              -0.454044946               0.000000000               0.059408517              -0.477022473               0.000000000               0.062500000              -0.500000000               0.000000000               0.000000000              -0.133000000               0.000000000               0.000000000              -0.155937500               0.000000000               0.000000000              -0.178875000               0.000000000               0.000000000              -0.201812500               0.000000000               0.000000000              -0.224750000               0.000000000               0.000000000              -0.247687500               0.000000000               0.000000000              -0.270625000               0.000000000               0.000000000              -0.293562500               0.000000000               0.000000000              -0.316500000               0.000000000               0.000000000              -0.339437500               0.000000000               0.000000000              -0.362375000               0.000000000               0.000000000              -0.385312500               0.000000000               0.000000000              -0.408250000               0.000000000               0.000000000              -0.431187500               0.000000000               0.000000000              -0.454125000               0.000000000               0.000000000              -0.477062500               0.000000000               0.000000000              -0.500000000               0.000000000              -0.133000000               0.000000000               0.000000000              -0.155937500               0.000000000               0.000000000              -0.178875000               0.000000000               0.000000000              -0.201812500               0.000000000               0.000000000              -0.224750000               0.000000000               0.000000000              -0.247687500               0.000000000               0.000000000              -0.270625000               0.000000000               0.000000000              -0.293562500               0.000000000               0.000000000              -0.316500000               0.000000000               0.000000000              -0.339437500               0.000000000               0.000000000              -0.362375000               0.000000000               0.000000000              -0.385312500               0.000000000               0.000000000              -0.408250000               0.000000000               0.000000000              -0.431187500               0.000000000               0.000000000              -0.454125000               0.000000000               0.000000000              -0.477062500               0.000000000               0.000000000              -0.500000000               0.000000000               0.000000000              -0.132359569              -0.013036280               0.000000000              -0.155337096              -0.016127762               0.000000000              -0.178314623              -0.019219245               0.000000000              -0.201292150              -0.022310727               0.000000000              -0.224269676              -0.025402210               0.000000000              -0.247247203              -0.028493692               0.000000000              -0.270224730              -0.031585175               0.000000000              -0.293202257              -0.034676657               0.000000000              -0.316179784              -0.037768140               0.000000000              -0.339157311              -0.040859622               0.000000000              -0.362134838              -0.043951105               0.000000000              -0.385112365              -0.047042587               0.000000000              -0.408089892              -0.050134070               0.000000000              -0.431067419              -0.053225552               0.000000000              -0.454044946              -0.056317035               0.000000000              -0.477022473              -0.059408517               0.000000000              -0.500000000              -0.062500000               0.000000000              -0.130444442              -0.025947013               0.000000000              -0.153541665              -0.032137825               0.000000000              -0.176638887              -0.038328636               0.000000000              -0.199736109              -0.044519448               0.000000000              -0.222833332              -0.050710260               0.000000000              -0.245930554              -0.056901071               0.000000000              -0.269027776              -0.063091883               0.000000000              -0.292124999              -0.069282695               0.000000000              -0.315222221              -0.075473506               0.000000000              -0.338319444              -0.081664318               0.000000000              -0.361416666              -0.087855130               0.000000000              -0.384513888              -0.094045942               0.000000000              -0.407611111              -0.100236753               0.000000000              -0.430708333              -0.106427565               0.000000000              -0.453805555              -0.112618377               0.000000000              -0.476902778              -0.118809188               0.000000000              -0.500000000              -0.125000000               0.000000000              -0.127273065              -0.038607862               0.000000000              -0.150568498              -0.047913621               0.000000000              -0.173863932              -0.057219379               0.000000000              -0.197159365              -0.066525138               0.000000000              -0.220454798              -0.075830897               0.000000000              -0.243750232              -0.085136655               0.000000000              -0.267045665              -0.094442414               0.000000000              -0.290341099              -0.103748172               0.000000000              -0.313636532              -0.113053931               0.000000000              -0.336931966              -0.122359690               0.000000000              -0.360227399              -0.131665448               0.000000000              -0.383522833              -0.140971207               0.000000000              -0.406818266              -0.150276966               0.000000000              -0.430113700              -0.159582724               0.000000000              -0.453409133              -0.168888483               0.000000000              -0.476704567              -0.178194241               0.000000000              -0.500000000              -0.187500000               0.000000000              -0.122875978              -0.050896897               0.000000000              -0.146446229              -0.063340840               0.000000000              -0.170016481              -0.075784784               0.000000000              -0.193586732              -0.088228728               0.000000000              -0.217156983              -0.100672672               0.000000000              -0.240727235              -0.113116616               0.000000000              -0.264297486              -0.125560560               0.000000000              -0.287867738              -0.138004504               0.000000000              -0.311437989              -0.150448448               0.000000000              -0.335008240              -0.162892392               0.000000000              -0.358578492              -0.175336336               0.000000000              -0.382148743              -0.187780280               0.000000000              -0.405718994              -0.200224224               0.000000000              -0.429289246              -0.212668168               0.000000000              -0.452859497              -0.225112112               0.000000000              -0.476429749              -0.237556056               0.000000000              -0.500000000              -0.250000000               0.000000000              -0.117295528              -0.062695766               0.000000000              -0.141214558              -0.078308531               0.000000000              -0.165133587              -0.093921295               0.000000000              -0.189052617              -0.109534060               0.000000000              -0.212971646              -0.125146824               0.000000000              -0.236890676              -0.140759589               0.000000000              -0.260809705              -0.156372354               0.000000000              -0.284728735              -0.171985118               0.000000000              -0.308647764              -0.187597883               0.000000000              -0.332566794              -0.203210648               0.000000000              -0.356485823              -0.218823412               0.000000000              -0.380404853              -0.234436177               0.000000000              -0.404323882              -0.250048941               0.000000000              -0.428242912              -0.265661706               0.000000000              -0.452161941              -0.281274471               0.000000000              -0.476080971              -0.296887235               0.000000000              -0.500000000              -0.312500000               0.000000000              -0.110585458              -0.073890841               0.000000000              -0.134923867              -0.092710163               0.000000000              -0.159262276              -0.111529486               0.000000000              -0.183600685              -0.130348808               0.000000000              -0.207939094              -0.149168131               0.000000000              -0.232277503              -0.167987453               0.000000000              -0.256615912              -0.186806776               0.000000000              -0.280954320              -0.205626098               0.000000000              -0.305292729              -0.224445420               0.000000000              -0.329631138              -0.243264743               0.000000000              -0.353969547              -0.262084065               0.000000000              -0.378307956              -0.280903388               0.000000000              -0.402646365              -0.299722710               0.000000000              -0.426984773              -0.318542033               0.000000000              -0.451323182              -0.337361355               0.000000000              -0.475661591              -0.356180678               0.000000000              -0.500000000              -0.375000000               0.000000000              -0.102810390              -0.084374307               0.000000000              -0.127634741              -0.106444663               0.000000000              -0.152459092              -0.128515018               0.000000000              -0.177283442              -0.150585374               0.000000000              -0.202107793              -0.172655730               0.000000000              -0.226932143              -0.194726086               0.000000000              -0.251756494              -0.216796442               0.000000000              -0.276580845              -0.238866798               0.000000000              -0.301405195              -0.260937153               0.000000000              -0.326229546              -0.283007509               0.000000000              -0.351053896              -0.305077865               0.000000000              -0.375878247              -0.327148221               0.000000000              -0.400702598              -0.349218577               0.000000000              -0.425526948              -0.371288933               0.000000000              -0.450351299              -0.393359288               0.000000000              -0.475175649              -0.415429644               0.000000000              -0.500000000              -0.437500000               0.000000000              -0.094045202              -0.094045202               0.000000000              -0.119417377              -0.119417377               0.000000000              -0.144789552              -0.144789552               0.000000000              -0.170161727              -0.170161727               0.000000000              -0.195533901              -0.195533901               0.000000000              -0.220906076              -0.220906076               0.000000000              -0.246278251              -0.246278251               0.000000000              -0.271650426              -0.271650426               0.000000000              -0.297022601              -0.297022601               0.000000000              -0.322394776              -0.322394776               0.000000000              -0.347766951              -0.347766951               0.000000000              -0.373139126              -0.373139126               0.000000000              -0.398511300              -0.398511300               0.000000000              -0.423883475              -0.423883475               0.000000000              -0.449255650              -0.449255650               0.000000000              -0.474627825              -0.474627825               0.000000000              -0.500000000              -0.500000000               0.000000000              -0.084374307              -0.102810390               0.000000000              -0.106444663              -0.127634741               0.000000000              -0.128515018              -0.152459092               0.000000000              -0.150585374              -0.177283442               0.000000000              -0.172655730              -0.202107793               0.000000000              -0.194726086              -0.226932143               0.000000000              -0.216796442              -0.251756494               0.000000000              -0.238866798              -0.276580845               0.000000000              -0.260937153              -0.301405195               0.000000000              -0.283007509              -0.326229546               0.000000000              -0.305077865              -0.351053896               0.000000000              -0.327148221              -0.375878247               0.000000000              -0.349218577              -0.400702598               0.000000000              -0.371288933              -0.425526948               0.000000000              -0.393359288              -0.450351299               0.000000000              -0.415429644              -0.475175649               0.000000000              -0.437500000              -0.500000000               0.000000000              -0.073890841              -0.110585458               0.000000000              -0.092710163              -0.134923867               0.000000000              -0.111529486              -0.159262276               0.000000000              -0.130348808              -0.183600685               0.000000000              -0.149168131              -0.207939094               0.000000000              -0.167987453              -0.232277503               0.000000000              -0.186806776              -0.256615912               0.000000000              -0.205626098              -0.280954320               0.000000000              -0.224445420              -0.305292729               0.000000000              -0.243264743              -0.329631138               0.000000000              -0.262084065              -0.353969547               0.000000000              -0.280903388              -0.378307956               0.000000000              -0.299722710              -0.402646365               0.000000000              -0.318542033              -0.426984773               0.000000000              -0.337361355              -0.451323182               0.000000000              -0.356180678              -0.475661591               0.000000000              -0.375000000              -0.500000000               0.000000000              -0.062695766              -0.117295528               0.000000000              -0.078308531              -0.141214558               0.000000000              -0.093921295              -0.165133587               0.000000000              -0.109534060              -0.189052617               0.000000000              -0.125146824              -0.212971646               0.000000000              -0.140759589              -0.236890676               0.000000000              -0.156372354              -0.260809705               0.000000000              -0.171985118              -0.284728735               0.000000000              -0.187597883              -0.308647764               0.000000000              -0.203210648              -0.332566794               0.000000000              -0.218823412              -0.356485823               0.000000000              -0.234436177              -0.380404853               0.000000000              -0.250048941              -0.404323882               0.000000000              -0.265661706              -0.428242912               0.000000000              -0.281274471              -0.452161941               0.000000000              -0.296887235              -0.476080971               0.000000000              -0.312500000              -0.500000000               0.000000000              -0.050896897              -0.122875978               0.000000000              -0.063340840              -0.146446229               0.000000000              -0.075784784              -0.170016481               0.000000000              -0.088228728              -0.193586732               0.000000000              -0.100672672              -0.217156983               0.000000000              -0.113116616              -0.240727235               0.000000000              -0.125560560              -0.264297486               0.000000000              -0.138004504              -0.287867738               0.000000000              -0.150448448              -0.311437989               0.000000000              -0.162892392              -0.335008240               0.000000000              -0.175336336              -0.358578492               0.000000000              -0.187780280              -0.382148743               0.000000000              -0.200224224              -0.405718994               0.000000000              -0.212668168              -0.429289246               0.000000000              -0.225112112              -0.452859497               0.000000000              -0.237556056              -0.476429749               0.000000000              -0.250000000              -0.500000000               0.000000000              -0.038607862              -0.127273065               0.000000000              -0.047913621              -0.150568498               0.000000000              -0.057219379              -0.173863932               0.000000000              -0.066525138              -0.197159365               0.000000000              -0.075830897              -0.220454798               0.000000000              -0.085136655              -0.243750232               0.000000000              -0.094442414              -0.267045665               0.000000000              -0.103748172              -0.290341099               0.000000000              -0.113053931              -0.313636532               0.000000000              -0.122359690              -0.336931966               0.000000000              -0.131665448              -0.360227399               0.000000000              -0.140971207              -0.383522833               0.000000000              -0.150276966              -0.406818266               0.000000000              -0.159582724              -0.430113700               0.000000000              -0.168888483              -0.453409133               0.000000000              -0.178194241              -0.476704567               0.000000000              -0.187500000              -0.500000000               0.000000000              -0.025947013              -0.130444442               0.000000000              -0.032137825              -0.153541665               0.000000000              -0.038328636              -0.176638887               0.000000000              -0.044519448              -0.199736109               0.000000000              -0.050710260              -0.222833332               0.000000000              -0.056901071              -0.245930554               0.000000000              -0.063091883              -0.269027776               0.000000000              -0.069282695              -0.292124999               0.000000000              -0.075473506              -0.315222221               0.000000000              -0.081664318              -0.338319444               0.000000000              -0.087855130              -0.361416666               0.000000000              -0.094045942              -0.384513888               0.000000000              -0.100236753              -0.407611111               0.000000000              -0.106427565              -0.430708333               0.000000000              -0.112618377              -0.453805555               0.000000000              -0.118809188              -0.476902778               0.000000000              -0.125000000              -0.500000000               0.000000000              -0.013036280              -0.132359569               0.000000000              -0.016127762              -0.155337096               0.000000000              -0.019219245              -0.178314623               0.000000000              -0.022310727              -0.201292150               0.000000000              -0.025402210              -0.224269676               0.000000000              -0.028493692              -0.247247203               0.000000000              -0.031585175              -0.270224730               0.000000000              -0.034676657              -0.293202257               0.000000000              -0.037768140              -0.316179784               0.000000000              -0.040859622              -0.339157311               0.000000000              -0.043951105              -0.362134838               0.000000000              -0.047042587              -0.385112365               0.000000000              -0.050134070              -0.408089892               0.000000000              -0.053225552              -0.431067419               0.000000000              -0.056317035              -0.454044946               0.000000000              -0.059408517              -0.477022473               0.000000000              -0.062500000              -0.500000000               0.000000000               0.000000000              -0.133000000               0.000000000               0.000000000              -0.155937500               0.000000000               0.000000000              -0.178875000               0.000000000               0.000000000              -0.201812500               0.000000000               0.000000000              -0.224750000               0.000000000               0.000000000              -0.247687500               0.000000000               0.000000000              -0.270625000               0.000000000               0.000000000              -0.293562500               0.000000000               0.000000000              -0.316500000               0.000000000               0.000000000              -0.339437500               0.000000000               0.000000000              -0.362375000               0.000000000               0.000000000              -0.385312500               0.000000000               0.000000000              -0.408250000               0.000000000               0.000000000              -0.431187500               0.000000000               0.000000000              -0.454125000               0.000000000               0.000000000              -0.477062500               0.000000000               0.000000000              -0.500000000               0.000000000              -0.133000000               0.000000000               0.000000000              -0.155937500               0.000000000               0.000000000              -0.178875000               0.000000000               0.000000000              -0.201812500               0.000000000               0.000000000              -0.224750000               0.000000000               0.000000000              -0.247687500               0.000000000               0.000000000              -0.270625000               0.000000000               0.000000000              -0.293562500               0.000000000               0.000000000              -0.316500000               0.000000000               0.000000000              -0.339437500               0.000000000               0.000000000              -0.362375000               0.000000000               0.000000000              -0.385312500               0.000000000               0.000000000              -0.408250000               0.000000000               0.000000000              -0.431187500               0.000000000               0.000000000              -0.454125000               0.000000000               0.000000000              -0.477062500               0.000000000               0.000000000              -0.500000000               0.000000000               0.000000000              -0.132359569               0.013036280               0.000000000              -0.155337096               0.016127762               0.000000000              -0.178314623               0.019219245               0.000000000              -0.201292150               0.022310727               0.000000000              -0.224269676               0.025402210               0.000000000              -0.247247203               0.028493692               0.000000000              -0.270224730               0.031585175               0.000000000              -0.293202257               0.034676657               0.000000000              -0.316179784               0.037768140               0.000000000              -0.339157311               0.040859622               0.000000000              -0.362134838               0.043951105               0.000000000              -0.385112365               0.047042587               0.000000000              -0.408089892               0.050134070               0.000000000              -0.431067419               0.053225552               0.000000000              -0.454044946               0.056317035               0.000000000              -0.477022473               0.059408517               0.000000000              -0.500000000               0.062500000               0.000000000              -0.130444442               0.025947013               0.000000000              -0.153541665               0.032137825               0.000000000              -0.176638887               0.038328636               0.000000000              -0.199736109               0.044519448               0.000000000              -0.222833332               0.050710260               0.000000000              -0.245930554               0.056901071               0.000000000              -0.269027776               0.063091883               0.000000000              -0.292124999               0.069282695               0.000000000              -0.315222221               0.075473506               0.000000000              -0.338319444               0.081664318               0.000000000              -0.361416666               0.087855130               0.000000000              -0.384513888               0.094045942               0.000000000              -0.407611111               0.100236753               0.000000000              -0.430708333               0.106427565               0.000000000              -0.453805555               0.112618377               0.000000000              -0.476902778               0.118809188               0.000000000              -0.500000000               0.125000000               0.000000000              -0.127273065               0.038607862               0.000000000              -0.150568498               0.047913621               0.000000000              -0.173863932               0.057219379               0.000000000              -0.197159365               0.066525138               0.000000000              -0.220454798               0.075830897               0.000000000              -0.243750232               0.085136655               0.000000000              -0.267045665               0.094442414               0.000000000              -0.290341099               0.103748172               0.000000000              -0.313636532               0.113053931               0.000000000              -0.336931966               0.122359690               0.000000000              -0.360227399               0.131665448               0.000000000              -0.383522833               0.140971207               0.000000000              -0.406818266               0.150276966               0.000000000              -0.430113700               0.159582724               0.000000000              -0.453409133               0.168888483               0.000000000              -0.476704567               0.178194241               0.000000000              -0.500000000               0.187500000               0.000000000              -0.122875978               0.050896897               0.000000000              -0.146446229               0.063340840               0.000000000              -0.170016481               0.075784784               0.000000000              -0.193586732               0.088228728               0.000000000              -0.217156983               0.100672672               0.000000000              -0.240727235               0.113116616               0.000000000              -0.264297486               0.125560560               0.000000000              -0.287867738               0.138004504               0.000000000              -0.311437989               0.150448448               0.000000000              -0.335008240               0.162892392               0.000000000              -0.358578492               0.175336336               0.000000000              -0.382148743               0.187780280               0.000000000              -0.405718994               0.200224224               0.000000000              -0.429289246               0.212668168               0.000000000              -0.452859497               0.225112112               0.000000000              -0.476429749               0.237556056               0.000000000              -0.500000000               0.250000000               0.000000000              -0.117295528               0.062695766               0.000000000              -0.141214558               0.078308531               0.000000000              -0.165133587               0.093921295               0.000000000              -0.189052617               0.109534060               0.000000000              -0.212971646               0.125146824               0.000000000              -0.236890676               0.140759589               0.000000000              -0.260809705               0.156372354               0.000000000              -0.284728735               0.171985118               0.000000000              -0.308647764               0.187597883               0.000000000              -0.332566794               0.203210648               0.000000000              -0.356485823               0.218823412               0.000000000              -0.380404853               0.234436177               0.000000000              -0.404323882               0.250048941               0.000000000              -0.428242912               0.265661706               0.000000000              -0.452161941               0.281274471               0.000000000              -0.476080971               0.296887235               0.000000000              -0.500000000               0.312500000               0.000000000              -0.110585458               0.073890841               0.000000000              -0.134923867               0.092710163               0.000000000              -0.159262276               0.111529486               0.000000000              -0.183600685               0.130348808               0.000000000              -0.207939094               0.149168131               0.000000000              -0.232277503               0.167987453               0.000000000              -0.256615912               0.186806776               0.000000000              -0.280954320               0.205626098               0.000000000              -0.305292729               0.224445420               0.000000000              -0.329631138               0.243264743               0.000000000              -0.353969547               0.262084065               0.000000000              -0.378307956               0.280903388               0.000000000              -0.402646365               0.299722710               0.000000000              -0.426984773               0.318542033               0.000000000              -0.451323182               0.337361355               0.000000000              -0.475661591               0.356180678               0.000000000              -0.500000000               0.375000000               0.000000000              -0.102810390               0.084374307               0.000000000              -0.127634741               0.106444663               0.000000000              -0.152459092               0.128515018               0.000000000              -0.177283442               0.150585374               0.000000000              -0.202107793               0.172655730               0.000000000              -0.226932143               0.194726086               0.000000000              -0.251756494               0.216796442               0.000000000              -0.276580845               0.238866798               0.000000000              -0.301405195               0.260937153               0.000000000              -0.326229546               0.283007509               0.000000000              -0.351053896               0.305077865               0.000000000              -0.375878247               0.327148221               0.000000000              -0.400702598               0.349218577               0.000000000              -0.425526948               0.371288933               0.000000000              -0.450351299               0.393359288               0.000000000              -0.475175649               0.415429644               0.000000000              -0.500000000               0.437500000               0.000000000              -0.094045202               0.094045202               0.000000000              -0.119417377               0.119417377               0.000000000              -0.144789552               0.144789552               0.000000000              -0.170161727               0.170161727               0.000000000              -0.195533901               0.195533901               0.000000000              -0.220906076               0.220906076               0.000000000              -0.246278251               0.246278251               0.000000000              -0.271650426               0.271650426               0.000000000              -0.297022601               0.297022601               0.000000000              -0.322394776               0.322394776               0.000000000              -0.347766951               0.347766951               0.000000000              -0.373139126               0.373139126               0.000000000              -0.398511300               0.398511300               0.000000000              -0.423883475               0.423883475               0.000000000              -0.449255650               0.449255650               0.000000000              -0.474627825               0.474627825               0.000000000              -0.500000000               0.500000000               0.000000000              -0.084374307               0.102810390               0.000000000              -0.106444663               0.127634741               0.000000000              -0.128515018               0.152459092               0.000000000              -0.150585374               0.177283442               0.000000000              -0.172655730               0.202107793               0.000000000              -0.194726086               0.226932143               0.000000000              -0.216796442               0.251756494               0.000000000              -0.238866798               0.276580845               0.000000000              -0.260937153               0.301405195               0.000000000              -0.283007509               0.326229546               0.000000000              -0.305077865               0.351053896               0.000000000              -0.327148221               0.375878247               0.000000000              -0.349218577               0.400702598               0.000000000              -0.371288933               0.425526948               0.000000000              -0.393359288               0.450351299               0.000000000              -0.415429644               0.475175649               0.000000000              -0.437500000               0.500000000               0.000000000              -0.073890841               0.110585458               0.000000000              -0.092710163               0.134923867               0.000000000              -0.111529486               0.159262276               0.000000000              -0.130348808               0.183600685               0.000000000              -0.149168131               0.207939094               0.000000000              -0.167987453               0.232277503               0.000000000              -0.186806776               0.256615912               0.000000000              -0.205626098               0.280954320               0.000000000              -0.224445420               0.305292729               0.000000000              -0.243264743               0.329631138               0.000000000              -0.262084065               0.353969547               0.000000000              -0.280903388               0.378307956               0.000000000              -0.299722710               0.402646365               0.000000000              -0.318542033               0.426984773               0.000000000              -0.337361355               0.451323182               0.000000000              -0.356180678               0.475661591               0.000000000              -0.375000000               0.500000000               0.000000000              -0.062695766               0.117295528               0.000000000              -0.078308531               0.141214558               0.000000000              -0.093921295               0.165133587               0.000000000              -0.109534060               0.189052617               0.000000000              -0.125146824               0.212971646               0.000000000              -0.140759589               0.236890676               0.000000000              -0.156372354               0.260809705               0.000000000              -0.171985118               0.284728735               0.000000000              -0.187597883               0.308647764               0.000000000              -0.203210648               0.332566794               0.000000000              -0.218823412               0.356485823               0.000000000              -0.234436177               0.380404853               0.000000000              -0.250048941               0.404323882               0.000000000              -0.265661706               0.428242912               0.000000000              -0.281274471               0.452161941               0.000000000              -0.296887235               0.476080971               0.000000000              -0.312500000               0.500000000               0.000000000              -0.050896897               0.122875978               0.000000000              -0.063340840               0.146446229               0.000000000              -0.075784784               0.170016481               0.000000000              -0.088228728               0.193586732               0.000000000              -0.100672672               0.217156983               0.000000000              -0.113116616               0.240727235               0.000000000              -0.125560560               0.264297486               0.000000000              -0.138004504               0.287867738               0.000000000              -0.150448448               0.311437989               0.000000000              -0.162892392               0.335008240               0.000000000              -0.175336336               0.358578492               0.000000000              -0.187780280               0.382148743               0.000000000              -0.200224224               0.405718994               0.000000000              -0.212668168               0.429289246               0.000000000              -0.225112112               0.452859497               0.000000000              -0.237556056               0.476429749               0.000000000              -0.250000000               0.500000000               0.000000000              -0.038607862               0.127273065               0.000000000              -0.047913621               0.150568498               0.000000000              -0.057219379               0.173863932               0.000000000              -0.066525138               0.197159365               0.000000000              -0.075830897               0.220454798               0.000000000              -0.085136655               0.243750232               0.000000000              -0.094442414               0.267045665               0.000000000              -0.103748172               0.290341099               0.000000000              -0.113053931               0.313636532               0.000000000              -0.122359690               0.336931966               0.000000000              -0.131665448               0.360227399               0.000000000              -0.140971207               0.383522833               0.000000000              -0.150276966               0.406818266               0.000000000              -0.159582724               0.430113700               0.000000000              -0.168888483               0.453409133               0.000000000              -0.178194241               0.476704567               0.000000000              -0.187500000               0.500000000               0.000000000              -0.025947013               0.130444442               0.000000000              -0.032137825               0.153541665               0.000000000              -0.038328636               0.176638887               0.000000000              -0.044519448               0.199736109               0.000000000              -0.050710260               0.222833332               0.000000000              -0.056901071               0.245930554               0.000000000              -0.063091883               0.269027776               0.000000000              -0.069282695               0.292124999               0.000000000              -0.075473506               0.315222221               0.000000000              -0.081664318               0.338319444               0.000000000              -0.087855130               0.361416666               0.000000000              -0.094045942               0.384513888               0.000000000              -0.100236753               0.407611111               0.000000000              -0.106427565               0.430708333               0.000000000              -0.112618377               0.453805555               0.000000000              -0.118809188               0.476902778               0.000000000              -0.125000000               0.500000000               0.000000000              -0.013036280               0.132359569               0.000000000              -0.016127762               0.155337096               0.000000000              -0.019219245               0.178314623               0.000000000              -0.022310727               0.201292150               0.000000000              -0.025402210               0.224269676               0.000000000              -0.028493692               0.247247203               0.000000000              -0.031585175               0.270224730               0.000000000              -0.034676657               0.293202257               0.000000000              -0.037768140               0.316179784               0.000000000              -0.040859622               0.339157311               0.000000000              -0.043951105               0.362134838               0.000000000              -0.047042587               0.385112365               0.000000000              -0.050134070               0.408089892               0.000000000              -0.053225552               0.431067419               0.000000000              -0.056317035               0.454044946               0.000000000              -0.059408517               0.477022473               0.000000000              -0.062500000               0.500000000               0.000000000               0.000000000               0.133000000               0.000000000               0.000000000               0.155937500               0.000000000               0.000000000               0.178875000               0.000000000               0.000000000               0.201812500               0.000000000               0.000000000               0.224750000               0.000000000               0.000000000               0.247687500               0.000000000               0.000000000               0.270625000               0.000000000               0.000000000               0.293562500               0.000000000               0.000000000               0.316500000               0.000000000               0.000000000               0.339437500               0.000000000               0.000000000               0.362375000               0.000000000               0.000000000               0.385312500               0.000000000               0.000000000               0.408250000               0.000000000               0.000000000               0.431187500               0.000000000               0.000000000               0.454125000               0.000000000               0.000000000               0.477062500               0.000000000               0.000000000               0.500000000               0.000000000 </DataArray>
</Points>
<Cells>
<DataArray type="Int32"                                    Name="connectivity"                                                      NumberOfComponents=" 1" format="ascii">
         0          1         18         17          1          2         19         18          2          3         20         19          3          4         21         20          4          5         22         21          5          6         23         22          6          7         24         23          7          8         25         24          8          9         26         25          9         10         27         26         10         11         28         27         11         12         29         28         12         13         30         29         13         14         31         30         14         15         32         31         15         16         33         32         17         18         35         34         18         19         36         35         19         20         37         36         20         21         38         37         21         22         39         38         22         23         40         39         23         24         41         40         24         25         42         41         25         26         43         42         26         27         44         43         27         28         45         44         28         29         46         45         29         30         47         46         30         31         48         47         31         32         49         48         32         33         50         49         34         35         52         51         35         36         53         52         36         37         54         53         37         38         55         54         38         39         56         55         39         40         57         56         40         41         58         57         41         42         59         58         42         43         60         59         43         44         61         60         44         45         62         61         45         46         63         62         46         47         64         63         47         48         65         64         48         49         66         65         49         50         67         66         51         52         69         68         52         53         70         69         53         54         71         70         54         55         72         71         55         56         73         72         56         57         74         73         57         58         75         74         58         59         76         75         59         60         77         76         60         61         78         77         61         62         79         78         62         63         80         79         63         64         81         80         64         65         82         81         65         66         83         82         66         67         84         83         68         69         86         85         69         70         87         86         70         71         88         87         71         72         89         88         72         73         90         89         73         74         91         90         74         75         92         91         75         76         93         92         76         77         94         93         77         78         95         94         78         79         96         95         79         80         97         96         80         81         98         97         81         82         99         98         82         83        100         99         83         84        101        100         85         86        103        102         86         87        104        103         87         88        105        104         88         89        106        105         89         90        107        106         90         91        108        107         91         92        109        108         92         93        110        109         93         94        111        110         94         95        112        111         95         96        113        112         96         97        114        113         97         98        115        114         98         99        116        115         99        100        117        116        100        101        118        117        102        103        120        119        103        104        121        120        104        105        122        121        105        106        123        122        106        107        124        123        107        108        125        124        108        109        126        125        109        110        127        126        110        111        128        127        111        112        129        128        112        113        130        129        113        114        131        130        114        115        132        131        115        116        133        132        116        117        134        133        117        118        135        134        119        120        137        136        120        121        138        137        121        122        139        138        122        123        140        139        123        124        141        140        124        125        142        141        125        126        143        142        126        127        144        143        127        128        145        144        128        129        146        145        129        130        147        146        130        131        148        147        131        132        149        148        132        133        150        149        133        134        151        150        134        135        152        151        136        137        154        153        137        138        155        154        138        139        156        155        139        140        157        156        140        141        158        157        141        142        159        158        142        143        160        159        143        144        161        160        144        145        162        161        145        146        163        162        146        147        164        163        147        148        165        164        148        149        166        165        149        150        167        166        150        151        168        167        151        152        169        168        153        154        171        170        154        155        172        171        155        156        173        172        156        157        174        173        157        158        175        174        158        159        176        175        159        160        177        176        160        161        178        177        161        162        179        178        162        163        180        179        163        164        181        180        164        165        182        181        165        166        183        182        166        167        184        183        167        168        185        184        168        169        186        185        170        171        188        187        171        172        189        188        172        173        190        189        173        174        191        190        174        175        192        191        175        176        193        192        176        177        194        193        177        178        195        194        178        179        196        195        179        180        197        196        180        181        198        197        181        182        199        198        182        183        200        199        183        184        201        200        184        185        202        201        185        186        203        202        187        188        205        204        188        189        206        205        189        190        207        206        190        191        208        207        191        192        209        208        192        193        210        209        193        194        211        210        194        195        212        211        195        196        213        212        196        197        214        213        197        198        215        214        198        199        216        215        199        200        217        216        200        201        218        217        201        202        219        218        202        203        220        219        204        205        222        221        205        206        223        222        206        207        224        223        207        208        225        224        208        209        226        225        209        210        227        226        210        211        228        227        211        212        229        228        212        213        230        229        213        214        231        230        214        215        232        231        215        216        233        232        216        217        234        233        217        218        235        234        218        219        236        235        219        220        237        236        221        222        239        238        222        223        240        239        223        224        241        240        224        225        242        241        225        226        243        242        226        227        244        243        227        228        245        244        228        229        246        245        229        230        247        246        230        231        248        247        231        232        249        248        232        233        250        249        233        234        251        250        234        235        252        251        235        236        253        252        236        237        254        253        238        239        256        255        239        240        257        256        240        241        258        257        241        242        259        258        242        243        260        259        243        244        261        260        244        245        262        261        245        246        263        262        246        247        264        263        247        248        265        264        248        249        266        265        249        250        267        266        250        251        268        267        251        252        269        268        252        253        270        269        253        254        271        270        255        256        273        272        256        257        274        273        257        258        275        274        258        259        276        275        259        260        277        276        260        261        278        277        261        262        279        278        262        263        280        279        263        264        281        280        264        265        282        281        265        266        283        282        266        267        284        283        267        268        285        284        268        269        286        285        269        270        287        286        270        271        288        287        306        307          1          0        307        308          2          1        308        309          3          2        309        310          4          3        310        311          5          4        311        312          6          5        312        313          7          6        313        314          8          7        314        315          9          8        315        316         10          9        316        317         11         10        317        318         12         11        318        319         13         12        319        320         14         13        320        321         15         14        321        322         16         15        323        324        307        306        324        325        308        307        325        326        309        308        326        327        310        309        327        328        311        310        328        329        312        311        329        330        313        312        330        331        314        313        331        332        315        314        332        333        316        315        333        334        317        316        334        335        318        317        335        336        319        318        336        337        320        319        337        338        321        320        338        339        322        321        340        341        324        323        341        342        325        324        342        343        326        325        343        344        327        326        344        345        328        327        345        346        329        328        346        347        330        329        347        348        331        330        348        349        332        331        349        350        333        332        350        351        334        333        351        352        335        334        352        353        336        335        353        354        337        336        354        355        338        337        355        356        339        338        357        358        341        340        358        359        342        341        359        360        343        342        360        361        344        343        361        362        345        344        362        363        346        345        363        364        347        346        364        365        348        347        365        366        349        348        366        367        350        349        367        368        351        350        368        369        352        351        369        370        353        352        370        371        354        353        371        372        355        354        372        373        356        355        374        375        358        357        375        376        359        358        376        377        360        359        377        378        361        360        378        379        362        361        379        380        363        362        380        381        364        363        381        382        365        364        382        383        366        365        383        384        367        366        384        385        368        367        385        386        369        368        386        387        370        369        387        388        371        370        388        389        372        371        389        390        373        372        391        392        375        374        392        393        376        375        393        394        377        376        394        395        378        377        395        396        379        378        396        397        380        379        397        398        381        380        398        399        382        381        399        400        383        382        400        401        384        383        401        402        385        384        402        403        386        385        403        404        387        386        404        405        388        387        405        406        389        388        406        407        390        389        408        409        392        391        409        410        393        392        410        411        394        393        411        412        395        394        412        413        396        395        413        414        397        396        414        415        398        397        415        416        399        398        416        417        400        399        417        418        401        400        418        419        402        401        419        420        403        402        420        421        404        403        421        422        405        404        422        423        406        405        423        424        407        406        425        426        409        408        426        427        410        409        427        428        411        410        428        429        412        411        429        430        413        412        430        431        414        413        431        432        415        414        432        433        416        415        433        434        417        416        434        435        418        417        435        436        419        418        436        437        420        419        437        438        421        420        438        439        422        421        439        440        423        422        440        441        424        423        442        443        426        425        443        444        427        426        444        445        428        427        445        446        429        428        446        447        430        429        447        448        431        430        448        449        432        431        449        450        433        432        450        451        434        433        451        452        435        434        452        453        436        435        453        454        437        436        454        455        438        437        455        456        439        438        456        457        440        439        457        458        441        440        459        460        443        442        460        461        444        443        461        462        445        444        462        463        446        445        463        464        447        446        464        465        448        447        465        466        449        448        466        467        450        449        467        468        451        450        468        469        452        451        469        470        453        452        470        471        454        453        471        472        455        454        472        473        456        455        473        474        457        456        474        475        458        457        476        477        460        459        477        478        461        460        478        479        462        461        479        480        463        462        480        481        464        463        481        482        465        464        482        483        466        465        483        484        467        466        484        485        468        467        485        486        469        468        486        487        470        469        487        488        471        470        488        489        472        471        489        490        473        472        490        491        474        473        491        492        475        474        493        494        477        476        494        495        478        477        495        496        479        478        496        497        480        479        497        498        481        480        498        499        482        481        499        500        483        482        500        501        484        483        501        502        485        484        502        503        486        485        503        504        487        486        504        505        488        487        505        506        489        488        506        507        490        489        507        508        491        490        508        509        492        491        510        511        494        493        511        512        495        494        512        513        496        495        513        514        497        496        514        515        498        497        515        516        499        498        516        517        500        499        517        518        501        500        518        519        502        501        519        520        503        502        520        521        504        503        521        522        505        504        522        523        506        505        523        524        507        506        524        525        508        507        525        526        509        508        527        528        511        510        528        529        512        511        529        530        513        512        530        531        514        513        531        532        515        514        532        533        516        515        533        534        517        516        534        535        518        517        535        536        519        518        536        537        520        519        537        538        521        520        538        539        522        521        539        540        523        522        540        541        524        523        541        542        525        524        542        543        526        525        544        545        528        527        545        546        529        528        546        547        530        529        547        548        531        530        548        549        532        531        549        550        533        532        550        551        534        533        551        552        535        534        552        553        536        535        553        554        537        536        554        555        538        537        555        556        539        538        556        557        540        539        557        558        541        540        558        559        542        541        559        560        543        542        561        562        545        544        562        563        546        545        563        564        547        546        564        565        548        547        565        566        549        548        566        567        550        549        567        568        551        550        568        569        552        551        569        570        553        552        570        571        554        553        571        572        555        554        572        573        556        555        573        574        557        556        574        575        558        557        575        576        559        558        576        577        560        559        578        579        596        595        579        580        597        596        580        581        598        597        581        582        599        598        582        583        600        599        583        584        601        600        584        585        602        601        585        586        603        602        586        587        604        603        587        588        605        604        588        589        606        605        589        590        607        606        590        591        608        607        591        592        609        608        592        593        610        609        593        594        611        610        595        596        613        612        596        597        614        613        597        598        615        614        598        599        616        615        599        600        617        616        600        601        618        617        601        602        619        618        602        603        620        619        603        604        621        620        604        605        622        621        605        606        623        622        606        607        624        623        607        608        625        624        608        609        626        625        609        610        627        626        610        611        628        627        612        613        630        629        613        614        631        630        614        615        632        631        615        616        633        632        616        617        634        633        617        618        635        634        618        619        636        635        619        620        637        636        620        621        638        637        621        622        639        638        622        623        640        639        623        624        641        640        624        625        642        641        625        626        643        642        626        627        644        643        627        628        645        644        629        630        647        646        630        631        648        647        631        632        649        648        632        633        650        649        633        634        651        650        634        635        652        651        635        636        653        652        636        637        654        653        637        638        655        654        638        639        656        655        639        640        657        656        640        641        658        657        641        642        659        658        642        643        660        659        643        644        661        660        644        645        662        661        646        647        664        663        647        648        665        664        648        649        666        665        649        650        667        666        650        651        668        667        651        652        669        668        652        653        670        669        653        654        671        670        654        655        672        671        655        656        673        672        656        657        674        673        657        658        675        674        658        659        676        675        659        660        677        676        660        661        678        677        661        662        679        678        663        664        681        680        664        665        682        681        665        666        683        682        666        667        684        683        667        668        685        684        668        669        686        685        669        670        687        686        670        671        688        687        671        672        689        688        672        673        690        689        673        674        691        690        674        675        692        691        675        676        693        692        676        677        694        693        677        678        695        694        678        679        696        695        680        681        698        697        681        682        699        698        682        683        700        699        683        684        701        700        684        685        702        701        685        686        703        702        686        687        704        703        687        688        705        704        688        689        706        705        689        690        707        706        690        691        708        707        691        692        709        708        692        693        710        709        693        694        711        710        694        695        712        711        695        696        713        712        697        698        715        714        698        699        716        715        699        700        717        716        700        701        718        717        701        702        719        718        702        703        720        719        703        704        721        720        704        705        722        721        705        706        723        722        706        707        724        723        707        708        725        724        708        709        726        725        709        710        727        726        710        711        728        727        711        712        729        728        712        713        730        729        714        715        732        731        715        716        733        732        716        717        734        733        717        718        735        734        718        719        736        735        719        720        737        736        720        721        738        737        721        722        739        738        722        723        740        739        723        724        741        740        724        725        742        741        725        726        743        742        726        727        744        743        727        728        745        744        728        729        746        745        729        730        747        746        731        732        749        748        732        733        750        749        733        734        751        750        734        735        752        751        735        736        753        752        736        737        754        753        737        738        755        754        738        739        756        755        739        740        757        756        740        741        758        757        741        742        759        758        742        743        760        759        743        744        761        760        744        745        762        761        745        746        763        762        746        747        764        763        748        749        766        765        749        750        767        766        750        751        768        767        751        752        769        768        752        753        770        769        753        754        771        770        754        755        772        771        755        756        773        772        756        757        774        773        757        758        775        774        758        759        776        775        759        760        777        776        760        761        778        777        761        762        779        778        762        763        780        779        763        764        781        780        765        766        783        782        766        767        784        783        767        768        785        784        768        769        786        785        769        770        787        786        770        771        788        787        771        772        789        788        772        773        790        789        773        774        791        790        774        775        792        791        775        776        793        792        776        777        794        793        777        778        795        794        778        779        796        795        779        780        797        796        780        781        798        797        782        783        800        799        783        784        801        800        784        785        802        801        785        786        803        802        786        787        804        803        787        788        805        804        788        789        806        805        789        790        807        806        790        791        808        807        791        792        809        808        792        793        810        809        793        794        811        810        794        795        812        811        795        796        813        812        796        797        814        813        797        798        815        814        799        800        817        816        800        801        818        817        801        802        819        818        802        803        820        819        803        804        821        820        804        805        822        821        805        806        823        822        806        807        824        823        807        808        825        824        808        809        826        825        809        810        827        826        810        811        828        827        811        812        829        828        812        813        830        829        813        814        831        830        814        815        832        831        816        817        834        833        817        818        835        834        818        819        836        835        819        820        837        836        820        821        838        837        821        822        839        838        822        823        840        839        823        824        841        840        824        825        842        841        825        826        843        842        826        827        844        843        827        828        845        844        828        829        846        845        829        830        847        846        830        831        848        847        831        832        849        848        833        834        562        561        834        835        563        562        835        836        564        563        836        837        565        564        837        838        566        565        838        839        567        566        839        840        568        567        840        841        569        568        841        842        570        569        842        843        571        570        843        844        572        571        844        845        573        572        845        846        574        573        846        847        575        574        847        848        576        575        848        849        577        576        884        885        579        578        885        886        580        579        886        887        581        580        887        888        582        581        888        889        583        582        889        890        584        583        890        891        585        584        891        892        586        585        892        893        587        586        893        894        588        587        894        895        589        588        895        896        590        589        896        897        591        590        897        898        592        591        898        899        593        592        899        900        594        593        901        902        885        884        902        903        886        885        903        904        887        886        904        905        888        887        905        906        889        888        906        907        890        889        907        908        891        890        908        909        892        891        909        910        893        892        910        911        894        893        911        912        895        894        912        913        896        895        913        914        897        896        914        915        898        897        915        916        899        898        916        917        900        899        918        919        902        901        919        920        903        902        920        921        904        903        921        922        905        904        922        923        906        905        923        924        907        906        924        925        908        907        925        926        909        908        926        927        910        909        927        928        911        910        928        929        912        911        929        930        913        912        930        931        914        913        931        932        915        914        932        933        916        915        933        934        917        916        935        936        919        918        936        937        920        919        937        938        921        920        938        939        922        921        939        940        923        922        940        941        924        923        941        942        925        924        942        943        926        925        943        944        927        926        944        945        928        927        945        946        929        928        946        947        930        929        947        948        931        930        948        949        932        931        949        950        933        932        950        951        934        933        952        953        936        935        953        954        937        936        954        955        938        937        955        956        939        938        956        957        940        939        957        958        941        940        958        959        942        941        959        960        943        942        960        961        944        943        961        962        945        944        962        963        946        945        963        964        947        946        964        965        948        947        965        966        949        948        966        967        950        949        967        968        951        950        969        970        953        952        970        971        954        953        971        972        955        954        972        973        956        955        973        974        957        956        974        975        958        957        975        976        959        958        976        977        960        959        977        978        961        960        978        979        962        961        979        980        963        962        980        981        964        963        981        982        965        964        982        983        966        965        983        984        967        966        984        985        968        967        986        987        970        969        987        988        971        970        988        989        972        971        989        990        973        972        990        991        974        973        991        992        975        974        992        993        976        975        993        994        977        976        994        995        978        977        995        996        979        978        996        997        980        979        997        998        981        980        998        999        982        981        999       1000        983        982       1000       1001        984        983       1001       1002        985        984       1003       1004        987        986       1004       1005        988        987       1005       1006        989        988       1006       1007        990        989       1007       1008        991        990       1008       1009        992        991       1009       1010        993        992       1010       1011        994        993       1011       1012        995        994       1012       1013        996        995       1013       1014        997        996       1014       1015        998        997       1015       1016        999        998       1016       1017       1000        999       1017       1018       1001       1000       1018       1019       1002       1001       1020       1021       1004       1003       1021       1022       1005       1004       1022       1023       1006       1005       1023       1024       1007       1006       1024       1025       1008       1007       1025       1026       1009       1008       1026       1027       1010       1009       1027       1028       1011       1010       1028       1029       1012       1011       1029       1030       1013       1012       1030       1031       1014       1013       1031       1032       1015       1014       1032       1033       1016       1015       1033       1034       1017       1016       1034       1035       1018       1017       1035       1036       1019       1018       1037       1038       1021       1020       1038       1039       1022       1021       1039       1040       1023       1022       1040       1041       1024       1023       1041       1042       1025       1024       1042       1043       1026       1025       1043       1044       1027       1026       1044       1045       1028       1027       1045       1046       1029       1028       1046       1047       1030       1029       1047       1048       1031       1030       1048       1049       1032       1031       1049       1050       1033       1032       1050       1051       1034       1033       1051       1052       1035       1034       1052       1053       1036       1035       1054       1055       1038       1037       1055       1056       1039       1038       1056       1057       1040       1039       1057       1058       1041       1040       1058       1059       1042       1041       1059       1060       1043       1042       1060       1061       1044       1043       1061       1062       1045       1044       1062       1063       1046       1045       1063       1064       1047       1046       1064       1065       1048       1047       1065       1066       1049       1048       1066       1067       1050       1049       1067       1068       1051       1050       1068       1069       1052       1051       1069       1070       1053       1052       1071       1072       1055       1054       1072       1073       1056       1055       1073       1074       1057       1056       1074       1075       1058       1057       1075       1076       1059       1058       1076       1077       1060       1059       1077       1078       1061       1060       1078       1079       1062       1061       1079       1080       1063       1062       1080       1081       1064       1063       1081       1082       1065       1064       1082       1083       1066       1065       1083       1084       1067       1066       1084       1085       1068       1067       1085       1086       1069       1068       1086       1087       1070       1069       1088       1089       1072       1071       1089       1090       1073       1072       1090       1091       1074       1073       1091       1092       1075       1074       1092       1093       1076       1075       1093       1094       1077       1076       1094       1095       1078       1077       1095       1096       1079       1078       1096       1097       1080       1079       1097       1098       1081       1080       1098       1099       1082       1081       1099       1100       1083       1082       1100       1101       1084       1083       1101       1102       1085       1084       1102       1103       1086       1085       1103       1104       1087       1086       1105       1106       1089       1088       1106       1107       1090       1089       1107       1108       1091       1090       1108       1109       1092       1091       1109       1110       1093       1092       1110       1111       1094       1093       1111       1112       1095       1094       1112       1113       1096       1095       1113       1114       1097       1096       1114       1115       1098       1097       1115       1116       1099       1098       1116       1117       1100       1099       1117       1118       1101       1100       1118       1119       1102       1101       1119       1120       1103       1102       1120       1121       1104       1103       1122       1123       1106       1105       1123       1124       1107       1106       1124       1125       1108       1107       1125       1126       1109       1108       1126       1127       1110       1109       1127       1128       1111       1110       1128       1129       1112       1111       1129       1130       1113       1112       1130       1131       1114       1113       1131       1132       1115       1114       1132       1133       1116       1115       1133       1134       1117       1116       1134       1135       1118       1117       1135       1136       1119       1118       1136       1137       1120       1119       1137       1138       1121       1120        272        273       1123       1122        273        274       1124       1123        274        275       1125       1124        275        276       1126       1125        276        277       1127       1126        277        278       1128       1127        278        279       1129       1128        279        280       1130       1129        280        281       1131       1130        281        282       1132       1131        282        283       1133       1132        283        284       1134       1133        284        285       1135       1134        285        286       1136       1135        286        287       1137       1136        287        288       1138       1137 </DataArray>
<DataArray type="Int32"                                    Name="offsets"                                                      NumberOfComponents=" 1" format="ascii">
         4          8         12         16         20         24         28         32         36         40         44         48         52         56         60         64         68         72         76         80         84         88         92         96        100        104        108        112        116        120        124        128        132        136        140        144        148        152        156        160        164        168        172        176        180        184        188        192        196        200        204        208        212        216        220        224        228        232        236        240        244        248        252        256        260        264        268        272        276        280        284        288        292        296        300        304        308        312        316        320        324        328        332        336        340        344        348        352        356        360        364        368        372        376        380        384        388        392        396        400        404        408        412        416        420        424        428        432        436        440        444        448        452        456        460        464        468        472        476        480        484        488        492        496        500        504        508        512        516        520        524        528        532        536        540        544        548        552        556        560        564        568        572        576        580        584        588        592        596        600        604        608        612        616        620        624        628        632        636        640        644        648        652        656        660        664        668        672        676        680        684        688        692        696        700        704        708        712        716        720        724        728        732        736        740        744        748        752        756        760        764        768        772        776        780        784        788        792        796        800        804        808        812        816        820        824        828        832        836        840        844        848        852        856        860        864        868        872        876        880        884        888        892        896        900        904        908        912        916        920        924        928        932        936        940        944        948        952        956        960        964        968        972        976        980        984        988        992        996       1000       1004       1008       1012       1016       1020       1024       1028       1032       1036       1040       1044       1048       1052       1056       1060       1064       1068       1072       1076       1080       1084       1088       1092       1096       1100       1104       1108       1112       1116       1120       1124       1128       1132       1136       1140       1144       1148       1152       1156       1160       1164       1168       1172       1176       1180       1184       1188       1192       1196       1200       1204       1208       1212       1216       1220       1224       1228       1232       1236       1240       1244       1248       1252       1256       1260       1264       1268       1272       1276       1280       1284       1288       1292       1296       1300       1304       1308       1312       1316       1320       1324       1328       1332       1336       1340       1344       1348       1352       1356       1360       1364       1368       1372       1376       1380       1384       1388       1392       1396       1400       1404       1408       1412       1416       1420       1424       1428       1432       1436       1440       1444       1448       1452       1456       1460       1464       1468       1472       1476       1480       1484       1488       1492       1496       1500       1504       1508       1512       1516       1520       1524       1528       1532       1536       1540       1544       1548       1552       1556       1560       1564       1568       1572       1576       1580       1584       1588       1592       1596       1600       1604       1608       1612       1616       1620       1624       1628       1632       1636       1640       1644       1648       1652       1656       1660       1664       1668       1672       1676       1680       1684       1688       1692       1696       1700       1704       1708       1712       1716       1720       1724       1728       1732       1736       1740       1744       1748       1752       1756       1760       1764       1768       1772       1776       1780       1784       1788       1792       1796       1800       1804       1808       1812       1816       1820       1824       1828       1832       1836       1840       1844       1848       1852       1856       1860       1864       1868       1872       1876       1880       1884       1888       1892       1896       1900       1904       1908       1912       1916       1920       1924       1928       1932       1936       1940       1944       1948       1952       1956       1960       1964       1968       1972       1976       1980       1984       1988       1992       1996       2000       2004       2008       2012       2016       2020       2024       2028       2032       2036       2040       2044       2048       2052       2056       2060       2064       2068       2072       2076       2080       2084       2088       2092       2096       2100       2104       2108       2112       2116       2120       2124       2128       2132       2136       2140       2144       2148       2152       2156       2160       2164       2168       2172       2176       2180       2184       2188       2192       2196       2200       2204       2208       2212       2216       2220       2224       2228       2232       2236       2240       2244       2248       2252       2256       2260       2264       2268       2272       2276       2280       2284       2288       2292       2296       2300       2304       2308       2312       2316       2320       2324       2328       2332       2336       2340       2344       2348       2352       2356       2360       2364       2368       2372       2376       2380       2384       2388       2392       2396       2400       2404       2408       2412       2416       2420       2424       2428       2432       2436       2440       2444       2448       2452       2456       2460       2464       2468       2472       2476       2480       2484       2488       2492       2496       2500       2504       2508       2512       2516       2520       2524       2528       2532       2536       2540       2544       2548       2552       2556       2560       2564       2568       2572       2576       2580       2584       2588       2592       2596       2600       2604       2608       2612       2616       2620       2624       2628       2632       2636       2640       2644       2648       2652       2656       2660       2664       2668       2672       2676       2680       2684       2688       2692       2696       2700       2704       2708       2712       2716       2720       2724       2728       2732       2736       2740       2744       2748       2752       2756       2760       2764       2768       2772       2776       2780       2784       2788       2792       2796       2800       2804       2808       2812       2816       2820       2824       2828       2832       2836       2840       2844       2848       2852       2856       2860       2864       2868       2872       2876       2880       2884       2888       2892       2896       2900       2904       2908       2912       2916       2920       2924       2928       2932       2936       2940       2944       2948       2952       2956       2960       2964       2968       2972       2976       2980       2984       2988       2992       2996       3000       3004       3008       3012       3016       3020       3024       3028       3032       3036       3040       3044       3048       3052       3056       3060       3064       3068       3072       3076       3080       3084       3088       3092       3096       3100       3104       3108       3112       3116       3120       3124       3128       3132       3136       3140       3144       3148       3152       3156       3160       3164       3168       3172       3176       3180       3184       3188       3192       3196       3200       3204       3208       3212       3216       3220       3224       3228       3232       3236       3240       3244       3248       3252       3256       3260       3264       3268       3272       3276       3280       3284       3288       3292       3296       3300       3304       3308       3312       3316       3320       3324       3328       3332       3336       3340       3344       3348       3352       3356       3360       3364       3368       3372       3376       3380       3384       3388       3392       3396       3400       3404       3408       3412       3416       3420       3424       3428       3432       3436       3440       3444       3448       3452       3456       3460       3464       3468       3472       3476       3480       3484       3488       3492       3496       3500       3504       3508       3512       3516       3520       3524       3528       3532       3536       3540       3544       3548       3552       3556       3560       3564       3568       3572       3576       3580       3584       3588       3592       3596       3600       3604       3608       3612       3616       3620       3624       3628       3632       3636       3640       3644       3648       3652       3656       3660       3664       3668       3672       3676       3680       3684       3688       3692       3696       3700       3704       3708       3712       3716       3720       3724       3728       3732       3736       3740       3744       3748       3752       3756       3760       3764       3768       3772       3776       3780       3784       3788       3792       3796       3800       3804       3808       3812       3816       3820       3824       3828       3832       3836       3840       3844       3848       3852       3856       3860       3864       3868       3872       3876       3880       3884       3888       3892       3896       3900       3904       3908       3912       3916       3920       3924       3928       3932       3936       3940       3944       3948       3952       3956       3960       3964       3968       3972       3976       3980       3984       3988       3992       3996       4000       4004       4008       4012       4016       4020       4024       4028       4032       4036       4040       4044       4048       4052       4056       4060       4064       4068       4072       4076       4080       4084       4088       4092       4096 </DataArray>
<DataArray type="UInt8"                                    Name="types"                                                      NumberOfComponents=" 1" format="ascii">
         9          9          9          9          9          9          9          9          9          9          9          9          9          9          9          9          9          9          9          9          9          9          9          9          9          9          9          9          9          9          9          9          9          9          9          9          9          9          9          9          9          9          9          9          9          9          9          9          9          9          9          9          9          9          9          9          9          9          9          9          9          9          9          9          9          9          9          9          9          9          9          9          9          9          9          9          9          9          9          9          9          9          9          9          9          9          9          9          9          9          9          9          9          9          9          9          9          9          9          9          9          9          9          9          9          9          9          9          9          9          9          9          9          9          9          9          9          9          9          9          9          9          9          9          9          9          9          9          9          9          9          9          9          9          9          9          9          9          9          9          9          9          9          9          9          9          9          9          9          9          9          9          9          9          9          9          9          9          9          9          9          9          9          9          9          9          9          9          9          9          9          9          9          9          9          9          9          9          9          9          9          9          9          9          9          9          9          9          9          9          9          9          9          9          9          9          9          9          9          9          9          9          9          9          9          9          9          9          9          9          9          9          9          9          9          9          9          9          9          9          9          9          9          9          9          9          9          9          9          9          9          9          9          9          9          9          9          9          9          9          9          9          9          9          9          9          9          9          9          9          9          9          9          9          9          9          9          9          9          9          9          9          9          9          9          9          9          9          9          9          9          9          9          9          9          9          9          9          9          9          9          9          9          9          9          9          9          9          9          9          9          9          9          9          9          9          9          9          9          9          9          9          9          9          9          9          9          9          9          9          9          9          9          9          9          9          9          9          9          9          9          9          9          9          9          9          9          9          9          9          9          9          9          9          9          9          9          9          9          9          9          9          9          9          9          9          9          9          9          9          9          9          9          9          9          9          9          9          9          9          9          9          9          9          9          9          9          9          9          9          9          9          9          9          9          9          9          9          9          9          9          9          9          9          9          9          9          9          9          9          9          9          9          9          9          9          9          9          9          9          9          9          9          9          9          9          9          9          9          9          9          9          9          9          9          9          9          9          9          9          9          9          9          9          9          9          9          9          9          9          9          9          9          9          9          9          9          9          9          9          9          9          9          9          9          9          9          9          9          9          9          9          9          9          9          9          9          9          9          9          9          9          9          9          9          9          9          9          9          9          9          9          9          9          9          9          9          9          9          9          9          9          9          9          9          9          9          9          9          9          9          9          9          9          9          9          9          9          9          9          9          9          9          9          9          9          9          9          9          9          9          9          9          9          9          9          9          9          9          9          9          9          9          9          9          9          9          9          9          9          9          9          9          9          9          9          9          9          9          9          9          9          9          9          9          9          9          9          9          9          9          9          9          9          9          9          9          9          9          9          9          9          9          9          9          9          9          9          9          9          9          9          9          9          9          9          9          9          9          9          9          9          9          9          9          9          9          9          9          9          9          9          9          9          9          9          9          9          9          9          9          9          9          9          9          9          9          9          9          9          9          9          9          9          9          9          9          9          9          9          9          9          9          9          9          9          9          9          9          9          9          9          9          9          9          9          9          9          9          9          9          9          9          9          9          9          9          9          9          9          9          9          9          9          9          9          9          9          9          9          9          9          9          9          9          9          9          9          9          9          9          9          9          9          9          9          9          9          9          9          9          9          9          9          9          9          9          9          9          9          9          9          9          9          9          9          9          9          9          9          9          9          9          9          9          9          9          9          9          9          9          9          9          9          9          9          9          9          9          9          9          9          9          9          9          9          9          9          9          9          9          9          9          9          9          9          9          9          9          9          9          9          9          9          9          9          9          9          9          9          9          9          9          9          9          9          9          9          9          9          9          9          9          9          9          9          9          9          9          9          9          9          9          9          9          9          9          9          9          9          9          9          9          9          9          9          9          9          9          9          9          9          9          9          9          9          9          9          9          9          9          9          9          9          9          9          9          9          9          9          9          9          9          9          9          9          9          9          9          9          9          9          9          9          9          9          9          9          9          9          9          9          9          9          9          9          9          9          9          9          9          9          9          9          9          9          9          9          9          9          9          9          9          9          9          9          9          9          9          9          9          9          9          9          9          9          9          9          9          9          9          9          9          9          9          9          9          9          9          9          9          9          9          9          9          9          9          9          9          9          9          9          9          9          9          9          9          9          9          9          9          9          9          9          9          9          9          9          9          9          9          9          9          9          9          9          9          9          9          9          9          9          9          9          9          9          9          9          9          9          9          9          9          9          9          9          9          9          9          9          9          9          9          9          9          9          9          9          9          9          9          9          9          9          9          9          9          9          9          9          9          9          9          9          9          9          9          9          9          9          9          9          9          9          9          9          9          9          9          9          9          9          9          9          9          9          9          9          9          9          9          9          9          9          9          9          9          9          9          9          9          9          9          9          9          9          9          9          9          9          9          9          9          9          9          9          9          9          9          9          9          9          9          9 </DataArray>
</Cells>
<CellData>
<DataArray type="Int32"                                    Name="material"                                                      NumberOfComponents=" 1" format="ascii">
         1          1          1          1          1          1          1          1          1          1          1          1          1          1          1          1          1          1          1          1          1          1          1          1          1          1          1          1          1          1          1          1          1          1          1          1          1          1          1          1          1          1          1          1          1          1          1          1          1          1          1          1          1          1          1          1          1          1          1          1          1          1          1          1          1          1          1          1          1          1          1          1          1          1          1          1          1          1          1          1          1          1          1          1          1          1          1          1          1          1          1          1          1          1          1          1          1          1          1          1          1          1          1          1          1          1          1          1          1          1          1          1          1          1          1          1          1          1          1          1          1          1          1          1          1          1          1          1          1          1          1          1          1          1          1          1          1          1          1          1          1          1          1          1          1          1          1          1          1          1          1          1          1          1          1          1          1          1          1          1          1          1          1          1          1          1          1          1          1          1          1          1          1          1          1          1          1          1          1          1          1          1          1          1          1          1          1          1          1          1          1          1          1          1          1          1          1          1          1          1          1          1          1          1          1          1          1          1          1          1          1          1          1          1          1          1          1          1          1          1          1          1          1          1          1          1          1          1          1          1          1          1          1          1          1          1          1          1          1          1          1          1          1          1          1          1          1          1          1          1          1          1          1          1          1          1          1          1          1          1          1          1          1          1          1          1          1          1          1          1          1          1          1          1          1          1          1          1          1          1          1          1          1          1          1          1          1          1          1          1          1          1          1          1          1          1          1          1          1          1          1          1          1          1          1          1          1          1          1          1          1          1          1          1          1          1          1          1          1          1          1          1          1          1          1          1          1          1          1          1          1          1          1          1          1          1          1          1          1          1          1          1          1          1          1          1          1          1          1          1          1          1          1          1          1          1          1          1          1          1          1          1          1          1          1          1          1          1          1          1          1          1          1          1          1          1          1          1          1          1          1          1          1          1          1          1          1          1          1          1          1          1          1          1          1          1          1          1          1          1          1          1          1          1          1          1          1          1          1          1          1          1          1          1          1          1          1          1          1          1          1          1          1          1          1          1          1          1          1          1          1          1          1          1          1          1          1          1          1          1          1          1          1          1          1          1          1          1          1          1          1          1          1          1          1          1          1          1          1          1          1          1          1          1          1          1          1          1          1          1          1          1          1          1          1          1          1          1          1          1          1          1          1          1          1          1          1          1          1          1          1          1          1          1          1          1          1          1          1          1          1          1          1          1          1          1          1          1          1          1          1          1          1          1          1          1          1          1          1          1          1          1          1          1          1          1          1          1          1          1          1          1          1          1          1          1          1          1          1          1          1          1          1          1          1          1          1          1          1          1          1          1          1          1          1          1          1          1          1          1          1          1          1          1          1          1          1          1          1          1          1          1          1          1          1          1          1          1          1          1          1          1          1          1          1          1          1          1          1          1          1          1          1          1          1          1          1          1          1          1          1          1          1          1          1          1          1          1          1          1          1          1          1          1          1          1          1          1          1          1          1          1          1          1          1          1          1          1          1          1          1          1          1          1          1          1          1          1          1          1          1          1          1          1          1          1          1          1          1          1          1          1          1          1          1          1          1          1          1          1          1          1          1          1          1          1          1          1          1          1          1          1          1          1          1          1          1          1          1          1          1          1          1          1          1          1          1          1          1          1          1          1          1          1          1          1          1          1          1          1          1          1          1          1          1          1          1          1          1          1          1          1          1          1          1          1          1          1          1          1          1          1          1          1          1          1          1          1          1          1          1          1          1          1          1          1          1          1          1          1          1          1          1          1          1          1          1          1          1          1          1          1          1          1          1          1          1          1          1          1          1          1          1          1          1          1          1          1          1          1          1          1          1          1          1          1          1          1          1          1          1          1          1          1          1          1          1          1          1          1          1          1          1          1          1          1          1          1          1          1          1          1          1          1          1          1          1          1          1          1          1          1          1          1          1          1          1          1          1          1          1          1          1          1          1          1          1          1          1          1          1          1          1          1          1          1          1          1          1          1          1          1          1          1          1          1          1          1          1          1          1          1          1          1          1          1          1          1          1          1          1          1          1          1          1          1          1          1          1          1          1          1          1          1          1          1          1          1          1          1          1          1          1          1          1          1          1          1          1          1          1          1          1          1          1          1          1          1          1          1          1          1          1          1          1          1          1          1          1          1          1          1          1          1          1          1          1          1          1          1          1          1          1          1          1          1          1          1          1          1          1          1          1          1          1          1          1          1          1          1          1          1          1          1          1          1          1          1          1          1          1          1          1          1          1          1          1          1          1          1          1          1          1          1          1          1          1          1          1          1          1          1          1          1          1          1          1          1          1          1          1          1          1          1          1          1          1          1          1          1          1          1          1          1          1          1          1          1          1          1          1          1          1          1          1          1          1          1          1          1          1          1          1          1          1          1          1          1          1          1          1          1          1          1 </DataArray>
</CellData>
<PointData>
<DataArray type="Float64"                                    Name="u"                                                      NumberOfComponents=" 3" format="ascii">
             -0.000868656              -0.000000000               0.999999985              -0.000919272               0.000000000               0.999999985              -0.000940527              -0.000000000               0.999999985              -0.000952394               0.000000000               0.999999985              -0.000962190               0.000000000               0.999999985              -0.000972613              -0.000000000               0.999999985              -0.000984408               0.000000000               0.999999985              -0.000997407               0.000000000               0.999999985              -0.001011369              -0.000000000               0.999999985              -0.001025889               0.000000000               0.999999985              -0.001040501               0.000000000               0.999999985              -0.001054716              -0.000000000               0.999999985              -0.001068126               0.000000000               0.999999985              -0.001080310              -0.000000000               0.999999985              -0.001090861              -0.000000000               0.999999985              -0.001099097               0.000000000               0.999999985              -0.001104195               0.000000000               0.999999985              -0.000863753               0.000132413               0.999999985              -0.000910148               0.000105575               0.999999985              -0.000928788               0.000093399               0.999999985              -0.000938980               0.000088698               0.999999985              -0.000947568               0.000087690               0.999999985              -0.000956969               0.000088476               0.999999985              -0.000967743               0.000089692               0.999999985              -0.000979776               0.000090788               0.999999985              -0.000992641               0.000091171               0.999999985              -0.001005813               0.000090462               0.999999985              -0.001018855               0.000088476               0.999999985              -0.001031388               0.000084994               0.999999985              -0.001042903               0.000079496               0.999999985              -0.001052932               0.000071631               0.999999985              -0.001061168               0.000061036               0.999999985              -0.001067037               0.000046574               0.999999985              -0.001069934               0.000026818               0.999999985              -0.000849274               0.000263591               0.999999985              -0.000883430               0.000210701               0.999999985              -0.000894554               0.000187720               0.999999985              -0.000900072               0.000179357               0.999999985              -0.000905560               0.000178169               0.999999985              -0.000912490               0.000180147               0.999999985              -0.000920847               0.000183002               0.999999985              -0.000930233               0.000185227               0.999999985              -0.000939897               0.000185923               0.999999985              -0.000949344               0.000184648               0.999999985              -0.000958136               0.000180967               0.999999985              -0.000965896               0.000174467               0.999999985              -0.000972270               0.000164267               0.999999985              -0.000976828               0.000149801               0.999999985              -0.000979193               0.000130533               0.999999985              -0.000978992               0.000105035               0.999999985              -0.000976078               0.000071705               0.999999985              -0.000825541               0.000392366               0.999999985              -0.000840480               0.000315126               0.999999985              -0.000840724               0.000283653               0.999999985              -0.000839984               0.000273455               0.999999985              -0.000841454               0.000273342               0.999999985              -0.000845198               0.000277310               0.999999985              -0.000850425               0.000281969               0.999999985              -0.000856057               0.000285400               0.999999985              -0.000861366               0.000286465               0.999999985              -0.000865757               0.000284708               0.999999985              -0.000868872               0.000279649               0.999999985              -0.000870209               0.000270790               0.999999985              -0.000869401               0.000257050               0.999999985              -0.000866263               0.000237902               0.999999985              -0.000860564               0.000212906               0.999999985              -0.000852259               0.000180933               0.999999985              -0.000841531               0.000141330               0.999999985              -0.000793042               0.000517607               0.999999985              -0.000783442               0.000418838               0.999999985              -0.000771594               0.000381771               0.999999985              -0.000764716               0.000371757               0.999999985              -0.000762500               0.000373833               0.999999985              -0.000763254               0.000380211               0.999999985              -0.000765075               0.000386956               0.999999985              -0.000766707               0.000391464               0.999999985              -0.000767098               0.000392944               0.999999985              -0.000765743               0.000390835               0.999999985              -0.000762214               0.000384861               0.999999985              -0.000756113               0.000374120               0.999999985              -0.000747109               0.000357835               0.999999985              -0.000735095               0.000335668               0.999999985              -0.000720177               0.000307420               0.999999985              -0.000702511               0.000272888               0.999999985              -0.000682717               0.000232435               0.999999985              -0.000752281               0.000638283               0.999999985              -0.000715115               0.000521987               0.999999985              -0.000692116               0.000482330               0.999999985              -0.000680568               0.000474140               0.999999985              -0.000675908               0.000479011               0.999999985              -0.000674341               0.000488028               0.999999985              -0.000673165               0.000496498               0.999999985              -0.000670642               0.000502087               0.999999985              -0.000665766               0.000503812               0.999999985              -0.000658069               0.000501547               0.999999985              -0.000647091               0.000494677               0.999999985              -0.000632546               0.000482400               0.999999985              -0.000614222               0.000464260               0.999999985              -0.000592238               0.000440324               0.999999985              -0.000567198               0.000410739               0.999999985              -0.000539650               0.000376334               0.999999985              -0.000510463               0.000338209               0.999999985              -0.000704061               0.000753216               0.999999985              -0.000638890               0.000624645               0.999999985              -0.000607403               0.000584983               0.999999985              -0.000593650               0.000579444               0.999999985              -0.000588201               0.000587243               0.999999985              -0.000585143               0.000598576               0.999999985              -0.000581115               0.000608501               0.999999985              -0.000574267               0.000614755               0.999999985              -0.000563699               0.000616749               0.999999985              -0.000548888               0.000613938               0.999999985              -0.000529569               0.000606064               0.999999985              -0.000505562               0.000592191               0.999999985              -0.000477177               0.000572365               0.999999985              -0.000444914               0.000547355               0.999999985              -0.000409608               0.000517888               0.999999985              -0.000372157               0.000485162               0.999999985              -0.000333620               0.000450575               0.999999985              -0.000649509               0.000861067               0.999999985              -0.000558553               0.000726480               0.999999985              -0.000522364               0.000688615               0.999999985              -0.000509246               0.000685762               0.999999985              -0.000504357               0.000696052               0.999999985              -0.000500304               0.000709198               0.999999985              -0.000493284               0.000720180               0.999999985              -0.000481533               0.000727001               0.999999985              -0.000464351               0.000728832               0.999999985              -0.000441451               0.000725124               0.999999985              -0.000412781               0.000715705               0.999999985              -0.000378569               0.000700156               0.999999985              -0.000339527               0.000679025               0.999999985              -0.000296435               0.000653794               0.999999985              -0.000250475               0.000625556               0.999999985              -0.000202852               0.000595436               0.999999985              -0.000154579               0.000564506               0.999999985              -0.000590300               0.000959967               0.999999985              -0.000476835               0.000827434               0.999999985              -0.000441373               0.000791613               0.999999985              -0.000431005               0.000790929               0.999999985              -0.000427480               0.000803054               0.999999985              -0.000422243               0.000817568               0.999999985              -0.000411570               0.000829326               0.999999985              -0.000394077               0.000836358               0.999999985              -0.000369311               0.000837516               0.999999985              -0.000337161               0.000832461               0.999999985              -0.000298073               0.000821112               0.999999985              -0.000252464               0.000804151               0.999999985              -0.000201410               0.000782809               0.999999985              -0.000146575               0.000758677               0.999999985              -0.000089565               0.000732939               0.999999985              -0.000031680               0.000706429               0.999999985               0.000026413               0.000679821               0.999999985              -0.000529079               0.001053752               0.999999985              -0.000408430               0.000940575               0.999999985              -0.000370135               0.000900788               0.999999985              -0.000359228               0.000894875               0.999999985              -0.000356410               0.000903547               0.999999985              -0.000353150               0.000917321               0.999999985              -0.000345230               0.000931122               0.999999985              -0.000331277               0.000942099               0.999999985              -0.000310714               0.000948980               0.999999985              -0.000283181               0.000950940               0.999999985              -0.000248718               0.000947914               0.999999985              -0.000207648               0.000940169               0.999999985              -0.000160382               0.000928350               0.999999985              -0.000108077               0.000913462               0.999999985              -0.000052321               0.000896863               0.999999985               0.000005756               0.000879279               0.999999985               0.000064650               0.000861612               0.999999985              -0.000462413               0.001139432               0.999999985              -0.000342828               0.001050216               0.999999985              -0.000301945               0.001012951               0.999999985              -0.000289510               0.001004308               0.999999985              -0.000286531               0.001010644               0.999999985              -0.000284277               0.001023873               0.999999985              -0.000278670               0.001039146               0.999999985              -0.000268007               0.001053603               0.999999985              -0.000251366               0.001065526               0.999999985              -0.000228159               0.001073975               0.999999985              -0.000198448               0.001078425               0.999999985              -0.000162252               0.001078908               0.999999985              -0.000119350               0.001075795               0.999999985              -0.000070422               0.001069731               0.999999985              -0.000016606               0.001061542               0.999999985               0.000040957               0.001052232               0.999999985               0.000100697               0.001042713               0.999999985              -0.000391601               0.001214881               0.999999985              -0.000280103               0.001153092               0.999999985              -0.000238581               0.001122918               0.999999985              -0.000224347               0.001114978               0.999999985              -0.000220392               0.001120773               0.999999985              -0.000218400               0.001134154               0.999999985              -0.000214340               0.001151007               0.999999985              -0.000206398               0.001168749               0.999999985              -0.000193299               0.001185449               0.999999985              -0.000174388               0.001199905               0.999999985              -0.000149431               0.001211471               0.999999985              -0.000118158               0.001219888               0.999999985              -0.000080274               0.001225084               0.999999985              -0.000035620               0.001227550               0.999999985               0.000015285               0.001227718               0.999999985               0.000071760               0.001226297               0.999999985               0.000132704               0.001224299               0.999999985              -0.000317427               0.001278502               0.999999985              -0.000220394               0.001244763               0.999999985              -0.000180900               0.001225169               0.999999985              -0.000165713               0.001220812               0.999999985              -0.000160700               0.001227995               0.999999985              -0.000158425               0.001242690               0.999999985              -0.000155252               0.001261827               0.999999985              -0.000149257               0.001282870               0.999999985              -0.000139382               0.001304154               0.999999985              -0.000124653               0.001324440               0.999999985              -0.000104435               0.001342897               0.999999985              -0.000078480               0.001359098               0.999999985              -0.000046195               0.001372855               0.999999985              -0.000006993               0.001384064               0.999999985               0.000039483               0.001393013               0.999999985               0.000093368               0.001400085               0.999999985               0.000154714               0.001405854               0.999999985              -0.000240528               0.001329284               0.999999985              -0.000163142               0.001321153               0.999999985              -0.000129148               0.001313531               0.999999985              -0.000114746               0.001314622               0.999999985              -0.000109254               0.001324631               0.999999985              -0.000106808               0.001341553               0.999999985              -0.000104100               0.001363298               0.999999985              -0.000099773               0.001387791               0.999999985              -0.000092699               0.001413519               0.999999985              -0.000081842               0.001439475               0.999999985              -0.000066458               0.001464695               0.999999985              -0.000046207               0.001488582               0.999999985              -0.000020453               0.001510813               0.999999985               0.000011587               0.001530978               0.999999985               0.000050957               0.001548956               0.999999985               0.000098936               0.001564799               0.999999985               0.000156517               0.001578857               0.999999985              -0.000161566               0.001366285               0.999999985              -0.000107743               0.001378607               0.999999985              -0.000082765               0.001381962               0.999999985              -0.000071355               0.001388912               0.999999985              -0.000066567               0.001402216               0.999999985              -0.000064268               0.001421734               0.999999985              -0.000062173               0.001445922               0.999999985              -0.000059372               0.001473417               0.999999985              -0.000054716               0.001503170               0.999999985              -0.000047475               0.001534030               0.999999985              -0.000037179               0.001565145               0.999999985              -0.000023420               0.001595865               0.999999985              -0.000005541               0.001625680               0.999999985               0.000017350               0.001654127               0.999999985               0.000046502               0.001680761               0.999999985               0.000083432               0.001705211               0.999999985               0.000130135               0.001727325               0.999999985              -0.000081165               0.001388792               0.999999985              -0.000053564               0.001414312               0.999999985              -0.000040347               0.001425382               0.999999985              -0.000034011               0.001436848               0.999999985              -0.000031207               0.001452945               0.999999985              -0.000029739               0.001474435               0.999999985              -0.000028625               0.001500424               0.999999985              -0.000027099               0.001530020               0.999999985              -0.000024774               0.001562400               0.999999985              -0.000021277               0.001596602               0.999999985              -0.000016174               0.001631833               0.999999985              -0.000009228               0.001667485               0.999999985              -0.000000068               0.001702897               0.999999985               0.000011932               0.001737626               0.999999985               0.000027511               0.001771129               0.999999985               0.000047884               0.001802601               0.999999985               0.000074684               0.001831158               0.999999985              -0.000000000               0.001396345               0.999999985               0.000000000               0.001426399               0.999999985               0.000000000               0.001440232               0.999999985               0.000000000               0.001453442               0.999999985               0.000000000               0.001470721               0.999999985              -0.000000000               0.001492954               0.999999985               0.000000000               0.001519516               0.999999985               0.000000000               0.001549768               0.999999985               0.000000000               0.001582917               0.999999985               0.000000000               0.001618343               0.999999985               0.000000000               0.001655170               0.999999985               0.000000000               0.001692541               0.999999985               0.000000000               0.001730143               0.999999985               0.000000000               0.001767486               0.999999985              -0.000000000               0.001803757               0.999999985              -0.000000000               0.001838058               0.999999985               0.000000000               0.001869202               0.999999985              -0.000868656              -0.000000000               0.999999985              -0.000919272               0.000000000               0.999999985              -0.000940527              -0.000000000               0.999999985              -0.000952394               0.000000000               0.999999985              -0.000962190               0.000000000               0.999999985              -0.000972613              -0.000000000               0.999999985              -0.000984408               0.000000000               0.999999985              -0.000997407               0.000000000               0.999999985              -0.001011369              -0.000000000               0.999999985              -0.001025889               0.000000000               0.999999985              -0.001040501               0.000000000               0.999999985              -0.001054716              -0.000000000               0.999999985              -0.001068126               0.000000000               0.999999985              -0.001080310              -0.000000000               0.999999985              -0.001090861              -0.000000000               0.999999985              -0.001099097               0.000000000               0.999999985              -0.001104195               0.000000000               0.999999985              -0.000863753              -0.000132413               0.999999985              -0.000910148              -0.000105575               0.999999985              -0.000928788              -0.000093399               0.999999985              -0.000938980              -0.000088698               0.999999985              -0.000947568              -0.000087690               0.999999985              -0.000956969              -0.000088476               0.999999985              -0.000967743              -0.000089692               0.999999985              -0.000979776              -0.000090788               0.999999985              -0.000992641              -0.000091171               0.999999985              -0.001005813              -0.000090462               0.999999985              -0.001018855              -0.000088476               0.999999985              -0.001031388              -0.000084994               0.999999985              -0.001042903              -0.000079496               0.999999985              -0.001052932              -0.000071631               0.999999985              -0.001061168              -0.000061036               0.999999985              -0.001067037              -0.000046574               0.999999985              -0.001069934              -0.000026818               0.999999985              -0.000849274              -0.000263591               0.999999985              -0.000883430              -0.000210701               0.999999985              -0.000894554              -0.000187720               0.999999985              -0.000900072              -0.000179357               0.999999985              -0.000905560              -0.000178169               0.999999985              -0.000912490              -0.000180147               0.999999985              -0.000920847              -0.000183002               0.999999985              -0.000930233              -0.000185227               0.999999985              -0.000939897              -0.000185923               0.999999985              -0.000949344              -0.000184648               0.999999985              -0.000958136              -0.000180967               0.999999985              -0.000965896              -0.000174467               0.999999985              -0.000972270              -0.000164267               0.999999985              -0.000976828              -0.000149801               0.999999985              -0.000979193              -0.000130533               0.999999985              -0.000978992              -0.000105035               0.999999985              -0.000976078              -0.000071705               0.999999985              -0.000825541              -0.000392366               0.999999985              -0.000840480              -0.000315126               0.999999985              -0.000840724              -0.000283653               0.999999985              -0.000839984              -0.000273455               0.999999985              -0.000841454              -0.000273342               0.999999985              -0.000845198              -0.000277310               0.999999985              -0.000850425              -0.000281969               0.999999985              -0.000856057              -0.000285400               0.999999985              -0.000861366              -0.000286465               0.999999985              -0.000865757              -0.000284708               0.999999985              -0.000868872              -0.000279649               0.999999985              -0.000870209              -0.000270790               0.999999985              -0.000869401              -0.000257050               0.999999985              -0.000866263              -0.000237902               0.999999985              -0.000860564              -0.000212906               0.999999985              -0.000852259              -0.000180933               0.999999985              -0.000841531              -0.000141330               0.999999985              -0.000793042              -0.000517607               0.999999985              -0.000783442              -0.000418838               0.999999985              -0.000771594              -0.000381771               0.999999985              -0.000764716              -0.000371757               0.999999985              -0.000762500              -0.000373833               0.999999985              -0.000763254              -0.000380211               0.999999985              -0.000765075              -0.000386956               0.999999985              -0.000766707              -0.000391464               0.999999985              -0.000767098              -0.000392944               0.999999985              -0.000765743              -0.000390835               0.999999985              -0.000762214              -0.000384861               0.999999985              -0.000756113              -0.000374120               0.999999985              -0.000747109              -0.000357835               0.999999985              -0.000735095              -0.000335668               0.999999985              -0.000720177              -0.000307420               0.999999985              -0.000702511              -0.000272888               0.999999985              -0.000682717              -0.000232435               0.999999985              -0.000752281              -0.000638283               0.999999985              -0.000715115              -0.000521987               0.999999985              -0.000692116              -0.000482330               0.999999985              -0.000680568              -0.000474140               0.999999985              -0.000675908              -0.000479011               0.999999985              -0.000674341              -0.000488028               0.999999985              -0.000673165              -0.000496498               0.999999985              -0.000670642              -0.000502087               0.999999985              -0.000665766              -0.000503812               0.999999985              -0.000658069              -0.000501547               0.999999985              -0.000647091              -0.000494677               0.999999985              -0.000632546              -0.000482400               0.999999985              -0.000614222              -0.000464260               0.999999985              -0.000592238              -0.000440324               0.999999985              -0.000567198              -0.000410739               0.999999985              -0.000539650              -0.000376334               0.999999985              -0.000510463              -0.000338209               0.999999985              -0.000704061              -0.000753216               0.999999985              -0.000638890              -0.000624645               0.999999985              -0.000607403              -0.000584983               0.999999985              -0.000593650              -0.000579444               0.999999985              -0.000588201              -0.000587243               0.999999985              -0.000585143              -0.000598576               0.999999985              -0.000581115              -0.000608501               0.999999985              -0.000574267              -0.000614755               0.999999985              -0.000563699              -0.000616749               0.999999985              -0.000548888              -0.000613938               0.999999985              -0.000529569              -0.000606064               0.999999985              -0.000505562              -0.000592191               0.999999985              -0.000477177              -0.000572365               0.999999985              -0.000444914              -0.000547355               0.999999985              -0.000409608              -0.000517888               0.999999985              -0.000372157              -0.000485162               0.999999985              -0.000333620              -0.000450575               0.999999985              -0.000649509              -0.000861067               0.999999985              -0.000558553              -0.000726480               0.999999985              -0.000522364              -0.000688615               0.999999985              -0.000509246              -0.000685762               0.999999985              -0.000504357              -0.000696052               0.999999985              -0.000500304              -0.000709198               0.999999985              -0.000493284              -0.000720180               0.999999985              -0.000481533              -0.000727001               0.999999985              -0.000464351              -0.000728832               0.999999985              -0.000441451              -0.000725124               0.999999985              -0.000412781              -0.000715705               0.999999985              -0.000378569              -0.000700156               0.999999985              -0.000339527              -0.000679025               0.999999985              -0.000296435              -0.000653794               0.999999985              -0.000250475              -0.000625556               0.999999985              -0.000202852              -0.000595436               0.999999985              -0.000154579              -0.000564506               0.999999985              -0.000590300              -0.000959967               0.999999985              -0.000476835              -0.000827434               0.999999985              -0.000441373              -0.000791613               0.999999985              -0.000431005              -0.000790929               0.999999985              -0.000427480              -0.000803054               0.999999985              -0.000422243              -0.000817568               0.999999985              -0.000411570              -0.000829326               0.999999985              -0.000394077              -0.000836358               0.999999985              -0.000369311              -0.000837516               0.999999985              -0.000337161              -0.000832461               0.999999985              -0.000298073              -0.000821112               0.999999985              -0.000252464              -0.000804151               0.999999985              -0.000201410              -0.000782809               0.999999985              -0.000146575              -0.000758677               0.999999985              -0.000089565              -0.000732939               0.999999985              -0.000031680              -0.000706429               0.999999985               0.000026413              -0.000679821               0.999999985              -0.000529079              -0.001053752               0.999999985              -0.000408430              -0.000940575               0.999999985              -0.000370135              -0.000900788               0.999999985              -0.000359228              -0.000894875               0.999999985              -0.000356410              -0.000903547               0.999999985              -0.000353150              -0.000917321               0.999999985              -0.000345230              -0.000931122               0.999999985              -0.000331277              -0.000942099               0.999999985              -0.000310714              -0.000948980               0.999999985              -0.000283181              -0.000950940               0.999999985              -0.000248718              -0.000947914               0.999999985              -0.000207648              -0.000940169               0.999999985              -0.000160382              -0.000928350               0.999999985              -0.000108077              -0.000913462               0.999999985              -0.000052321              -0.000896863               0.999999985               0.000005756              -0.000879279               0.999999985               0.000064650              -0.000861612               0.999999985              -0.000462413              -0.001139432               0.999999985              -0.000342828              -0.001050216               0.999999985              -0.000301945              -0.001012951               0.999999985              -0.000289510              -0.001004308               0.999999985              -0.000286531              -0.001010644               0.999999985              -0.000284277              -0.001023873               0.999999985              -0.000278670              -0.001039146               0.999999985              -0.000268007              -0.001053603               0.999999985              -0.000251366              -0.001065526               0.999999985              -0.000228159              -0.001073975               0.999999985              -0.000198448              -0.001078425               0.999999985              -0.000162252              -0.001078908               0.999999985              -0.000119350              -0.001075795               0.999999985              -0.000070422              -0.001069731               0.999999985              -0.000016606              -0.001061542               0.999999985               0.000040957              -0.001052232               0.999999985               0.000100697              -0.001042713               0.999999985              -0.000391601              -0.001214881               0.999999985              -0.000280103              -0.001153092               0.999999985              -0.000238581              -0.001122918               0.999999985              -0.000224347              -0.001114978               0.999999985              -0.000220392              -0.001120773               0.999999985              -0.000218400              -0.001134154               0.999999985              -0.000214340              -0.001151007               0.999999985              -0.000206398              -0.001168749               0.999999985              -0.000193299              -0.001185449               0.999999985              -0.000174388              -0.001199905               0.999999985              -0.000149431              -0.001211471               0.999999985              -0.000118158              -0.001219888               0.999999985              -0.000080274              -0.001225084               0.999999985              -0.000035620              -0.001227550               0.999999985               0.000015285              -0.001227718               0.999999985               0.000071760              -0.001226297               0.999999985               0.000132704              -0.001224299               0.999999985              -0.000317427              -0.001278502               0.999999985              -0.000220394              -0.001244763               0.999999985              -0.000180900              -0.001225169               0.999999985              -0.000165713              -0.001220812               0.999999985              -0.000160700              -0.001227995               0.999999985              -0.000158425              -0.001242690               0.999999985              -0.000155252              -0.001261827               0.999999985              -0.000149257              -0.001282870               0.999999985              -0.000139382              -0.001304154               0.999999985              -0.000124653              -0.001324440               0.999999985              -0.000104435              -0.001342897               0.999999985              -0.000078480              -0.001359098               0.999999985              -0.000046195              -0.001372855               0.999999985              -0.000006993              -0.001384064               0.999999985               0.000039483              -0.001393013               0.999999985               0.000093368              -0.001400085               0.999999985               0.000154714              -0.001405854               0.999999985              -0.000240528              -0.001329284               0.999999985              -0.000163142              -0.001321153               0.999999985              -0.000129148              -0.001313531               0.999999985              -0.000114746              -0.001314622               0.999999985              -0.000109254              -0.001324631               0.999999985              -0.000106808              -0.001341553               0.999999985              -0.000104100              -0.001363298               0.999999985              -0.000099773              -0.001387791               0.999999985              -0.000092699              -0.001413519               0.999999985              -0.000081842              -0.001439475               0.999999985              -0.000066458              -0.001464695               0.999999985              -0.000046207              -0.001488582               0.999999985              -0.000020453              -0.001510813               0.999999985               0.000011587              -0.001530978               0.999999985               0.000050957              -0.001548956               0.999999985               0.000098936              -0.001564799               0.999999985               0.000156517              -0.001578857               0.999999985              -0.000161566              -0.001366285               0.999999985              -0.000107743              -0.001378607               0.999999985              -0.000082765              -0.001381962               0.999999985              -0.000071355              -0.001388912               0.999999985              -0.000066567              -0.001402216               0.999999985              -0.000064268              -0.001421734               0.999999985              -0.000062173              -0.001445922               0.999999985              -0.000059372              -0.001473417               0.999999985              -0.000054716              -0.001503170               0.999999985              -0.000047475              -0.001534030               0.999999985              -0.000037179              -0.001565145               0.999999985              -0.000023420              -0.001595865               0.999999985              -0.000005541              -0.001625680               0.999999985               0.000017350              -0.001654127               0.999999985               0.000046502              -0.001680761               0.999999985               0.000083432              -0.001705211               0.999999985               0.000130135              -0.001727325               0.999999985              -0.000081165              -0.001388792               0.999999985              -0.000053564              -0.001414312               0.999999985              -0.000040347              -0.001425382               0.999999985              -0.000034011              -0.001436848               0.999999985              -0.000031207              -0.001452945               0.999999985              -0.000029739              -0.001474435               0.999999985              -0.000028625              -0.001500424               0.999999985              -0.000027099              -0.001530020               0.999999985              -0.000024774              -0.001562400               0.999999985              -0.000021277              -0.001596602               0.999999985              -0.000016174              -0.001631833               0.999999985              -0.000009228              -0.001667485               0.999999985              -0.000000068              -0.001702897               0.999999985               0.000011932              -0.001737626               0.999999985               0.000027511              -0.001771129               0.999999985               0.000047884              -0.001802601               0.999999985               0.000074684              -0.001831158               0.999999985              -0.000000000              -0.001396345               0.999999985               0.000000000              -0.001426399               0.999999985              -0.000000000              -0.001440232               0.999999985               0.000000000              -0.001453442               0.999999985               0.000000000              -0.001470721               0.999999985               0.000000000              -0.001492954               0.999999985              -0.000000000              -0.001519516               0.999999985              -0.000000000              -0.001549768               0.999999985              -0.000000000              -0.001582917               0.999999985              -0.000000000              -0.001618343               0.999999985              -0.000000000              -0.001655170               0.999999985               0.000000000              -0.001692541               0.999999985               0.000000000              -0.001730143               0.999999985              -0.000000000              -0.001767486               0.999999985               0.000000000              -0.001803757               0.999999985              -0.000000000              -0.001838058               0.999999985               0.000000000              -0.001869202               0.999999985               0.000868656              -0.000000000               0.999999985               0.000919272              -0.000000000               0.999999985               0.000940527              -0.000000000               0.999999985               0.000952394              -0.000000000               0.999999985               0.000962190               0.000000000               0.999999985               0.000972613               0.000000000               0.999999985               0.000984408              -0.000000000               0.999999985               0.000997407               0.000000000               0.999999985               0.001011369               0.000000000               0.999999985               0.001025889               0.000000000               0.999999985               0.001040501               0.000000000               0.999999985               0.001054716               0.000000000               0.999999985               0.001068126               0.000000000               0.999999985               0.001080310              -0.000000000               0.999999985               0.001090861               0.000000000               0.999999985               0.001099097               0.000000000               0.999999985               0.001104195               0.000000000               0.999999985               0.000863753              -0.000132413               0.999999985               0.000910148              -0.000105575               0.999999985               0.000928788              -0.000093399               0.999999985               0.000938980              -0.000088698               0.999999985               0.000947568              -0.000087690               0.999999985               0.000956969              -0.000088476               0.999999985               0.000967743              -0.000089692               0.999999985               0.000979776              -0.000090788               0.999999985               0.000992641              -0.000091171               0.999999985               0.001005813              -0.000090462               0.999999985               0.001018855              -0.000088476               0.999999985               0.001031388              -0.000084994               0.999999985               0.001042903              -0.000079496               0.999999985               0.001052932              -0.000071631               0.999999985               0.001061168              -0.000061036               0.999999985               0.001067037              -0.000046574               0.999999985               0.001069934              -0.000026818               0.999999985               0.000849274              -0.000263591               0.999999985               0.000883430              -0.000210701               0.999999985               0.000894554              -0.000187720               0.999999985               0.000900072              -0.000179357               0.999999985               0.000905560              -0.000178169               0.999999985               0.000912490              -0.000180147               0.999999985               0.000920847              -0.000183002               0.999999985               0.000930233              -0.000185227               0.999999985               0.000939897              -0.000185923               0.999999985               0.000949344              -0.000184648               0.999999985               0.000958136              -0.000180967               0.999999985               0.000965896              -0.000174467               0.999999985               0.000972270              -0.000164267               0.999999985               0.000976828              -0.000149801               0.999999985               0.000979193              -0.000130533               0.999999985               0.000978992              -0.000105035               0.999999985               0.000976078              -0.000071705               0.999999985               0.000825541              -0.000392366               0.999999985               0.000840480              -0.000315126               0.999999985               0.000840724              -0.000283653               0.999999985               0.000839984              -0.000273455               0.999999985               0.000841454              -0.000273342               0.999999985               0.000845198              -0.000277310               0.999999985               0.000850425              -0.000281969               0.999999985               0.000856057              -0.000285400               0.999999985               0.000861366              -0.000286465               0.999999985               0.000865757              -0.000284708               0.999999985               0.000868872              -0.000279649               0.999999985               0.000870209              -0.000270790               0.999999985               0.000869401              -0.000257050               0.999999985               0.000866263              -0.000237902               0.999999985               0.000860564              -0.000212906               0.999999985               0.000852259              -0.000180933               0.999999985               0.000841531              -0.000141330               0.999999985               0.000793042              -0.000517607               0.999999985               0.000783442              -0.000418838               0.999999985               0.000771594              -0.000381771               0.999999985               0.000764716              -0.000371757               0.999999985               0.000762500              -0.000373833               0.999999985               0.000763254              -0.000380211               0.999999985               0.000765075              -0.000386956               0.999999985               0.000766707              -0.000391464               0.999999985               0.000767098              -0.000392944               0.999999985               0.000765743              -0.000390835               0.999999985               0.000762214              -0.000384861               0.999999985               0.000756113              -0.000374120               0.999999985               0.000747109              -0.000357835               0.999999985               0.000735095              -0.000335668               0.999999985               0.000720177              -0.000307420               0.999999985               0.000702511              -0.000272888               0.999999985               0.000682717              -0.000232435               0.999999985               0.000752281              -0.000638283               0.999999985               0.000715115              -0.000521987               0.999999985               0.000692116              -0.000482330               0.999999985               0.000680568              -0.000474140               0.999999985               0.000675908              -0.000479011               0.999999985               0.000674341              -0.000488028               0.999999985               0.000673165              -0.000496498               0.999999985               0.000670642              -0.000502087               0.999999985               0.000665766              -0.000503812               0.999999985               0.000658069              -0.000501547               0.999999985               0.000647091              -0.000494677               0.999999985               0.000632546              -0.000482400               0.999999985               0.000614222              -0.000464260               0.999999985               0.000592238              -0.000440324               0.999999985               0.000567198              -0.000410739               0.999999985               0.000539650              -0.000376334               0.999999985               0.000510463              -0.000338209               0.999999985               0.000704061              -0.000753216               0.999999985               0.000638890              -0.000624645               0.999999985               0.000607403              -0.000584983               0.999999985               0.000593650              -0.000579444               0.999999985               0.000588201              -0.000587243               0.999999985               0.000585143              -0.000598576               0.999999985               0.000581115              -0.000608501               0.999999985               0.000574267              -0.000614755               0.999999985               0.000563699              -0.000616749               0.999999985               0.000548888              -0.000613938               0.999999985               0.000529569              -0.000606064               0.999999985               0.000505562              -0.000592191               0.999999985               0.000477177              -0.000572365               0.999999985               0.000444914              -0.000547355               0.999999985               0.000409608              -0.000517888               0.999999985               0.000372157              -0.000485162               0.999999985               0.000333620              -0.000450575               0.999999985               0.000649509              -0.000861067               0.999999985               0.000558553              -0.000726480               0.999999985               0.000522364              -0.000688615               0.999999985               0.000509246              -0.000685762               0.999999985               0.000504357              -0.000696052               0.999999985               0.000500304              -0.000709198               0.999999985               0.000493284              -0.000720180               0.999999985               0.000481533              -0.000727001               0.999999985               0.000464351              -0.000728832               0.999999985               0.000441451              -0.000725124               0.999999985               0.000412781              -0.000715705               0.999999985               0.000378569              -0.000700156               0.999999985               0.000339527              -0.000679025               0.999999985               0.000296435              -0.000653794               0.999999985               0.000250475              -0.000625556               0.999999985               0.000202852              -0.000595436               0.999999985               0.000154579              -0.000564506               0.999999985               0.000590300              -0.000959967               0.999999985               0.000476835              -0.000827434               0.999999985               0.000441373              -0.000791613               0.999999985               0.000431005              -0.000790929               0.999999985               0.000427480              -0.000803054               0.999999985               0.000422243              -0.000817568               0.999999985               0.000411570              -0.000829326               0.999999985               0.000394077              -0.000836358               0.999999985               0.000369311              -0.000837516               0.999999985               0.000337161              -0.000832461               0.999999985               0.000298073              -0.000821112               0.999999985               0.000252464              -0.000804151               0.999999985               0.000201410              -0.000782809               0.999999985               0.000146575              -0.000758677               0.999999985               0.000089565              -0.000732939               0.999999985               0.000031680              -0.000706429               0.999999985              -0.000026413              -0.000679821               0.999999985               0.000529079              -0.001053752               0.999999985               0.000408430              -0.000940575               0.999999985               0.000370135              -0.000900788               0.999999985               0.000359228              -0.000894875               0.999999985               0.000356410              -0.000903547               0.999999985               0.000353150              -0.000917321               0.999999985               0.000345230              -0.000931122               0.999999985               0.000331277              -0.000942099               0.999999985               0.000310714              -0.000948980               0.999999985               0.000283181              -0.000950940               0.999999985               0.000248718              -0.000947914               0.999999985               0.000207648              -0.000940169               0.999999985               0.000160382              -0.000928350               0.999999985               0.000108077              -0.000913462               0.999999985               0.000052321              -0.000896863               0.999999985              -0.000005756              -0.000879279               0.999999985              -0.000064650              -0.000861612               0.999999985               0.000462413              -0.001139432               0.999999985               0.000342828              -0.001050216               0.999999985               0.000301945              -0.001012951               0.999999985               0.000289510              -0.001004308               0.999999985               0.000286531              -0.001010644               0.999999985               0.000284277              -0.001023873               0.999999985               0.000278670              -0.001039146               0.999999985               0.000268007              -0.001053603               0.999999985               0.000251366              -0.001065526               0.999999985               0.000228159              -0.001073975               0.999999985               0.000198448              -0.001078425               0.999999985               0.000162252              -0.001078908               0.999999985               0.000119350              -0.001075795               0.999999985               0.000070422              -0.001069731               0.999999985               0.000016606              -0.001061542               0.999999985              -0.000040957              -0.001052232               0.999999985              -0.000100697              -0.001042713               0.999999985               0.000391601              -0.001214881               0.999999985               0.000280103              -0.001153092               0.999999985               0.000238581              -0.001122918               0.999999985               0.000224347              -0.001114978               0.999999985               0.000220392              -0.001120773               0.999999985               0.000218400              -0.001134154               0.999999985               0.000214340              -0.001151007               0.999999985               0.000206398              -0.001168749               0.999999985               0.000193299              -0.001185449               0.999999985               0.000174388              -0.001199905               0.999999985               0.000149431              -0.001211471               0.999999985               0.000118158              -0.001219888               0.999999985               0.000080274              -0.001225084               0.999999985               0.000035620              -0.001227550               0.999999985              -0.000015285              -0.001227718               0.999999985              -0.000071760              -0.001226297               0.999999985              -0.000132704              -0.001224299               0.999999985               0.000317427              -0.001278502               0.999999985               0.000220394              -0.001244763               0.999999985               0.000180900              -0.001225169               0.999999985               0.000165713              -0.001220812               0.999999985               0.000160700              -0.001227995               0.999999985               0.000158425              -0.001242690               0.999999985               0.000155252              -0.001261827               0.999999985               0.000149257              -0.001282870               0.999999985               0.000139382              -0.001304154               0.999999985               0.000124653              -0.001324440               0.999999985               0.000104435              -0.001342897               0.999999985               0.000078480              -0.001359098               0.999999985               0.000046195              -0.001372855               0.999999985               0.000006993              -0.001384064               0.999999985              -0.000039483              -0.001393013               0.999999985              -0.000093368              -0.001400085               0.999999985              -0.000154714              -0.001405854               0.999999985               0.000240528              -0.001329284               0.999999985               0.000163142              -0.001321153               0.999999985               0.000129148              -0.001313531               0.999999985               0.000114746              -0.001314622               0.999999985               0.000109254              -0.001324631               0.999999985               0.000106808              -0.001341553               0.999999985               0.000104100              -0.001363298               0.999999985               0.000099773              -0.001387791               0.999999985               0.000092699              -0.001413519               0.999999985               0.000081842              -0.001439475               0.999999985               0.000066458              -0.001464695               0.999999985               0.000046207              -0.001488582               0.999999985               0.000020453              -0.001510813               0.999999985              -0.000011587              -0.001530978               0.999999985              -0.000050957              -0.001548956               0.999999985              -0.000098936              -0.001564799               0.999999985              -0.000156517              -0.001578857               0.999999985               0.000161566              -0.001366285               0.999999985               0.000107743              -0.001378607               0.999999985               0.000082765              -0.001381962               0.999999985               0.000071355              -0.001388912               0.999999985               0.000066567              -0.001402216               0.999999985               0.000064268              -0.001421734               0.999999985               0.000062173              -0.001445922               0.999999985               0.000059372              -0.001473417               0.999999985               0.000054716              -0.001503170               0.999999985               0.000047475              -0.001534030               0.999999985               0.000037179              -0.001565145               0.999999985               0.000023420              -0.001595865               0.999999985               0.000005541              -0.001625680               0.999999985              -0.000017350              -0.001654127               0.999999985              -0.000046502              -0.001680761               0.999999985              -0.000083432              -0.001705211               0.999999985              -0.000130135              -0.001727325               0.999999985               0.000081165              -0.001388792               0.999999985               0.000053564              -0.001414312               0.999999985               0.000040347              -0.001425382               0.999999985               0.000034011              -0.001436848               0.999999985               0.000031207              -0.001452945               0.999999985               0.000029739              -0.001474435               0.999999985               0.000028625              -0.001500424               0.999999985               0.000027099              -0.001530020               0.999999985               0.000024774              -0.001562400               0.999999985               0.000021277              -0.001596602               0.999999985               0.000016174              -0.001631833               0.999999985               0.000009228              -0.001667485               0.999999985               0.000000068              -0.001702897               0.999999985              -0.000011932              -0.001737626               0.999999985              -0.000027511              -0.001771129               0.999999985              -0.000047884              -0.001802601               0.999999985              -0.000074684              -0.001831158               0.999999985              -0.000000000              -0.001396345               0.999999985               0.000000000              -0.001426399               0.999999985              -0.000000000              -0.001440232               0.999999985               0.000000000              -0.001453442               0.999999985               0.000000000              -0.001470721               0.999999985               0.000000000              -0.001492954               0.999999985              -0.000000000              -0.001519516               0.999999985              -0.000000000              -0.001549768               0.999999985              -0.000000000              -0.001582917               0.999999985              -0.000000000              -0.001618343               0.999999985              -0.000000000              -0.001655170               0.999999985               0.000000000              -0.001692541               0.999999985               0.000000000              -0.001730143               0.999999985              -0.000000000              -0.001767486               0.999999985               0.000000000              -0.001803757               0.999999985              -0.000000000              -0.001838058               0.999999985               0.000000000              -0.001869202               0.999999985               0.000868656              -0.000000000               0.999999985               0.000919272              -0.000000000               0.999999985               0.000940527              -0.000000000               0.999999985               0.000952394              -0.000000000               0.999999985               0.000962190               0.000000000               0.999999985               0.000972613               0.000000000               0.999999985               0.000984408              -0.000000000               0.999999985               0.000997407               0.000000000               0.999999985               0.001011369               0.000000000               0.999999985               0.001025889               0.000000000               0.999999985               0.001040501               0.000000000               0.999999985               0.001054716               0.000000000               0.999999985               0.001068126               0.000000000               0.999999985               0.001080310              -0.000000000               0.999999985               0.001090861               0.000000000               0.999999985               0.001099097               0.000000000               0.999999985               0.001104195               0.000000000               0.999999985               0.000863753               0.000132413               0.999999985               0.000910148               0.000105575               0.999999985               0.000928788               0.000093399               0.999999985               0.000938980               0.000088698               0.999999985               0.000947568               0.000087690               0.999999985               0.000956969               0.000088476               0.999999985               0.000967743               0.000089692               0.999999985               0.000979776               0.000090788               0.999999985               0.000992641               0.000091171               0.999999985               0.001005813               0.000090462               0.999999985               0.001018855               0.000088476               0.999999985               0.001031388               0.000084994               0.999999985               0.001042903               0.000079496               0.999999985               0.001052932               0.000071631               0.999999985               0.001061168               0.000061036               0.999999985               0.001067037               0.000046574               0.999999985               0.001069934               0.000026818               0.999999985               0.000849274               0.000263591               0.999999985               0.000883430               0.000210701               0.999999985               0.000894554               0.000187720               0.999999985               0.000900072               0.000179357               0.999999985               0.000905560               0.000178169               0.999999985               0.000912490               0.000180147               0.999999985               0.000920847               0.000183002               0.999999985               0.000930233               0.000185227               0.999999985               0.000939897               0.000185923               0.999999985               0.000949344               0.000184648               0.999999985               0.000958136               0.000180967               0.999999985               0.000965896               0.000174467               0.999999985               0.000972270               0.000164267               0.999999985               0.000976828               0.000149801               0.999999985               0.000979193               0.000130533               0.999999985               0.000978992               0.000105035               0.999999985               0.000976078               0.000071705               0.999999985               0.000825541               0.000392366               0.999999985               0.000840480               0.000315126               0.999999985               0.000840724               0.000283653               0.999999985               0.000839984               0.000273455               0.999999985               0.000841454               0.000273342               0.999999985               0.000845198               0.000277310               0.999999985               0.000850425               0.000281969               0.999999985               0.000856057               0.000285400               0.999999985               0.000861366               0.000286465               0.999999985               0.000865757               0.000284708               0.999999985               0.000868872               0.000279649               0.999999985               0.000870209               0.000270790               0.999999985               0.000869401               0.000257050               0.999999985               0.000866263               0.000237902               0.999999985               0.000860564               0.000212906               0.999999985               0.000852259               0.000180933               0.999999985               0.000841531               0.000141330               0.999999985               0.000793042               0.000517607               0.999999985               0.000783442               0.000418838               0.999999985               0.000771594               0.000381771               0.999999985               0.000764716               0.000371757               0.999999985               0.000762500               0.000373833               0.999999985               0.000763254               0.000380211               0.999999985               0.000765075               0.000386956               0.999999985               0.000766707               0.000391464               0.999999985               0.000767098               0.000392944               0.999999985               0.000765743               0.000390835               0.999999985               0.000762214               0.000384861               0.999999985               0.000756113               0.000374120               0.999999985               0.000747109               0.000357835               0.999999985               0.000735095               0.000335668               0.999999985               0.000720177               0.000307420               0.999999985               0.000702511               0.000272888               0.999999985               0.000682717               0.000232435               0.999999985               0.000752281               0.000638283               0.999999985               0.000715115               0.000521987               0.999999985               0.000692116               0.000482330               0.999999985               0.000680568               0.000474140               0.999999985               0.000675908               0.000479011               0.999999985               0.000674341               0.000488028               0.999999985               0.000673165               0.000496498               0.999999985               0.000670642               0.000502087               0.999999985               0.000665766               0.000503812               0.999999985               0.000658069               0.000501547               0.999999985               0.000647091               0.000494677               0.999999985               0.000632546               0.000482400               0.999999985               0.000614222               0.000464260               0.999999985               0.000592238               0.000440324               0.999999985               0.000567198               0.000410739               0.999999985               0.000539650               0.000376334               0.999999985               0.000510463               0.000338209               0.999999985               0.000704061               0.000753216               0.999999985               0.000638890               0.000624645               0.999999985               0.000607403               0.000584983               0.999999985               0.000593650               0.000579444               0.999999985               0.000588201               0.000587243               0.999999985               0.000585143               0.000598576               0.999999985               0.000581115               0.000608501               0.999999985               0.000574267               0.000614755               0.999999985               0.000563699               0.000616749               0.999999985               0.000548888               0.000613938               0.999999985               0.000529569               0.000606064               0.999999985               0.000505562               0.000592191               0.999999985               0.000477177               0.000572365               0.999999985               0.000444914               0.000547355               0.999999985               0.000409608               0.000517888               0.999999985               0.000372157               0.000485162               0.999999985               0.000333620               0.000450575               0.999999985               0.000649509               0.000861067               0.999999985               0.000558553               0.000726480               0.999999985               0.000522364               0.000688615               0.999999985               0.000509246               0.000685762               0.999999985               0.000504357               0.000696052               0.999999985               0.000500304               0.000709198               0.999999985               0.000493284               0.000720180               0.999999985               0.000481533               0.000727001               0.999999985               0.000464351               0.000728832               0.999999985               0.000441451               0.000725124               0.999999985               0.000412781               0.000715705               0.999999985               0.000378569               0.000700156               0.999999985               0.000339527               0.000679025               0.999999985               0.000296435               0.000653794               0.999999985               0.000250475               0.000625556               0.999999985               0.000202852               0.000595436               0.999999985               0.000154579               0.000564506               0.999999985               0.000590300               0.000959967               0.999999985               0.000476835               0.000827434               0.999999985               0.000441373               0.000791613               0.999999985               0.000431005               0.000790929               0.999999985               0.000427480               0.000803054               0.999999985               0.000422243               0.000817568               0.999999985               0.000411570               0.000829326               0.999999985               0.000394077               0.000836358               0.999999985               0.000369311               0.000837516               0.999999985               0.000337161               0.000832461               0.999999985               0.000298073               0.000821112               0.999999985               0.000252464               0.000804151               0.999999985               0.000201410               0.000782809               0.999999985               0.000146575               0.000758677               0.999999985               0.000089565               0.000732939               0.999999985               0.000031680               0.000706429               0.999999985              -0.000026413               0.000679821               0.999999985               0.000529079               0.001053752               0.999999985               0.000408430               0.000940575               0.999999985               0.000370135               0.000900788               0.999999985               0.000359228               0.000894875               0.999999985               0.000356410               0.000903547               0.999999985               0.000353150               0.000917321               0.999999985               0.000345230               0.000931122               0.999999985               0.000331277               0.000942099               0.999999985               0.000310714               0.000948980               0.999999985               0.000283181               0.000950940               0.999999985               0.000248718               0.000947914               0.999999985               0.000207648               0.000940169               0.999999985               0.000160382               0.000928350               0.999999985               0.000108077               0.000913462               0.999999985               0.000052321               0.000896863               0.999999985              -0.000005756               0.000879279               0.999999985              -0.000064650               0.000861612               0.999999985               0.000462413               0.001139432               0.999999985               0.000342828               0.001050216               0.999999985               0.000301945               0.001012951               0.999999985               0.000289510               0.001004308               0.999999985               0.000286531               0.001010644               0.999999985               0.000284277               0.001023873               0.999999985               0.000278670               0.001039146               0.999999985               0.000268007               0.001053603               0.999999985               0.000251366               0.001065526               0.999999985               0.000228159               0.001073975               0.999999985               0.000198448               0.001078425               0.999999985               0.000162252               0.001078908               0.999999985               0.000119350               0.001075795               0.999999985               0.000070422               0.001069731               0.999999985               0.000016606               0.001061542               0.999999985              -0.000040957               0.001052232               0.999999985              -0.000100697               0.001042713               0.999999985               0.000391601               0.001214881               0.999999985               0.000280103               0.001153092               0.999999985               0.000238581               0.001122918               0.999999985               0.000224347               0.001114978               0.999999985               0.000220392               0.001120773               0.999999985               0.000218400               0.001134154               0.999999985               0.000214340               0.001151007               0.999999985               0.000206398               0.001168749               0.999999985               0.000193299               0.001185449               0.999999985               0.000174388               0.001199905               0.999999985               0.000149431               0.001211471               0.999999985               0.000118158               0.001219888               0.999999985               0.000080274               0.001225084               0.999999985               0.000035620               0.001227550               0.999999985              -0.000015285               0.001227718               0.999999985              -0.000071760               0.001226297               0.999999985              -0.000132704               0.001224299               0.999999985               0.000317427               0.001278502               0.999999985               0.000220394               0.001244763               0.999999985               0.000180900               0.001225169               0.999999985               0.000165713               0.001220812               0.999999985               0.000160700               0.001227995               0.999999985               0.000158425               0.001242690               0.999999985               0.000155252               0.001261827               0.999999985               0.000149257               0.001282870               0.999999985               0.000139382               0.001304154               0.999999985               0.000124653               0.001324440               0.999999985               0.000104435               0.001342897               0.999999985               0.000078480               0.001359098               0.999999985               0.000046195               0.001372855               0.999999985               0.000006993               0.001384064               0.999999985              -0.000039483               0.001393013               0.999999985              -0.000093368               0.001400085               0.999999985              -0.000154714               0.001405854               0.999999985               0.000240528               0.001329284               0.999999985               0.000163142               0.001321153               0.999999985               0.000129148               0.001313531               0.999999985               0.000114746               0.001314622               0.999999985               0.000109254               0.001324631               0.999999985               0.000106808               0.001341553               0.999999985               0.000104100               0.001363298               0.999999985               0.000099773               0.001387791               0.999999985               0.000092699               0.001413519               0.999999985               0.000081842               0.001439475               0.999999985               0.000066458               0.001464695               0.999999985               0.000046207               0.001488582               0.999999985               0.000020453               0.001510813               0.999999985              -0.000011587               0.001530978               0.999999985              -0.000050957               0.001548956               0.999999985              -0.000098936               0.001564799               0.999999985              -0.000156517               0.001578857               0.999999985               0.000161566               0.001366285               0.999999985               0.000107743               0.001378607               0.999999985               0.000082765               0.001381962               0.999999985               0.000071355               0.001388912               0.999999985               0.000066567               0.001402216               0.999999985               0.000064268               0.001421734               0.999999985               0.000062173               0.001445922               0.999999985               0.000059372               0.001473417               0.999999985               0.000054716               0.001503170               0.999999985               0.000047475               0.001534030               0.999999985               0.000037179               0.001565145               0.999999985               0.000023420               0.001595865               0.999999985               0.000005541               0.001625680               0.999999985              -0.000017350               0.001654127               0.999999985              -0.000046502               0.001680761               0.999999985              -0.000083432               0.001705211               0.999999985              -0.000130135               0.001727325               0.999999985               0.000081165               0.001388792               0.999999985               0.000053564               0.001414312               0.999999985               0.000040347               0.001425382               0.999999985               0.000034011               0.001436848               0.999999985               0.000031207               0.001452945               0.999999985               0.000029739               0.001474435               0.999999985               0.000028625               0.001500424               0.999999985               0.000027099               0.001530020               0.999999985               0.000024774               0.001562400               0.999999985               0.000021277               0.001596602               0.999999985               0.000016174               0.001631833               0.999999985               0.000009228               0.001667485               0.999999985               0.000000068               0.001702897               0.999999985              -0.000011932               0.001737626               0.999999985              -0.000027511               0.001771129               0.999999985              -0.000047884               0.001802601               0.999999985              -0.000074684               0.001831158               0.999999985              -0.000000000               0.001396345               0.999999985               0.000000000               0.001426399               0.999999985               0.000000000               0.001440232               0.999999985               0.000000000               0.001453442               0.999999985               0.000000000               0.001470721               0.999999985              -0.000000000               0.001492954               0.999999985               0.000000000               0.001519516               0.999999985               0.000000000               0.001549768               0.999999985               0.000000000               0.001582917               0.999999985               0.000000000               0.001618343               0.999999985               0.000000000               0.001655170               0.999999985               0.000000000               0.001692541               0.999999985               0.000000000               0.001730143               0.999999985               0.000000000               0.001767486               0.999999985              -0.000000000               0.001803757               0.999999985              -0.000000000               0.001838058               0.999999985               0.000000000               0.001869202               0.999999985 </DataArray>
<DataArray type="Float64"                                    Name="defo"                                                      NumberOfComponents=" 3" format="ascii">
             -0.000868656              -0.000000000               0.999999985              -0.000919272               0.000000000               0.999999985              -0.000940527              -0.000000000               0.999999985              -0.000952394               0.000000000               0.999999985              -0.000962190               0.000000000               0.999999985              -0.000972613              -0.000000000               0.999999985              -0.000984408               0.000000000               0.999999985              -0.000997407               0.000000000               0.999999985              -0.001011369              -0.000000000               0.999999985              -0.001025889               0.000000000               0.999999985              -0.001040501               0.000000000               0.999999985              -0.001054716              -0.000000000               0.999999985              -0.001068126               0.000000000               0.999999985              -0.001080310              -0.000000000               0.999999985              -0.001090861              -0.000000000               0.999999985              -0.001099097               0.000000000               0.999999985              -0.001104195               0.000000000               0.999999985              -0.000863753               0.000132413               0.999999985              -0.000910148               0.000105575               0.999999985              -0.000928788               0.000093399               0.999999985              -0.000938980               0.000088698               0.999999985              -0.000947568               0.000087690               0.999999985              -0.000956969               0.000088476               0.999999985              -0.000967743               0.000089692               0.999999985              -0.000979776               0.000090788               0.999999985              -0.000992641               0.000091171               0.999999985              -0.001005813               0.000090462               0.999999985              -0.001018855               0.000088476               0.999999985              -0.001031388               0.000084994               0.999999985              -0.001042903               0.000079496               0.999999985              -0.001052932               0.000071631               0.999999985              -0.001061168               0.000061036               0.999999985              -0.001067037               0.000046574               0.999999985              -0.001069934               0.000026818               0.999999985              -0.000849274               0.000263591               0.999999985              -0.000883430               0.000210701               0.999999985              -0.000894554               0.000187720               0.999999985              -0.000900072               0.000179357               0.999999985              -0.000905560               0.000178169               0.999999985              -0.000912490               0.000180147               0.999999985              -0.000920847               0.000183002               0.999999985              -0.000930233               0.000185227               0.999999985              -0.000939897               0.000185923               0.999999985              -0.000949344               0.000184648               0.999999985              -0.000958136               0.000180967               0.999999985              -0.000965896               0.000174467               0.999999985              -0.000972270               0.000164267               0.999999985              -0.000976828               0.000149801               0.999999985              -0.000979193               0.000130533               0.999999985              -0.000978992               0.000105035               0.999999985              -0.000976078               0.000071705               0.999999985              -0.000825541               0.000392366               0.999999985              -0.000840480               0.000315126               0.999999985              -0.000840724               0.000283653               0.999999985              -0.000839984               0.000273455               0.999999985              -0.000841454               0.000273342               0.999999985              -0.000845198               0.000277310               0.999999985              -0.000850425               0.000281969               0.999999985              -0.000856057               0.000285400               0.999999985              -0.000861366               0.000286465               0.999999985              -0.000865757               0.000284708               0.999999985              -0.000868872               0.000279649               0.999999985              -0.000870209               0.000270790               0.999999985              -0.000869401               0.000257050               0.999999985              -0.000866263               0.000237902               0.999999985              -0.000860564               0.000212906               0.999999985              -0.000852259               0.000180933               0.999999985              -0.000841531               0.000141330               0.999999985              -0.000793042               0.000517607               0.999999985              -0.000783442               0.000418838               0.999999985              -0.000771594               0.000381771               0.999999985              -0.000764716               0.000371757               0.999999985              -0.000762500               0.000373833               0.999999985              -0.000763254               0.000380211               0.999999985              -0.000765075               0.000386956               0.999999985              -0.000766707               0.000391464               0.999999985              -0.000767098               0.000392944               0.999999985              -0.000765743               0.000390835               0.999999985              -0.000762214               0.000384861               0.999999985              -0.000756113               0.000374120               0.999999985              -0.000747109               0.000357835               0.999999985              -0.000735095               0.000335668               0.999999985              -0.000720177               0.000307420               0.999999985              -0.000702511               0.000272888               0.999999985              -0.000682717               0.000232435               0.999999985              -0.000752281               0.000638283               0.999999985              -0.000715115               0.000521987               0.999999985              -0.000692116               0.000482330               0.999999985              -0.000680568               0.000474140               0.999999985              -0.000675908               0.000479011               0.999999985              -0.000674341               0.000488028               0.999999985              -0.000673165               0.000496498               0.999999985              -0.000670642               0.000502087               0.999999985              -0.000665766               0.000503812               0.999999985              -0.000658069               0.000501547               0.999999985              -0.000647091               0.000494677               0.999999985              -0.000632546               0.000482400               0.999999985              -0.000614222               0.000464260               0.999999985              -0.000592238               0.000440324               0.999999985              -0.000567198               0.000410739               0.999999985              -0.000539650               0.000376334               0.999999985              -0.000510463               0.000338209               0.999999985              -0.000704061               0.000753216               0.999999985              -0.000638890               0.000624645               0.999999985              -0.000607403               0.000584983               0.999999985              -0.000593650               0.000579444               0.999999985              -0.000588201               0.000587243               0.999999985              -0.000585143               0.000598576               0.999999985              -0.000581115               0.000608501               0.999999985              -0.000574267               0.000614755               0.999999985              -0.000563699               0.000616749               0.999999985              -0.000548888               0.000613938               0.999999985              -0.000529569               0.000606064               0.999999985              -0.000505562               0.000592191               0.999999985              -0.000477177               0.000572365               0.999999985              -0.000444914               0.000547355               0.999999985              -0.000409608               0.000517888               0.999999985              -0.000372157               0.000485162               0.999999985              -0.000333620               0.000450575               0.999999985              -0.000649509               0.000861067               0.999999985              -0.000558553               0.000726480               0.999999985              -0.000522364               0.000688615               0.999999985              -0.000509246               0.000685762               0.999999985              -0.000504357               0.000696052               0.999999985              -0.000500304               0.000709198               0.999999985              -0.000493284               0.000720180               0.999999985              -0.000481533               0.000727001               0.999999985              -0.000464351               0.000728832               0.999999985              -0.000441451               0.000725124               0.999999985              -0.000412781               0.000715705               0.999999985              -0.000378569               0.000700156               0.999999985              -0.000339527               0.000679025               0.999999985              -0.000296435               0.000653794               0.999999985              -0.000250475               0.000625556               0.999999985              -0.000202852               0.000595436               0.999999985              -0.000154579               0.000564506               0.999999985              -0.000590300               0.000959967               0.999999985              -0.000476835               0.000827434               0.999999985              -0.000441373               0.000791613               0.999999985              -0.000431005               0.000790929               0.999999985              -0.000427480               0.000803054               0.999999985              -0.000422243               0.000817568               0.999999985              -0.000411570               0.000829326               0.999999985              -0.000394077               0.000836358               0.999999985              -0.000369311               0.000837516               0.999999985              -0.000337161               0.000832461               0.999999985              -0.000298073               0.000821112               0.999999985              -0.000252464               0.000804151               0.999999985              -0.000201410               0.000782809               0.999999985              -0.000146575               0.000758677               0.999999985              -0.000089565               0.000732939               0.999999985              -0.000031680               0.000706429               0.999999985               0.000026413               0.000679821               0.999999985              -0.000529079               0.001053752               0.999999985              -0.000408430               0.000940575               0.999999985              -0.000370135               0.000900788               0.999999985              -0.000359228               0.000894875               0.999999985              -0.000356410               0.000903547               0.999999985              -0.000353150               0.000917321               0.999999985              -0.000345230               0.000931122               0.999999985              -0.000331277               0.000942099               0.999999985              -0.000310714               0.000948980               0.999999985              -0.000283181               0.000950940               0.999999985              -0.000248718               0.000947914               0.999999985              -0.000207648               0.000940169               0.999999985              -0.000160382               0.000928350               0.999999985              -0.000108077               0.000913462               0.999999985              -0.000052321               0.000896863               0.999999985               0.000005756               0.000879279               0.999999985               0.000064650               0.000861612               0.999999985              -0.000462413               0.001139432               0.999999985              -0.000342828               0.001050216               0.999999985              -0.000301945               0.001012951               0.999999985              -0.000289510               0.001004308               0.999999985              -0.000286531               0.001010644               0.999999985              -0.000284277               0.001023873               0.999999985              -0.000278670               0.001039146               0.999999985              -0.000268007               0.001053603               0.999999985              -0.000251366               0.001065526               0.999999985              -0.000228159               0.001073975               0.999999985              -0.000198448               0.001078425               0.999999985              -0.000162252               0.001078908               0.999999985              -0.000119350               0.001075795               0.999999985              -0.000070422               0.001069731               0.999999985              -0.000016606               0.001061542               0.999999985               0.000040957               0.001052232               0.999999985               0.000100697               0.001042713               0.999999985              -0.000391601               0.001214881               0.999999985              -0.000280103               0.001153092               0.999999985              -0.000238581               0.001122918               0.999999985              -0.000224347               0.001114978               0.999999985              -0.000220392               0.001120773               0.999999985              -0.000218400               0.001134154               0.999999985              -0.000214340               0.001151007               0.999999985              -0.000206398               0.001168749               0.999999985              -0.000193299               0.001185449               0.999999985              -0.000174388               0.001199905               0.999999985              -0.000149431               0.001211471               0.999999985              -0.000118158               0.001219888               0.999999985              -0.000080274               0.001225084               0.999999985              -0.000035620               0.001227550               0.999999985               0.000015285               0.001227718               0.999999985               0.000071760               0.001226297               0.999999985               0.000132704               0.001224299               0.999999985              -0.000317427               0.001278502               0.999999985              -0.000220394               0.001244763               0.999999985              -0.000180900               0.001225169               0.999999985              -0.000165713               0.001220812               0.999999985              -0.000160700               0.001227995               0.999999985              -0.000158425               0.001242690               0.999999985              -0.000155252               0.001261827               0.999999985              -0.000149257               0.001282870               0.999999985              -0.000139382               0.001304154               0.999999985              -0.000124653               0.001324440               0.999999985              -0.000104435               0.001342897               0.999999985              -0.000078480               0.001359098               0.999999985              -0.000046195               0.001372855               0.999999985              -0.000006993               0.001384064               0.999999985               0.000039483               0.001393013               0.999999985               0.000093368               0.001400085               0.999999985               0.000154714               0.001405854               0.999999985              -0.000240528               0.001329284               0.999999985              -0.000163142               0.001321153               0.999999985              -0.000129148               0.001313531               0.999999985              -0.000114746               0.001314622               0.999999985              -0.000109254               0.001324631               0.999999985              -0.000106808               0.001341553               0.999999985              -0.000104100               0.001363298               0.999999985              -0.000099773               0.001387791               0.999999985              -0.000092699               0.001413519               0.999999985              -0.000081842               0.001439475               0.999999985              -0.000066458               0.001464695               0.999999985              -0.000046207               0.001488582               0.999999985              -0.000020453               0.001510813               0.999999985               0.000011587               0.001530978               0.999999985               0.000050957               0.001548956               0.999999985               0.000098936               0.001564799               0.999999985               0.000156517               0.001578857               0.999999985              -0.000161566               0.001366285               0.999999985              -0.000107743               0.001378607               0.999999985              -0.000082765               0.001381962               0.999999985              -0.000071355               0.001388912               0.999999985              -0.000066567               0.001402216               0.999999985              -0.000064268               0.001421734               0.999999985              -0.000062173               0.001445922               0.999999985              -0.000059372               0.001473417               0.999999985              -0.000054716               0.001503170               0.999999985              -0.000047475               0.001534030               0.999999985              -0.000037179               0.001565145               0.999999985              -0.000023420               0.001595865               0.999999985              -0.000005541               0.001625680               0.999999985               0.000017350               0.001654127               0.999999985               0.000046502               0.001680761               0.999999985               0.000083432               0.001705211               0.999999985               0.000130135               0.001727325               0.999999985              -0.000081165               0.001388792               0.999999985              -0.000053564               0.001414312               0.999999985              -0.000040347               0.001425382               0.999999985              -0.000034011               0.001436848               0.999999985              -0.000031207               0.001452945               0.999999985              -0.000029739               0.001474435               0.999999985              -0.000028625               0.001500424               0.999999985              -0.000027099               0.001530020               0.999999985              -0.000024774               0.001562400               0.999999985              -0.000021277               0.001596602               0.999999985              -0.000016174               0.001631833               0.999999985              -0.000009228               0.001667485               0.999999985              -0.000000068               0.001702897               0.999999985               0.000011932               0.001737626               0.999999985               0.000027511               0.001771129               0.999999985               0.000047884               0.001802601               0.999999985               0.000074684               0.001831158               0.999999985              -0.000000000               0.001396345               0.999999985               0.000000000               0.001426399               0.999999985               0.000000000               0.001440232               0.999999985               0.000000000               0.001453442               0.999999985               0.000000000               0.001470721               0.999999985              -0.000000000               0.001492954               0.999999985               0.000000000               0.001519516               0.999999985               0.000000000               0.001549768               0.999999985               0.000000000               0.001582917               0.999999985               0.000000000               0.001618343               0.999999985               0.000000000               0.001655170               0.999999985               0.000000000               0.001692541               0.999999985               0.000000000               0.001730143               0.999999985               0.000000000               0.001767486               0.999999985              -0.000000000               0.001803757               0.999999985              -0.000000000               0.001838058               0.999999985               0.000000000               0.001869202               0.999999985              -0.000868656              -0.000000000               0.999999985              -0.000919272               0.000000000               0.999999985              -0.000940527              -0.000000000               0.999999985              -0.000952394               0.000000000               0.999999985              -0.000962190               0.000000000               0.999999985              -0.000972613              -0.000000000               0.999999985              -0.000984408               0.000000000               0.999999985              -0.000997407               0.000000000               0.999999985              -0.001011369              -0.000000000               0.999999985              -0.001025889               0.000000000               0.999999985              -0.001040501               0.000000000               0.999999985              -0.001054716              -0.000000000               0.999999985              -0.001068126               0.000000000               0.999999985              -0.001080310              -0.000000000               0.999999985              -0.001090861              -0.000000000               0.999999985              -0.001099097               0.000000000               0.999999985              -0.001104195               0.000000000               0.999999985              -0.000863753              -0.000132413               0.999999985              -0.000910148              -0.000105575               0.999999985              -0.000928788              -0.000093399               0.999999985              -0.000938980              -0.000088698               0.999999985              -0.000947568              -0.000087690               0.999999985              -0.000956969              -0.000088476               0.999999985              -0.000967743              -0.000089692               0.999999985              -0.000979776              -0.000090788               0.999999985              -0.000992641              -0.000091171               0.999999985              -0.001005813              -0.000090462               0.999999985              -0.001018855              -0.000088476               0.999999985              -0.001031388              -0.000084994               0.999999985              -0.001042903              -0.000079496               0.999999985              -0.001052932              -0.000071631               0.999999985              -0.001061168              -0.000061036               0.999999985              -0.001067037              -0.000046574               0.999999985              -0.001069934              -0.000026818               0.999999985              -0.000849274              -0.000263591               0.999999985              -0.000883430              -0.000210701               0.999999985              -0.000894554              -0.000187720               0.999999985              -0.000900072              -0.000179357               0.999999985              -0.000905560              -0.000178169               0.999999985              -0.000912490              -0.000180147               0.999999985              -0.000920847              -0.000183002               0.999999985              -0.000930233              -0.000185227               0.999999985              -0.000939897              -0.000185923               0.999999985              -0.000949344              -0.000184648               0.999999985              -0.000958136              -0.000180967               0.999999985              -0.000965896              -0.000174467               0.999999985              -0.000972270              -0.000164267               0.999999985              -0.000976828              -0.000149801               0.999999985              -0.000979193              -0.000130533               0.999999985              -0.000978992              -0.000105035               0.999999985              -0.000976078              -0.000071705               0.999999985              -0.000825541              -0.000392366               0.999999985              -0.000840480              -0.000315126               0.999999985              -0.000840724              -0.000283653               0.999999985              -0.000839984              -0.000273455               0.999999985              -0.000841454              -0.000273342               0.999999985              -0.000845198              -0.000277310               0.999999985              -0.000850425              -0.000281969               0.999999985              -0.000856057              -0.000285400               0.999999985              -0.000861366              -0.000286465               0.999999985              -0.000865757              -0.000284708               0.999999985              -0.000868872              -0.000279649               0.999999985              -0.000870209              -0.000270790               0.999999985              -0.000869401              -0.000257050               0.999999985              -0.000866263              -0.000237902               0.999999985              -0.000860564              -0.000212906               0.999999985              -0.000852259              -0.000180933               0.999999985              -0.000841531              -0.000141330               0.999999985              -0.000793042              -0.000517607               0.999999985              -0.000783442              -0.000418838               0.999999985              -0.000771594              -0.000381771               0.999999985              -0.000764716              -0.000371757               0.999999985              -0.000762500              -0.000373833               0.999999985              -0.000763254              -0.000380211               0.999999985              -0.000765075              -0.000386956               0.999999985              -0.000766707              -0.000391464               0.999999985              -0.000767098              -0.000392944               0.999999985              -0.000765743              -0.000390835               0.999999985              -0.000762214              -0.000384861               0.999999985              -0.000756113              -0.000374120               0.999999985              -0.000747109              -0.000357835               0.999999985              -0.000735095              -0.000335668               0.999999985              -0.000720177              -0.000307420               0.999999985              -0.000702511              -0.000272888               0.999999985              -0.000682717              -0.000232435               0.999999985              -0.000752281              -0.000638283               0.999999985              -0.000715115              -0.000521987               0.999999985              -0.000692116              -0.000482330               0.999999985              -0.000680568              -0.000474140               0.999999985              -0.000675908              -0.000479011               0.999999985              -0.000674341              -0.000488028               0.999999985              -0.000673165              -0.000496498               0.999999985              -0.000670642              -0.000502087               0.999999985              -0.000665766              -0.000503812               0.999999985              -0.000658069              -0.000501547               0.999999985              -0.000647091              -0.000494677               0.999999985              -0.000632546              -0.000482400               0.999999985              -0.000614222              -0.000464260               0.999999985              -0.000592238              -0.000440324               0.999999985              -0.000567198              -0.000410739               0.999999985              -0.000539650              -0.000376334               0.999999985              -0.000510463              -0.000338209               0.999999985              -0.000704061              -0.000753216               0.999999985              -0.000638890              -0.000624645               0.999999985              -0.000607403              -0.000584983               0.999999985              -0.000593650              -0.000579444               0.999999985              -0.000588201              -0.000587243               0.999999985              -0.000585143              -0.000598576               0.999999985              -0.000581115              -0.000608501               0.999999985              -0.000574267              -0.000614755               0.999999985              -0.000563699              -0.000616749               0.999999985              -0.000548888              -0.000613938               0.999999985              -0.000529569              -0.000606064               0.999999985              -0.000505562              -0.000592191               0.999999985              -0.000477177              -0.000572365               0.999999985              -0.000444914              -0.000547355               0.999999985              -0.000409608              -0.000517888               0.999999985              -0.000372157              -0.000485162               0.999999985              -0.000333620              -0.000450575               0.999999985              -0.000649509              -0.000861067               0.999999985              -0.000558553              -0.000726480               0.999999985              -0.000522364              -0.000688615               0.999999985              -0.000509246              -0.000685762               0.999999985              -0.000504357              -0.000696052               0.999999985              -0.000500304              -0.000709198               0.999999985              -0.000493284              -0.000720180               0.999999985              -0.000481533              -0.000727001               0.999999985              -0.000464351              -0.000728832               0.999999985              -0.000441451              -0.000725124               0.999999985              -0.000412781              -0.000715705               0.999999985              -0.000378569              -0.000700156               0.999999985              -0.000339527              -0.000679025               0.999999985              -0.000296435              -0.000653794               0.999999985              -0.000250475              -0.000625556               0.999999985              -0.000202852              -0.000595436               0.999999985              -0.000154579              -0.000564506               0.999999985              -0.000590300              -0.000959967               0.999999985              -0.000476835              -0.000827434               0.999999985              -0.000441373              -0.000791613               0.999999985              -0.000431005              -0.000790929               0.999999985              -0.000427480              -0.000803054               0.999999985              -0.000422243              -0.000817568               0.999999985              -0.000411570              -0.000829326               0.999999985              -0.000394077              -0.000836358               0.999999985              -0.000369311              -0.000837516               0.999999985              -0.000337161              -0.000832461               0.999999985              -0.000298073              -0.000821112               0.999999985              -0.000252464              -0.000804151               0.999999985              -0.000201410              -0.000782809               0.999999985              -0.000146575              -0.000758677               0.999999985              -0.000089565              -0.000732939               0.999999985              -0.000031680              -0.000706429               0.999999985               0.000026413              -0.000679821               0.999999985              -0.000529079              -0.001053752               0.999999985              -0.000408430              -0.000940575               0.999999985              -0.000370135              -0.000900788               0.999999985              -0.000359228              -0.000894875               0.999999985              -0.000356410              -0.000903547               0.999999985              -0.000353150              -0.000917321               0.999999985              -0.000345230              -0.000931122               0.999999985              -0.000331277              -0.000942099               0.999999985              -0.000310714              -0.000948980               0.999999985              -0.000283181              -0.000950940               0.999999985              -0.000248718              -0.000947914               0.999999985              -0.000207648              -0.000940169               0.999999985              -0.000160382              -0.000928350               0.999999985              -0.000108077              -0.000913462               0.999999985              -0.000052321              -0.000896863               0.999999985               0.000005756              -0.000879279               0.999999985               0.000064650              -0.000861612               0.999999985              -0.000462413              -0.001139432               0.999999985              -0.000342828              -0.001050216               0.999999985              -0.000301945              -0.001012951               0.999999985              -0.000289510              -0.001004308               0.999999985              -0.000286531              -0.001010644               0.999999985              -0.000284277              -0.001023873               0.999999985              -0.000278670              -0.001039146               0.999999985              -0.000268007              -0.001053603               0.999999985              -0.000251366              -0.001065526               0.999999985              -0.000228159              -0.001073975               0.999999985              -0.000198448              -0.001078425               0.999999985              -0.000162252              -0.001078908               0.999999985              -0.000119350              -0.001075795               0.999999985              -0.000070422              -0.001069731               0.999999985              -0.000016606              -0.001061542               0.999999985               0.000040957              -0.001052232               0.999999985               0.000100697              -0.001042713               0.999999985              -0.000391601              -0.001214881               0.999999985              -0.000280103              -0.001153092               0.999999985              -0.000238581              -0.001122918               0.999999985              -0.000224347              -0.001114978               0.999999985              -0.000220392              -0.001120773               0.999999985              -0.000218400              -0.001134154               0.999999985              -0.000214340              -0.001151007               0.999999985              -0.000206398              -0.001168749               0.999999985              -0.000193299              -0.001185449               0.999999985              -0.000174388              -0.001199905               0.999999985              -0.000149431              -0.001211471               0.999999985              -0.000118158              -0.001219888               0.999999985              -0.000080274              -0.001225084               0.999999985              -0.000035620              -0.001227550               0.999999985               0.000015285              -0.001227718               0.999999985               0.000071760              -0.001226297               0.999999985               0.000132704              -0.001224299               0.999999985              -0.000317427              -0.001278502               0.999999985              -0.000220394              -0.001244763               0.999999985              -0.000180900              -0.001225169               0.999999985              -0.000165713              -0.001220812               0.999999985              -0.000160700              -0.001227995               0.999999985              -0.000158425              -0.001242690               0.999999985              -0.000155252              -0.001261827               0.999999985              -0.000149257              -0.001282870               0.999999985              -0.000139382              -0.001304154               0.999999985              -0.000124653              -0.001324440               0.999999985              -0.000104435              -0.001342897               0.999999985              -0.000078480              -0.001359098               0.999999985              -0.000046195              -0.001372855               0.999999985              -0.000006993              -0.001384064               0.999999985               0.000039483              -0.001393013               0.999999985               0.000093368              -0.001400085               0.999999985               0.000154714              -0.001405854               0.999999985              -0.000240528              -0.001329284               0.999999985              -0.000163142              -0.001321153               0.999999985              -0.000129148              -0.001313531               0.999999985              -0.000114746              -0.001314622               0.999999985              -0.000109254              -0.001324631               0.999999985              -0.000106808              -0.001341553               0.999999985              -0.000104100              -0.001363298               0.999999985              -0.000099773              -0.001387791               0.999999985              -0.000092699              -0.001413519               0.999999985              -0.000081842              -0.001439475               0.999999985              -0.000066458              -0.001464695               0.999999985              -0.000046207              -0.001488582               0.999999985              -0.000020453              -0.001510813               0.999999985               0.000011587              -0.001530978               0.999999985               0.000050957              -0.001548956               0.999999985               0.000098936              -0.001564799               0.999999985               0.000156517              -0.001578857               0.999999985              -0.000161566              -0.001366285               0.999999985              -0.000107743              -0.001378607               0.999999985              -0.000082765              -0.001381962               0.999999985              -0.000071355              -0.001388912               0.999999985              -0.000066567              -0.001402216               0.999999985              -0.000064268              -0.001421734               0.999999985              -0.000062173              -0.001445922               0.999999985              -0.000059372              -0.001473417               0.999999985              -0.000054716              -0.001503170               0.999999985              -0.000047475              -0.001534030               0.999999985              -0.000037179              -0.001565145               0.999999985              -0.000023420              -0.001595865               0.999999985              -0.000005541              -0.001625680               0.999999985               0.000017350              -0.001654127               0.999999985               0.000046502              -0.001680761               0.999999985               0.000083432              -0.001705211               0.999999985               0.000130135              -0.001727325               0.999999985              -0.000081165              -0.001388792               0.999999985              -0.000053564              -0.001414312               0.999999985              -0.000040347              -0.001425382               0.999999985              -0.000034011              -0.001436848               0.999999985              -0.000031207              -0.001452945               0.999999985              -0.000029739              -0.001474435               0.999999985              -0.000028625              -0.001500424               0.999999985              -0.000027099              -0.001530020               0.999999985              -0.000024774              -0.001562400               0.999999985              -0.000021277              -0.001596602               0.999999985              -0.000016174              -0.001631833               0.999999985              -0.000009228              -0.001667485               0.999999985              -0.000000068              -0.001702897               0.999999985               0.000011932              -0.001737626               0.999999985               0.000027511              -0.001771129               0.999999985               0.000047884              -0.001802601               0.999999985               0.000074684              -0.001831158               0.999999985              -0.000000000              -0.001396345               0.999999985               0.000000000              -0.001426399               0.999999985              -0.000000000              -0.001440232               0.999999985               0.000000000              -0.001453442               0.999999985               0.000000000              -0.001470721               0.999999985               0.000000000              -0.001492954               0.999999985              -0.000000000              -0.001519516               0.999999985              -0.000000000              -0.001549768               0.999999985              -0.000000000              -0.001582917               0.999999985              -0.000000000              -0.001618343               0.999999985              -0.000000000              -0.001655170               0.999999985               0.000000000              -0.001692541               0.999999985               0.000000000              -0.001730143               0.999999985              -0.000000000              -0.001767486               0.999999985               0.000000000              -0.001803757               0.999999985              -0.000000000              -0.001838058               0.999999985               0.000000000              -0.001869202               0.999999985               0.000868656              -0.000000000               0.999999985               0.000919272              -0.000000000               0.999999985               0.000940527              -0.000000000               0.999999985               0.000952394              -0.000000000               0.999999985               0.000962190               0.000000000               0.999999985               0.000972613               0.000000000               0.999999985               0.000984408              -0.000000000               0.999999985               0.000997407               0.000000000               0.999999985               0.001011369               0.000000000               0.999999985               0.001025889               0.000000000               0.999999985               0.001040501               0.000000000               0.999999985               0.001054716               0.000000000               0.999999985               0.001068126               0.000000000               0.999999985               0.001080310              -0.000000000               0.999999985               0.001090861               0.000000000               0.999999985               0.001099097               0.000000000               0.999999985               0.001104195               0.000000000               0.999999985               0.000863753              -0.000132413               0.999999985               0.000910148              -0.000105575               0.999999985               0.000928788              -0.000093399               0.999999985               0.000938980              -0.000088698               0.999999985               0.000947568              -0.000087690               0.999999985               0.000956969              -0.000088476               0.999999985               0.000967743              -0.000089692               0.999999985               0.000979776              -0.000090788               0.999999985               0.000992641              -0.000091171               0.999999985               0.001005813              -0.000090462               0.999999985               0.001018855              -0.000088476               0.999999985               0.001031388              -0.000084994               0.999999985               0.001042903              -0.000079496               0.999999985               0.001052932              -0.000071631               0.999999985               0.001061168              -0.000061036               0.999999985               0.001067037              -0.000046574               0.999999985               0.001069934              -0.000026818               0.999999985               0.000849274              -0.000263591               0.999999985               0.000883430              -0.000210701               0.999999985               0.000894554              -0.000187720               0.999999985               0.000900072              -0.000179357               0.999999985               0.000905560              -0.000178169               0.999999985               0.000912490              -0.000180147               0.999999985               0.000920847              -0.000183002               0.999999985               0.000930233              -0.000185227               0.999999985               0.000939897              -0.000185923               0.999999985               0.000949344              -0.000184648               0.999999985               0.000958136              -0.000180967               0.999999985               0.000965896              -0.000174467               0.999999985               0.000972270              -0.000164267               0.999999985               0.000976828              -0.000149801               0.999999985               0.000979193              -0.000130533               0.999999985               0.000978992              -0.000105035               0.999999985               0.000976078              -0.000071705               0.999999985               0.000825541              -0.000392366               0.999999985               0.000840480              -0.000315126               0.999999985               0.000840724              -0.000283653               0.999999985               0.000839984              -0.000273455               0.999999985               0.000841454              -0.000273342               0.999999985               0.000845198              -0.000277310               0.999999985               0.000850425              -0.000281969               0.999999985               0.000856057              -0.000285400               0.999999985               0.000861366              -0.000286465               0.999999985               0.000865757              -0.000284708               0.999999985               0.000868872              -0.000279649               0.999999985               0.000870209              -0.000270790               0.999999985               0.000869401              -0.000257050               0.999999985               0.000866263              -0.000237902               0.999999985               0.000860564              -0.000212906               0.999999985               0.000852259              -0.000180933               0.999999985               0.000841531              -0.000141330               0.999999985               0.000793042              -0.000517607               0.999999985               0.000783442              -0.000418838               0.999999985               0.000771594              -0.000381771               0.999999985               0.000764716              -0.000371757               0.999999985               0.000762500              -0.000373833               0.999999985               0.000763254              -0.000380211               0.999999985               0.000765075              -0.000386956               0.999999985               0.000766707              -0.000391464               0.999999985               0.000767098              -0.000392944               0.999999985               0.000765743              -0.000390835               0.999999985               0.000762214              -0.000384861               0.999999985               0.000756113              -0.000374120               0.999999985               0.000747109              -0.000357835               0.999999985               0.000735095              -0.000335668               0.999999985               0.000720177              -0.000307420               0.999999985               0.000702511              -0.000272888               0.999999985               0.000682717              -0.000232435               0.999999985               0.000752281              -0.000638283               0.999999985               0.000715115              -0.000521987               0.999999985               0.000692116              -0.000482330               0.999999985               0.000680568              -0.000474140               0.999999985               0.000675908              -0.000479011               0.999999985               0.000674341              -0.000488028               0.999999985               0.000673165              -0.000496498               0.999999985               0.000670642              -0.000502087               0.999999985               0.000665766              -0.000503812               0.999999985               0.000658069              -0.000501547               0.999999985               0.000647091              -0.000494677               0.999999985               0.000632546              -0.000482400               0.999999985               0.000614222              -0.000464260               0.999999985               0.000592238              -0.000440324               0.999999985               0.000567198              -0.000410739               0.999999985               0.000539650              -0.000376334               0.999999985               0.000510463              -0.000338209               0.999999985               0.000704061              -0.000753216               0.999999985               0.000638890              -0.000624645               0.999999985               0.000607403              -0.000584983               0.999999985               0.000593650              -0.000579444               0.999999985               0.000588201              -0.000587243               0.999999985               0.000585143              -0.000598576               0.999999985               0.000581115              -0.000608501               0.999999985               0.000574267              -0.000614755               0.999999985               0.000563699              -0.000616749               0.999999985               0.000548888              -0.000613938               0.999999985               0.000529569              -0.000606064               0.999999985               0.000505562              -0.000592191               0.999999985               0.000477177              -0.000572365               0.999999985               0.000444914              -0.000547355               0.999999985               0.000409608              -0.000517888               0.999999985               0.000372157              -0.000485162               0.999999985               0.000333620              -0.000450575               0.999999985               0.000649509              -0.000861067               0.999999985               0.000558553              -0.000726480               0.999999985               0.000522364              -0.000688615               0.999999985               0.000509246              -0.000685762               0.999999985               0.000504357              -0.000696052               0.999999985               0.000500304              -0.000709198               0.999999985               0.000493284              -0.000720180               0.999999985               0.000481533              -0.000727001               0.999999985               0.000464351              -0.000728832               0.999999985               0.000441451              -0.000725124               0.999999985               0.000412781              -0.000715705               0.999999985               0.000378569              -0.000700156               0.999999985               0.000339527              -0.000679025               0.999999985               0.000296435              -0.000653794               0.999999985               0.000250475              -0.000625556               0.999999985               0.000202852              -0.000595436               0.999999985               0.000154579              -0.000564506               0.999999985               0.000590300              -0.000959967               0.999999985               0.000476835              -0.000827434               0.999999985               0.000441373              -0.000791613               0.999999985               0.000431005              -0.000790929               0.999999985               0.000427480              -0.000803054               0.999999985               0.000422243              -0.000817568               0.999999985               0.000411570              -0.000829326               0.999999985               0.000394077              -0.000836358               0.999999985               0.000369311              -0.000837516               0.999999985               0.000337161              -0.000832461               0.999999985               0.000298073              -0.000821112               0.999999985               0.000252464              -0.000804151               0.999999985               0.000201410              -0.000782809               0.999999985               0.000146575              -0.000758677               0.999999985               0.000089565              -0.000732939               0.999999985               0.000031680              -0.000706429               0.999999985              -0.000026413              -0.000679821               0.999999985               0.000529079              -0.001053752               0.999999985               0.000408430              -0.000940575               0.999999985               0.000370135              -0.000900788               0.999999985               0.000359228              -0.000894875               0.999999985               0.000356410              -0.000903547               0.999999985               0.000353150              -0.000917321               0.999999985               0.000345230              -0.000931122               0.999999985               0.000331277              -0.000942099               0.999999985               0.000310714              -0.000948980               0.999999985               0.000283181              -0.000950940               0.999999985               0.000248718              -0.000947914               0.999999985               0.000207648              -0.000940169               0.999999985               0.000160382              -0.000928350               0.999999985               0.000108077              -0.000913462               0.999999985               0.000052321              -0.000896863               0.999999985              -0.000005756              -0.000879279               0.999999985              -0.000064650              -0.000861612               0.999999985               0.000462413              -0.001139432               0.999999985               0.000342828              -0.001050216               0.999999985               0.000301945              -0.001012951               0.999999985               0.000289510              -0.001004308               0.999999985               0.000286531              -0.001010644               0.999999985               0.000284277              -0.001023873               0.999999985               0.000278670              -0.001039146               0.999999985               0.000268007              -0.001053603               0.999999985               0.000251366              -0.001065526               0.999999985               0.000228159              -0.001073975               0.999999985               0.000198448              -0.001078425               0.999999985               0.000162252              -0.001078908               0.999999985               0.000119350              -0.001075795               0.999999985               0.000070422              -0.001069731               0.999999985               0.000016606              -0.001061542               0.999999985              -0.000040957              -0.001052232               0.999999985              -0.000100697              -0.001042713               0.999999985               0.000391601              -0.001214881               0.999999985               0.000280103              -0.001153092               0.999999985               0.000238581              -0.001122918               0.999999985               0.000224347              -0.001114978               0.999999985               0.000220392              -0.001120773               0.999999985               0.000218400              -0.001134154               0.999999985               0.000214340              -0.001151007               0.999999985               0.000206398              -0.001168749               0.999999985               0.000193299              -0.001185449               0.999999985               0.000174388              -0.001199905               0.999999985               0.000149431              -0.001211471               0.999999985               0.000118158              -0.001219888               0.999999985               0.000080274              -0.001225084               0.999999985               0.000035620              -0.001227550               0.999999985              -0.000015285              -0.001227718               0.999999985              -0.000071760              -0.001226297               0.999999985              -0.000132704              -0.001224299               0.999999985               0.000317427              -0.001278502               0.999999985               0.000220394              -0.001244763               0.999999985               0.000180900              -0.001225169               0.999999985               0.000165713              -0.001220812               0.999999985               0.000160700              -0.001227995               0.999999985               0.000158425              -0.001242690               0.999999985               0.000155252              -0.001261827               0.999999985               0.000149257              -0.001282870               0.999999985               0.000139382              -0.001304154               0.999999985               0.000124653              -0.001324440               0.999999985               0.000104435              -0.001342897               0.999999985               0.000078480              -0.001359098               0.999999985               0.000046195              -0.001372855               0.999999985               0.000006993              -0.001384064               0.999999985              -0.000039483              -0.001393013               0.999999985              -0.000093368              -0.001400085               0.999999985              -0.000154714              -0.001405854               0.999999985               0.000240528              -0.001329284               0.999999985               0.000163142              -0.001321153               0.999999985               0.000129148              -0.001313531               0.999999985               0.000114746              -0.001314622               0.999999985               0.000109254              -0.001324631               0.999999985               0.000106808              -0.001341553               0.999999985               0.000104100              -0.001363298               0.999999985               0.000099773              -0.001387791               0.999999985               0.000092699              -0.001413519               0.999999985               0.000081842              -0.001439475               0.999999985               0.000066458              -0.001464695               0.999999985               0.000046207              -0.001488582               0.999999985               0.000020453              -0.001510813               0.999999985              -0.000011587              -0.001530978               0.999999985              -0.000050957              -0.001548956               0.999999985              -0.000098936              -0.001564799               0.999999985              -0.000156517              -0.001578857               0.999999985               0.000161566              -0.001366285               0.999999985               0.000107743              -0.001378607               0.999999985               0.000082765              -0.001381962               0.999999985               0.000071355              -0.001388912               0.999999985               0.000066567              -0.001402216               0.999999985               0.000064268              -0.001421734               0.999999985               0.000062173              -0.001445922               0.999999985               0.000059372              -0.001473417               0.999999985               0.000054716              -0.001503170               0.999999985               0.000047475              -0.001534030               0.999999985               0.000037179              -0.001565145               0.999999985               0.000023420              -0.001595865               0.999999985               0.000005541              -0.001625680               0.999999985              -0.000017350              -0.001654127               0.999999985              -0.000046502              -0.001680761               0.999999985              -0.000083432              -0.001705211               0.999999985              -0.000130135              -0.001727325               0.999999985               0.000081165              -0.001388792               0.999999985               0.000053564              -0.001414312               0.999999985               0.000040347              -0.001425382               0.999999985               0.000034011              -0.001436848               0.999999985               0.000031207              -0.001452945               0.999999985               0.000029739              -0.001474435               0.999999985               0.000028625              -0.001500424               0.999999985               0.000027099              -0.001530020               0.999999985               0.000024774              -0.001562400               0.999999985               0.000021277              -0.001596602               0.999999985               0.000016174              -0.001631833               0.999999985               0.000009228              -0.001667485               0.999999985               0.000000068              -0.001702897               0.999999985              -0.000011932              -0.001737626               0.999999985              -0.000027511              -0.001771129               0.999999985              -0.000047884              -0.001802601               0.999999985              -0.000074684              -0.001831158               0.999999985              -0.000000000              -0.001396345               0.999999985               0.000000000              -0.001426399               0.999999985              -0.000000000              -0.001440232               0.999999985               0.000000000              -0.001453442               0.999999985               0.000000000              -0.001470721               0.999999985               0.000000000              -0.001492954               0.999999985              -0.000000000              -0.001519516               0.999999985              -0.000000000              -0.001549768               0.999999985              -0.000000000              -0.001582917               0.999999985              -0.000000000              -0.001618343               0.999999985              -0.000000000              -0.001655170               0.999999985               0.000000000              -0.001692541               0.999999985               0.000000000              -0.001730143               0.999999985              -0.000000000              -0.001767486               0.999999985               0.000000000              -0.001803757               0.999999985              -0.000000000              -0.001838058               0.999999985               0.000000000              -0.001869202               0.999999985               0.000868656              -0.000000000               0.999999985               0.000919272              -0.000000000               0.999999985               0.000940527              -0.000000000               0.999999985               0.000952394              -0.000000000               0.999999985               0.000962190               0.000000000               0.999999985               0.000972613               0.000000000               0.999999985               0.000984408              -0.000000000               0.999999985               0.000997407               0.000000000               0.999999985               0.001011369               0.000000000               0.999999985               0.001025889               0.000000000               0.999999985               0.001040501               0.000000000               0.999999985               0.001054716               0.000000000               0.999999985               0.001068126               0.000000000               0.999999985               0.001080310              -0.000000000               0.999999985               0.001090861               0.000000000               0.999999985               0.001099097               0.000000000               0.999999985               0.001104195               0.000000000               0.999999985               0.000863753               0.000132413               0.999999985               0.000910148               0.000105575               0.999999985               0.000928788               0.000093399               0.999999985               0.000938980               0.000088698               0.999999985               0.000947568               0.000087690               0.999999985               0.000956969               0.000088476               0.999999985               0.000967743               0.000089692               0.999999985               0.000979776               0.000090788               0.999999985               0.000992641               0.000091171               0.999999985               0.001005813               0.000090462               0.999999985               0.001018855               0.000088476               0.999999985               0.001031388               0.000084994               0.999999985               0.001042903               0.000079496               0.999999985               0.001052932               0.000071631               0.999999985               0.001061168               0.000061036               0.999999985               0.001067037               0.000046574               0.999999985               0.001069934               0.000026818               0.999999985               0.000849274               0.000263591               0.999999985               0.000883430               0.000210701               0.999999985               0.000894554               0.000187720               0.999999985               0.000900072               0.000179357               0.999999985               0.000905560               0.000178169               0.999999985               0.000912490               0.000180147               0.999999985               0.000920847               0.000183002               0.999999985               0.000930233               0.000185227               0.999999985               0.000939897               0.000185923               0.999999985               0.000949344               0.000184648               0.999999985               0.000958136               0.000180967               0.999999985               0.000965896               0.000174467               0.999999985               0.000972270               0.000164267               0.999999985               0.000976828               0.000149801               0.999999985               0.000979193               0.000130533               0.999999985               0.000978992               0.000105035               0.999999985               0.000976078               0.000071705               0.999999985               0.000825541               0.000392366               0.999999985               0.000840480               0.000315126               0.999999985               0.000840724               0.000283653               0.999999985               0.000839984               0.000273455               0.999999985               0.000841454               0.000273342               0.999999985               0.000845198               0.000277310               0.999999985               0.000850425               0.000281969               0.999999985               0.000856057               0.000285400               0.999999985               0.000861366               0.000286465               0.999999985               0.000865757               0.000284708               0.999999985               0.000868872               0.000279649               0.999999985               0.000870209               0.000270790               0.999999985               0.000869401               0.000257050               0.999999985               0.000866263               0.000237902               0.999999985               0.000860564               0.000212906               0.999999985               0.000852259               0.000180933               0.999999985               0.000841531               0.000141330               0.999999985               0.000793042               0.000517607               0.999999985               0.000783442               0.000418838               0.999999985               0.000771594               0.000381771               0.999999985               0.000764716               0.000371757               0.999999985               0.000762500               0.000373833               0.999999985               0.000763254               0.000380211               0.999999985               0.000765075               0.000386956               0.999999985               0.000766707               0.000391464               0.999999985               0.000767098               0.000392944               0.999999985               0.000765743               0.000390835               0.999999985               0.000762214               0.000384861               0.999999985               0.000756113               0.000374120               0.999999985               0.000747109               0.000357835               0.999999985               0.000735095               0.000335668               0.999999985               0.000720177               0.000307420               0.999999985               0.000702511               0.000272888               0.999999985               0.000682717               0.000232435               0.999999985               0.000752281               0.000638283               0.999999985               0.000715115               0.000521987               0.999999985               0.000692116               0.000482330               0.999999985               0.000680568               0.000474140               0.999999985               0.000675908               0.000479011               0.999999985               0.000674341               0.000488028               0.999999985               0.000673165               0.000496498               0.999999985               0.000670642               0.000502087               0.999999985               0.000665766               0.000503812               0.999999985               0.000658069               0.000501547               0.999999985               0.000647091               0.000494677               0.999999985               0.000632546               0.000482400               0.999999985               0.000614222               0.000464260               0.999999985               0.000592238               0.000440324               0.999999985               0.000567198               0.000410739               0.999999985               0.000539650               0.000376334               0.999999985               0.000510463               0.000338209               0.999999985               0.000704061               0.000753216               0.999999985               0.000638890               0.000624645               0.999999985               0.000607403               0.000584983               0.999999985               0.000593650               0.000579444               0.999999985               0.000588201               0.000587243               0.999999985               0.000585143               0.000598576               0.999999985               0.000581115               0.000608501               0.999999985               0.000574267               0.000614755               0.999999985               0.000563699               0.000616749               0.999999985               0.000548888               0.000613938               0.999999985               0.000529569               0.000606064               0.999999985               0.000505562               0.000592191               0.999999985               0.000477177               0.000572365               0.999999985               0.000444914               0.000547355               0.999999985               0.000409608               0.000517888               0.999999985               0.000372157               0.000485162               0.999999985               0.000333620               0.000450575               0.999999985               0.000649509               0.000861067               0.999999985               0.000558553               0.000726480               0.999999985               0.000522364               0.000688615               0.999999985               0.000509246               0.000685762               0.999999985               0.000504357               0.000696052               0.999999985               0.000500304               0.000709198               0.999999985               0.000493284               0.000720180               0.999999985               0.000481533               0.000727001               0.999999985               0.000464351               0.000728832               0.999999985               0.000441451               0.000725124               0.999999985               0.000412781               0.000715705               0.999999985               0.000378569               0.000700156               0.999999985               0.000339527               0.000679025               0.999999985               0.000296435               0.000653794               0.999999985               0.000250475               0.000625556               0.999999985               0.000202852               0.000595436               0.999999985               0.000154579               0.000564506               0.999999985               0.000590300               0.000959967               0.999999985               0.000476835               0.000827434               0.999999985               0.000441373               0.000791613               0.999999985               0.000431005               0.000790929               0.999999985               0.000427480               0.000803054               0.999999985               0.000422243               0.000817568               0.999999985               0.000411570               0.000829326               0.999999985               0.000394077               0.000836358               0.999999985               0.000369311               0.000837516               0.999999985               0.000337161               0.000832461               0.999999985               0.000298073               0.000821112               0.999999985               0.000252464               0.000804151               0.999999985               0.000201410               0.000782809               0.999999985               0.000146575               0.000758677               0.999999985               0.000089565               0.000732939               0.999999985               0.000031680               0.000706429               0.999999985              -0.000026413               0.000679821               0.999999985               0.000529079               0.001053752               0.999999985               0.000408430               0.000940575               0.999999985               0.000370135               0.000900788               0.999999985               0.000359228               0.000894875               0.999999985               0.000356410               0.000903547               0.999999985               0.000353150               0.000917321               0.999999985               0.000345230               0.000931122               0.999999985               0.000331277               0.000942099               0.999999985               0.000310714               0.000948980               0.999999985               0.000283181               0.000950940               0.999999985               0.000248718               0.000947914               0.999999985               0.000207648               0.000940169               0.999999985               0.000160382               0.000928350               0.999999985               0.000108077               0.000913462               0.999999985               0.000052321               0.000896863               0.999999985              -0.000005756               0.000879279               0.999999985              -0.000064650               0.000861612               0.999999985               0.000462413               0.001139432               0.999999985               0.000342828               0.001050216               0.999999985               0.000301945               0.001012951               0.999999985               0.000289510               0.001004308               0.999999985               0.000286531               0.001010644               0.999999985               0.000284277               0.001023873               0.999999985               0.000278670               0.001039146               0.999999985               0.000268007               0.001053603               0.999999985               0.000251366               0.001065526               0.999999985               0.000228159               0.001073975               0.999999985               0.000198448               0.001078425               0.999999985               0.000162252               0.001078908               0.999999985               0.000119350               0.001075795               0.999999985               0.000070422               0.001069731               0.999999985               0.000016606               0.001061542               0.999999985              -0.000040957               0.001052232               0.999999985              -0.000100697               0.001042713               0.999999985               0.000391601               0.001214881               0.999999985               0.000280103               0.001153092               0.999999985               0.000238581               0.001122918               0.999999985               0.000224347               0.001114978               0.999999985               0.000220392               0.001120773               0.999999985               0.000218400               0.001134154               0.999999985               0.000214340               0.001151007               0.999999985               0.000206398               0.001168749               0.999999985               0.000193299               0.001185449               0.999999985               0.000174388               0.001199905               0.999999985               0.000149431               0.001211471               0.999999985               0.000118158               0.001219888               0.999999985               0.000080274               0.001225084               0.999999985               0.000035620               0.001227550               0.999999985              -0.000015285               0.001227718               0.999999985              -0.000071760               0.001226297               0.999999985              -0.000132704               0.001224299               0.999999985               0.000317427               0.001278502               0.999999985               0.000220394               0.001244763               0.999999985               0.000180900               0.001225169               0.999999985               0.000165713               0.001220812               0.999999985               0.000160700               0.001227995               0.999999985               0.000158425               0.001242690               0.999999985               0.000155252               0.001261827               0.999999985               0.000149257               0.001282870               0.999999985               0.000139382               0.001304154               0.999999985               0.000124653               0.001324440               0.999999985               0.000104435               0.001342897               0.999999985               0.000078480               0.001359098               0.999999985               0.000046195               0.001372855               0.999999985               0.000006993               0.001384064               0.999999985              -0.000039483               0.001393013               0.999999985              -0.000093368               0.001400085               0.999999985              -0.000154714               0.001405854               0.999999985               0.000240528               0.001329284               0.999999985               0.000163142               0.001321153               0.999999985               0.000129148               0.001313531               0.999999985               0.000114746               0.001314622               0.999999985               0.000109254               0.001324631               0.999999985               0.000106808               0.001341553               0.999999985               0.000104100               0.001363298               0.999999985               0.000099773               0.001387791               0.999999985               0.000092699               0.001413519               0.999999985               0.000081842               0.001439475               0.999999985               0.000066458               0.001464695               0.999999985               0.000046207               0.001488582               0.999999985               0.000020453               0.001510813               0.999999985              -0.000011587               0.001530978               0.999999985              -0.000050957               0.001548956               0.999999985              -0.000098936               0.001564799               0.999999985              -0.000156517               0.001578857               0.999999985               0.000161566               0.001366285               0.999999985               0.000107743               0.001378607               0.999999985               0.000082765               0.001381962               0.999999985               0.000071355               0.001388912               0.999999985               0.000066567               0.001402216               0.999999985               0.000064268               0.001421734               0.999999985               0.000062173               0.001445922               0.999999985               0.000059372               0.001473417               0.999999985               0.000054716               0.001503170               0.999999985               0.000047475               0.001534030               0.999999985               0.000037179               0.001565145               0.999999985               0.000023420               0.001595865               0.999999985               0.000005541               0.001625680               0.999999985              -0.000017350               0.001654127               0.999999985              -0.000046502               0.001680761               0.999999985              -0.000083432               0.001705211               0.999999985              -0.000130135               0.001727325               0.999999985               0.000081165               0.001388792               0.999999985               0.000053564               0.001414312               0.999999985               0.000040347               0.001425382               0.999999985               0.000034011               0.001436848               0.999999985               0.000031207               0.001452945               0.999999985               0.000029739               0.001474435               0.999999985               0.000028625               0.001500424               0.999999985               0.000027099               0.001530020               0.999999985               0.000024774               0.001562400               0.999999985               0.000021277               0.001596602               0.999999985               0.000016174               0.001631833               0.999999985               0.000009228               0.001667485               0.999999985               0.000000068               0.001702897               0.999999985              -0.000011932               0.001737626               0.999999985              -0.000027511               0.001771129               0.999999985              -0.000047884               0.001802601               0.999999985              -0.000074684               0.001831158               0.999999985              -0.000000000               0.001396345               0.999999985               0.000000000               0.001426399               0.999999985               0.000000000               0.001440232               0.999999985               0.000000000               0.001453442               0.999999985               0.000000000               0.001470721               0.999999985              -0.000000000               0.001492954               0.999999985               0.000000000               0.001519516               0.999999985               0.000000000               0.001549768               0.999999985               0.000000000               0.001582917               0.999999985               0.000000000               0.001618343               0.999999985               0.000000000               0.001655170               0.999999985               0.000000000               0.001692541               0.999999985               0.000000000               0.001730143               0.999999985               0.000000000               0.001767486               0.999999985              -0.000000000               0.001803757               0.999999985              -0.000000000               0.001838058               0.999999985               0.000000000               0.001869202               0.999999985 </DataArray>
<DataArray type="Float64"                                    Name="stress"                                                      NumberOfComponents="10" format="ascii">
              0.002262571               0.024067264               0.000000000              -0.002159938               0.008742321               0.006582382               0.000000000               0.000000000               0.000000000               0.000000000               0.002181500               0.018529674              -0.000000000              -0.001498143               0.006675877               0.005177734               0.000000000               0.000000000               0.000000000               0.000000000               0.002796612               0.014037522               0.000000000              -0.000705959               0.004914447               0.004208488               0.000000000               0.000000000               0.000000000               0.000000000               0.002571776               0.011518711               0.000000000              -0.000475422               0.003998006               0.003522584               0.000000000               0.000000000               0.000000000               0.000000000               0.002109945               0.009932362              -0.000000000              -0.000450315               0.003460859               0.003010544               0.000000000               0.000000000               0.000000000               0.000000000               0.001621937               0.008822595              -0.000000000              -0.000494597               0.003105701               0.002611104               0.000000000               0.000000000               0.000000000               0.000000000               0.001187836               0.007963116               0.000000000              -0.000549950               0.002837662               0.002287712               0.000000000               0.000000000               0.000000000               0.000000000               0.000826971               0.007245331              -0.000000000              -0.000595551               0.002613603               0.002018052               0.000000000               0.000000000               0.000000000               0.000000000               0.000532922               0.006599599              -0.000000000              -0.000625103               0.002408212               0.001783109               0.000000000               0.000000000               0.000000000               0.000000000               0.000301809               0.005988535               0.000000000              -0.000635387               0.002207954               0.001572567               0.000000000               0.000000000               0.000000000               0.000000000               0.000128193               0.005393907              -0.000000000              -0.000626165               0.002006673               0.001380508               0.000000000               0.000000000               0.000000000               0.000000000               0.000006131               0.004799387               0.000000000              -0.000597623               0.001798987               0.001201364               0.000000000               0.000000000               0.000000000               0.000000000              -0.000073112               0.004181725               0.000000000              -0.000550131               0.001577271               0.001027140               0.000000000               0.000000000               0.000000000               0.000000000              -0.000118752               0.003525311              -0.000000000              -0.000485195               0.001336824               0.000851629               0.000000000               0.000000000               0.000000000               0.000000000              -0.000121994               0.002818107               0.000000000              -0.000398010               0.001072030               0.000674019               0.000000000               0.000000000               0.000000000               0.000000000              -0.000072135               0.002026439               0.000000000              -0.000280355               0.000768925               0.000488570               0.000000000               0.000000000               0.000000000               0.000000000              -0.000100625               0.001415398               0.000000000              -0.000214659               0.000543347               0.000328689               0.000000000               0.000000000               0.000000000               0.000000000               0.002329138               0.023551041              -0.001598674              -0.002070449               0.008540418               0.006469969               0.000000000               0.000000000               0.000000000               0.000000000               0.002115107               0.018201303              -0.000729088              -0.001481994               0.006561038               0.005079044               0.000000000               0.000000000               0.000000000               0.000000000               0.002590645               0.013909024               0.000131374              -0.000767134               0.004892006               0.004124872               0.000000000               0.000000000               0.000000000               0.000000000               0.002316518               0.011491867               0.000486228              -0.000567788               0.004019847               0.003452059               0.000000000               0.000000000               0.000000000               0.000000000               0.001851013               0.009958867               0.000621938              -0.000550727               0.003503165               0.002952438               0.000000000               0.000000000               0.000000000               0.000000000               0.001380312               0.008873562               0.000659153              -0.000591577               0.003155017               0.002563439               0.000000000               0.000000000               0.000000000               0.000000000               0.000968108               0.008026900               0.000653219              -0.000640320               0.002889047               0.002248726               0.000000000               0.000000000               0.000000000               0.000000000               0.000629708               0.007308644               0.000629095              -0.000677439               0.002662003               0.001984565               0.000000000               0.000000000               0.000000000               0.000000000               0.000363886               0.006661359               0.000598205              -0.000696211               0.002452501               0.001756290               0.000000000               0.000000000               0.000000000               0.000000000               0.000160957               0.006055018               0.000567567              -0.000696517               0.002250492               0.001553975               0.000000000               0.000000000               0.000000000               0.000000000               0.000009242               0.005468697               0.000537355              -0.000680120               0.002049587               0.001369467               0.000000000               0.000000000               0.000000000               0.000000000              -0.000093702               0.004886996               0.000498802              -0.000646011               0.001844319               0.001198308               0.000000000               0.000000000               0.000000000               0.000000000              -0.000149778               0.004291634               0.000448629              -0.000592620               0.001628070               0.001035451               0.000000000               0.000000000               0.000000000               0.000000000              -0.000170867               0.003668697               0.000389758              -0.000522661               0.001397107               0.000874446               0.000000000               0.000000000               0.000000000               0.000000000              -0.000152999               0.003009714               0.000306469              -0.000433588               0.001147757               0.000714169               0.000000000               0.000000000               0.000000000               0.000000000              -0.000088039               0.002295937               0.000177343              -0.000320006               0.000871973               0.000551967               0.000000000               0.000000000               0.000000000               0.000000000              -0.000101851               0.001761641               0.000110006              -0.000258399               0.000673341               0.000414942               0.000000000               0.000000000               0.000000000               0.000000000               0.002483398               0.022079182              -0.002963030              -0.001828620               0.007969193               0.006140573               0.000000000               0.000000000               0.000000000               0.000000000               0.001910670               0.017274140              -0.001347904              -0.001442763               0.006238910               0.004796147               0.000000000               0.000000000               0.000000000               0.000000000               0.002005761               0.013544349               0.000235548              -0.000940881               0.004828365               0.003887484               0.000000000               0.000000000               0.000000000               0.000000000               0.001601083               0.011407321               0.000865287              -0.000825507               0.004077571               0.003252064               0.000000000               0.000000000               0.000000000               0.000000000               0.001127954               0.010015928               0.001092850              -0.000829006               0.003614945               0.002785938               0.000000000               0.000000000               0.000000000               0.000000000               0.000708684               0.008996770               0.001145407              -0.000858838               0.003285173               0.002426334               0.000000000               0.000000000               0.000000000               0.000000000               0.000369744               0.008175335               0.001122461              -0.000883261               0.003019505               0.002136244               0.000000000               0.000000000               0.000000000               0.000000000               0.000112156               0.007462439               0.001071120              -0.000890745               0.002784370               0.001893625               0.000000000               0.000000000               0.000000000               0.000000000              -0.000072839               0.006818035               0.001013668              -0.000879567               0.002565845               0.001686277               0.000000000               0.000000000               0.000000000               0.000000000              -0.000203350               0.006221665               0.000956297              -0.000853963               0.002358522               0.001504559               0.000000000               0.000000000               0.000000000               0.000000000              -0.000287866               0.005657148               0.000896220              -0.000815092               0.002157394               0.001342303               0.000000000               0.000000000               0.000000000               0.000000000              -0.000331534               0.005110292               0.000821715              -0.000763110               0.001957784               0.001194673               0.000000000               0.000000000               0.000000000               0.000000000              -0.000335931               0.004568472               0.000727747              -0.000697031               0.001755152               0.001058121               0.000000000               0.000000000               0.000000000               0.000000000              -0.000301571               0.004028293               0.000618372              -0.000616625               0.001548292               0.000931668               0.000000000               0.000000000               0.000000000               0.000000000              -0.000228736               0.003489925               0.000472938              -0.000522015               0.001337302               0.000815286               0.000000000               0.000000000               0.000000000               0.000000000              -0.000122922               0.002956647               0.000266361              -0.000415676               0.001124098               0.000708422               0.000000000               0.000000000               0.000000000               0.000000000              -0.000101688               0.002590928               0.000160154              -0.000361998               0.000984300               0.000622302               0.000000000               0.000000000               0.000000000               0.000000000               0.002609561               0.019854909              -0.003907147              -0.001503277               0.007119329               0.005616052               0.000000000               0.000000000               0.000000000               0.000000000               0.001540123               0.015895787              -0.001777004              -0.001409424               0.005768351               0.004358926               0.000000000               0.000000000               0.000000000               0.000000000               0.001109924               0.013002882               0.000278770              -0.001209136               0.004737296               0.003528160               0.000000000               0.000000000               0.000000000               0.000000000               0.000562605               0.011262712               0.001049738              -0.001196859               0.004153153               0.002956294               0.000000000               0.000000000               0.000000000               0.000000000               0.000112539               0.010056537               0.001308221              -0.001214862               0.003757099               0.002542237               0.000000000               0.000000000               0.000000000               0.000000000              -0.000214314               0.009117508               0.001351384              -0.001220054               0.003445823               0.002225770               0.000000000               0.000000000               0.000000000               0.000000000              -0.000430850               0.008327600               0.001307068              -0.001202516               0.003176678               0.001974161               0.000000000               0.000000000               0.000000000               0.000000000              -0.000562580               0.007626134               0.001232689              -0.001164232               0.002930096               0.001765864               0.000000000               0.000000000               0.000000000               0.000000000              -0.000633283               0.006993899               0.001154594              -0.001111716               0.002701848               0.001590132               0.000000000               0.000000000               0.000000000               0.000000000              -0.000662118               0.006415568               0.001078531              -0.001050238               0.002488580               0.001438343               0.000000000               0.000000000               0.000000000               0.000000000              -0.000650455               0.005883334               0.000997719              -0.000979335               0.002287537               0.001308201               0.000000000               0.000000000               0.000000000               0.000000000              -0.000599877               0.005382537               0.000897865              -0.000897769               0.002093417               0.001195648               0.000000000               0.000000000               0.000000000               0.000000000              -0.000522064               0.004907903               0.000776472              -0.000809260               0.001905704               0.001096444               0.000000000               0.000000000               0.000000000               0.000000000              -0.000419286               0.004463018               0.000639848              -0.000715108               0.001726027               0.001010919               0.000000000               0.000000000               0.000000000               0.000000000              -0.000291396               0.004056004               0.000469695              -0.000616273               0.001557412               0.000941139               0.000000000               0.000000000               0.000000000               0.000000000              -0.000149369               0.003706476               0.000252817              -0.000519322               0.001408587               0.000889265               0.000000000               0.000000000               0.000000000               0.000000000              -0.000098014               0.003499815               0.000144632              -0.000474231               0.001324670               0.000850439               0.000000000               0.000000000               0.000000000               0.000000000               0.002557453               0.017153321              -0.004342354              -0.001185120               0.006112756               0.004927635               0.000000000               0.000000000               0.000000000               0.000000000               0.000974476               0.014256355              -0.001996433              -0.001416614               0.005224275               0.003807661               0.000000000               0.000000000               0.000000000               0.000000000               0.000004398               0.012361043               0.000227696              -0.001543477               0.004634799               0.003091322               0.000000000               0.000000000               0.000000000               0.000000000              -0.000625365               0.011052758               0.001003352              -0.001616103               0.004222917               0.002606814               0.000000000               0.000000000               0.000000000               0.000000000              -0.000989671               0.010029697               0.001239164              -0.001624835               0.003884811               0.002259976               0.000000000               0.000000000               0.000000000               0.000000000              -0.001168517               0.009168248               0.001262125              -0.001584221               0.003584126               0.001999904               0.000000000               0.000000000               0.000000000               0.000000000              -0.001227124               0.008409111               0.001202117              -0.001511307               0.003306778               0.001795471               0.000000000               0.000000000               0.000000000               0.000000000              -0.001209985               0.007727876               0.001117776              -0.001419726               0.003049174               0.001629449               0.000000000               0.000000000               0.000000000               0.000000000              -0.001147568               0.007117180               0.001037917              -0.001319983               0.002812364               0.001492381               0.000000000               0.000000000               0.000000000               0.000000000              -0.001058045               0.006569464               0.000962339              -0.001217947               0.002595782               0.001377835               0.000000000               0.000000000               0.000000000               0.000000000              -0.000942399               0.006071188               0.000879175              -0.001112296               0.002394474               0.001282178               0.000000000               0.000000000               0.000000000               0.000000000              -0.000800269               0.005611958               0.000775097              -0.001001593               0.002204498               0.001202905               0.000000000               0.000000000               0.000000000               0.000000000              -0.000639289               0.005198545               0.000653668              -0.000889549               0.002029347               0.001139798               0.000000000               0.000000000               0.000000000               0.000000000              -0.000474601               0.004835835               0.000519324              -0.000782453               0.001872746               0.001090293               0.000000000               0.000000000               0.000000000               0.000000000              -0.000306670               0.004535628               0.000364616              -0.000681953               0.001739179               0.001057225               0.000000000               0.000000000               0.000000000               0.000000000              -0.000145471               0.004323732               0.000189194              -0.000595017               0.001639568               0.001044552               0.000000000               0.000000000               0.000000000               0.000000000              -0.000080795               0.004224185               0.000104211              -0.000558320               0.001594154               0.001035834               0.000000000               0.000000000               0.000000000               0.000000000               0.002194164               0.014249175              -0.004283619              -0.000958337               0.005069122               0.004110785               0.000000000               0.000000000               0.000000000               0.000000000               0.000215330               0.012532173              -0.002039717              -0.001485770               0.004672606               0.003186835               0.000000000               0.000000000               0.000000000               0.000000000              -0.001181927               0.011668083               0.000056231              -0.001901728               0.004523232               0.002621503               0.000000000               0.000000000               0.000000000               0.000000000              -0.001785445               0.010757031               0.000734397              -0.002014166               0.004257030               0.002242864               0.000000000               0.000000000               0.000000000               0.000000000              -0.001987631               0.009896116               0.000924465              -0.001982371               0.003959463               0.001977091               0.000000000               0.000000000               0.000000000               0.000000000              -0.001977693               0.009102998               0.000933233              -0.001879505               0.003660804               0.001781299               0.000000000               0.000000000               0.000000000               0.000000000              -0.001857780               0.008375142               0.000877691              -0.001743556               0.003372871               0.001629315               0.000000000               0.000000000               0.000000000               0.000000000              -0.001683156               0.007723149               0.000808522              -0.001596573               0.003106548               0.001509975               0.000000000               0.000000000               0.000000000               0.000000000              -0.001487543               0.007144129               0.000747833              -0.001450841               0.002864966               0.001414125               0.000000000               0.000000000               0.000000000               0.000000000              -0.001285283               0.006624187               0.000693358              -0.001310001               0.002644707               0.001334706               0.000000000               0.000000000               0.000000000               0.000000000              -0.001074346               0.006152595               0.000626345              -0.001171951               0.002441495               0.001269544               0.000000000               0.000000000               0.000000000               0.000000000              -0.000856607               0.005725512               0.000541036              -0.001036914               0.002254123               0.001217209               0.000000000               0.000000000               0.000000000               0.000000000              -0.000635166               0.005356944               0.000444495              -0.000907803               0.002088231               0.001180428               0.000000000               0.000000000               0.000000000               0.000000000              -0.000432630               0.005056679               0.000337251              -0.000794319               0.001950316               0.001155997               0.000000000               0.000000000               0.000000000               0.000000000              -0.000256400               0.004835047               0.000222576              -0.000700529               0.001845176               0.001144647               0.000000000               0.000000000               0.000000000               0.000000000              -0.000111170               0.004705064               0.000109949              -0.000629820               0.001778279               0.001148459               0.000000000               0.000000000               0.000000000               0.000000000              -0.000053860               0.004659335               0.000057652              -0.000602613               0.001753967               0.001151354               0.000000000               0.000000000               0.000000000               0.000000000               0.001464459               0.011375730              -0.003822661              -0.000872795               0.004082803               0.003210008               0.000000000               0.000000000               0.000000000               0.000000000              -0.000683830               0.010851502              -0.001969724              -0.001612871               0.004154754               0.002541883               0.000000000               0.000000000               0.000000000               0.000000000              -0.002311058               0.010933895              -0.000246088              -0.002233378               0.004389054               0.002155676               0.000000000               0.000000000               0.000000000               0.000000000              -0.002764435               0.010349910               0.000285926              -0.002330396               0.004226734               0.001896338               0.000000000               0.000000000               0.000000000               0.000000000              -0.002744887               0.009623286               0.000442106              -0.002232238               0.003951809               0.001719571               0.000000000               0.000000000               0.000000000               0.000000000              -0.002523995               0.008894406               0.000462562              -0.002058294               0.003650870               0.001592576               0.000000000               0.000000000               0.000000000               0.000000000              -0.002227805               0.008211808               0.000437571              -0.001861898               0.003357875               0.001495976               0.000000000               0.000000000               0.000000000               0.000000000              -0.001913072               0.007599202               0.000407830              -0.001667298               0.003088808               0.001421510               0.000000000               0.000000000               0.000000000               0.000000000              -0.001605351               0.007051621               0.000384296              -0.001483456               0.002845002               0.001361546               0.000000000               0.000000000               0.000000000               0.000000000              -0.001313792               0.006550248               0.000364624              -0.001311450               0.002620544               0.001309094               0.000000000               0.000000000               0.000000000               0.000000000              -0.001032239               0.006096065               0.000329770              -0.001149095               0.002415033               0.001265938               0.000000000               0.000000000               0.000000000               0.000000000              -0.000767334               0.005694037               0.000274581              -0.000999502               0.002231161               0.001231659               0.000000000               0.000000000               0.000000000               0.000000000              -0.000525068               0.005362013               0.000215564              -0.000867150               0.002076370               0.001209220               0.000000000               0.000000000               0.000000000               0.000000000              -0.000318075               0.005114578               0.000153643              -0.000758599               0.001957709               0.001199110               0.000000000               0.000000000               0.000000000               0.000000000              -0.000159744               0.004952394               0.000090801              -0.000678952               0.001877099               0.001198147               0.000000000               0.000000000               0.000000000               0.000000000              -0.000057751               0.004863997               0.000039445              -0.000629655               0.001831201               0.001201546               0.000000000               0.000000000               0.000000000               0.000000000              -0.000026642               0.004833062               0.000019782              -0.000614122               0.001815712               0.001201590               0.000000000               0.000000000               0.000000000               0.000000000               0.000403850               0.008725394              -0.003073639              -0.000939231               0.003221511               0.002282281               0.000000000               0.000000000               0.000000000               0.000000000              -0.001667164               0.009314337              -0.001842330              -0.001789475               0.003701239               0.001911764               0.000000000               0.000000000               0.000000000               0.000000000              -0.003267628               0.010158701              -0.000664262              -0.002495192               0.004217930               0.001722738               0.000000000               0.000000000               0.000000000               0.000000000              -0.003461220               0.009827949              -0.000268335              -0.002526445               0.004118098               0.001591653               0.000000000               0.000000000               0.000000000               0.000000000              -0.003195694               0.009217140              -0.000108461              -0.002350522               0.003855857               0.001505335               0.000000000               0.000000000               0.000000000               0.000000000              -0.002776926               0.008559367              -0.000043695              -0.002111263               0.003556848               0.001445585               0.000000000               0.000000000               0.000000000               0.000000000              -0.002328760               0.007934002              -0.000013408              -0.001865030               0.003266318               0.001401287               0.000000000               0.000000000               0.000000000               0.000000000              -0.001901839               0.007365787               0.000009052              -0.001633909               0.002999874               0.001365965               0.000000000               0.000000000               0.000000000               0.000000000              -0.001515806               0.006839615               0.000031279              -0.001423376               0.002754308               0.001330932               0.000000000               0.000000000               0.000000000               0.000000000              -0.001169583               0.006352881               0.000051305              -0.001232701               0.002528506               0.001295805               0.000000000               0.000000000               0.000000000               0.000000000              -0.000854985               0.005913018               0.000057838              -0.001059744               0.002324234               0.001264490               0.000000000               0.000000000               0.000000000               0.000000000              -0.000577949               0.005546866               0.000046634              -0.000910087               0.002152299               0.001242212               0.000000000               0.000000000               0.000000000               0.000000000              -0.000348590               0.005271208               0.000036327              -0.000789620               0.002020259               0.001230638               0.000000000               0.000000000               0.000000000               0.000000000              -0.000172982               0.005085455               0.000027195              -0.000700548               0.001928651               0.001228102               0.000000000               0.000000000               0.000000000               0.000000000              -0.000061502               0.004975083               0.000013236              -0.000644947               0.001873327               0.001228380               0.000000000               0.000000000               0.000000000               0.000000000              -0.000010892               0.004918065               0.000003157              -0.000618841               0.001845619               0.001226778               0.000000000               0.000000000               0.000000000               0.000000000              -0.000004505               0.004897007               0.000002397              -0.000613814               0.001836924               0.001223110               0.000000000               0.000000000               0.000000000               0.000000000              -0.000852418               0.006498686              -0.002165315              -0.001131991               0.002543537               0.001411546               0.000000000               0.000000000               0.000000000               0.000000000              -0.002626909               0.007938829              -0.001703399              -0.001977440               0.003305396               0.001327956               0.000000000               0.000000000               0.000000000               0.000000000              -0.004013568               0.009372454              -0.001163879              -0.002676638               0.004016333               0.001339694               0.000000000               0.000000000               0.000000000               0.000000000              -0.003928561               0.009308918              -0.000857043              -0.002636819               0.003981881               0.001345062               0.000000000               0.000000000               0.000000000               0.000000000              -0.003454624               0.008846646              -0.000662334              -0.002401309               0.003749289               0.001347980               0.000000000               0.000000000               0.000000000               0.000000000              -0.002881053               0.008282815              -0.000530505              -0.002115742               0.003466158               0.001350416               0.000000000               0.000000000               0.000000000               0.000000000              -0.002323234               0.007723519              -0.000435191              -0.001836648               0.003186697               0.001350048               0.000000000               0.000000000               0.000000000               0.000000000              -0.001816922               0.007192823              -0.000359741              -0.001580445               0.002924399               0.001343954               0.000000000               0.000000000               0.000000000               0.000000000              -0.001369049               0.006690183              -0.000294133              -0.001349663               0.002679926               0.001330263               0.000000000               0.000000000               0.000000000               0.000000000              -0.000984480               0.006217884              -0.000233704              -0.001146413               0.002454745               0.001308332               0.000000000               0.000000000               0.000000000               0.000000000              -0.000655444               0.005797847              -0.000179063              -0.000970520               0.002256103               0.001285583               0.000000000               0.000000000               0.000000000               0.000000000              -0.000378143               0.005464808              -0.000129702              -0.000824903               0.002096552               0.001271649               0.000000000               0.000000000               0.000000000               0.000000000              -0.000172452               0.005228241              -0.000083314              -0.000718198               0.001982129               0.001263931               0.000000000               0.000000000               0.000000000               0.000000000              -0.000043046               0.005077145              -0.000045180              -0.000650784               0.001909293               0.001258509               0.000000000               0.000000000               0.000000000               0.000000000               0.000018505               0.004992875              -0.000021434              -0.000617169               0.001869998               0.001252829               0.000000000               0.000000000               0.000000000               0.000000000               0.000029288               0.004957720              -0.000006905              -0.000608731               0.001855467               0.001246736               0.000000000               0.000000000               0.000000000               0.000000000               0.000023400               0.004952949              -0.000000973              -0.000610342               0.001854414               0.001244072               0.000000000               0.000000000               0.000000000               0.000000000              -0.002303148               0.004438560              -0.001219023              -0.001418497               0.001952337               0.000533840               0.000000000               0.000000000               0.000000000               0.000000000              -0.003427689               0.006336314              -0.001551982              -0.002077418               0.002804556               0.000727138               0.000000000               0.000000000               0.000000000               0.000000000              -0.004451905               0.008195429              -0.001687232              -0.002693887               0.003629744               0.000935857               0.000000000               0.000000000               0.000000000               0.000000000              -0.004220530               0.008535006              -0.001476366              -0.002649568               0.003728163               0.001078594               0.000000000               0.000000000               0.000000000               0.000000000              -0.003666749               0.008358121              -0.001248301              -0.002419790               0.003592609               0.001172819               0.000000000               0.000000000               0.000000000               0.000000000              -0.003043761               0.007999581              -0.001047596              -0.002141353               0.003380284               0.001238932               0.000000000               0.000000000               0.000000000               0.000000000              -0.002445033               0.007578771              -0.000886016              -0.001864229               0.003147641               0.001283412               0.000000000               0.000000000               0.000000000               0.000000000              -0.001903311               0.007141738              -0.000757882              -0.001606455               0.002916041               0.001309586               0.000000000               0.000000000               0.000000000               0.000000000              -0.001426730               0.006706847              -0.000645356              -0.001373376               0.002693385               0.001320009               0.000000000               0.000000000               0.000000000               0.000000000              -0.001017962               0.006285523              -0.000539501              -0.001167423               0.002484295               0.001316871               0.000000000               0.000000000               0.000000000               0.000000000              -0.000669615               0.005903511              -0.000438458              -0.000989042               0.002297498               0.001308456               0.000000000               0.000000000               0.000000000               0.000000000              -0.000377604               0.005580372              -0.000336307              -0.000839146               0.002139820               0.001300675               0.000000000               0.000000000               0.000000000               0.000000000              -0.000154499               0.005328194              -0.000235469              -0.000723960               0.002017367               0.001293407               0.000000000               0.000000000               0.000000000               0.000000000              -0.000004988               0.005157616              -0.000148153              -0.000646571               0.001934712               0.001288141               0.000000000               0.000000000               0.000000000               0.000000000               0.000072949               0.005053450              -0.000075657              -0.000604324               0.001885908               0.001281584               0.000000000               0.000000000               0.000000000               0.000000000               0.000093084               0.005007771              -0.000023857              -0.000591063               0.001866262               0.001275198               0.000000000               0.000000000               0.000000000               0.000000000               0.000087366               0.005000992              -0.000004164              -0.000592360               0.001864434               0.001272074               0.000000000               0.000000000               0.000000000               0.000000000              -0.004144936               0.002577270              -0.000304377              -0.001876506               0.001484582              -0.000391924               0.000000000               0.000000000               0.000000000               0.000000000              -0.004326710               0.004719599              -0.001337498              -0.002212461               0.002310670               0.000098209               0.000000000               0.000000000               0.000000000               0.000000000              -0.004793031               0.006802774              -0.002107377              -0.002647727               0.003150144               0.000502417               0.000000000               0.000000000               0.000000000               0.000000000              -0.004438123               0.007525060              -0.002061035              -0.002604923               0.003376635               0.000771713               0.000000000               0.000000000               0.000000000               0.000000000              -0.003848674               0.007675851              -0.001838543              -0.002402729               0.003359501               0.000956772               0.000000000               0.000000000               0.000000000               0.000000000              -0.003214101               0.007562905              -0.001595460              -0.002150646               0.003237825               0.001087179               0.000000000               0.000000000               0.000000000               0.000000000              -0.002598850               0.007324276              -0.001382900              -0.001890099               0.003071434               0.001181335               0.000000000               0.000000000               0.000000000               0.000000000              -0.002030938               0.007027806              -0.001206895              -0.001640074               0.002889270               0.001249196               0.000000000               0.000000000               0.000000000               0.000000000              -0.001526307               0.006698137              -0.001048971              -0.001409629               0.002702566               0.001292937               0.000000000               0.000000000               0.000000000               0.000000000              -0.001085225               0.006355603              -0.000904331              -0.001201407               0.002518982               0.001317575               0.000000000               0.000000000               0.000000000               0.000000000              -0.000701452               0.006022896              -0.000768344              -0.001015904               0.002346247               0.001330343               0.000000000               0.000000000               0.000000000               0.000000000              -0.000372134               0.005721341              -0.000625320              -0.000854716               0.002192000               0.001337284               0.000000000               0.000000000               0.000000000               0.000000000              -0.000102970               0.005466442              -0.000475626              -0.000721917               0.002062768               0.001340851               0.000000000               0.000000000               0.000000000               0.000000000               0.000091327               0.005267720              -0.000333172              -0.000624216               0.001963961               0.001339745               0.000000000               0.000000000               0.000000000               0.000000000               0.000202743               0.005123851              -0.000199382              -0.000564451               0.001896084               0.001331632               0.000000000               0.000000000               0.000000000               0.000000000               0.000239252               0.005043200              -0.000084221              -0.000540679               0.001861276               0.001320597               0.000000000               0.000000000               0.000000000               0.000000000               0.000226189               0.005011033              -0.000029309              -0.000541557               0.001850846               0.001309290               0.000000000               0.000000000               0.000000000               0.000000000              -0.006251534               0.001052375               0.000497329              -0.002475869               0.001176074              -0.001299796               0.000000000               0.000000000               0.000000000               0.000000000              -0.005366731               0.003185816              -0.001044016              -0.002410747               0.001865508              -0.000545239               0.000000000               0.000000000               0.000000000               0.000000000              -0.005067884               0.005210454              -0.002309331              -0.002551758               0.002587385               0.000035627               0.000000000               0.000000000               0.000000000               0.000000000              -0.004501744               0.006201260              -0.002462607              -0.002463306               0.002888167               0.000424861               0.000000000               0.000000000               0.000000000               0.000000000              -0.003863295               0.006649132              -0.002300475              -0.002279872               0.002976312               0.000696440               0.000000000               0.000000000               0.000000000               0.000000000              -0.003224037               0.006796533              -0.002060227              -0.002058576               0.002951680               0.000893104               0.000000000               0.000000000               0.000000000               0.000000000              -0.002612484               0.006778827              -0.001828809              -0.001827031               0.002868596               0.001041565               0.000000000               0.000000000               0.000000000               0.000000000              -0.002044130               0.006657051              -0.001623035              -0.001598677               0.002751887               0.001153210               0.000000000               0.000000000               0.000000000               0.000000000              -0.001521704               0.006466662              -0.001437305              -0.001378969               0.002615189               0.001236220               0.000000000               0.000000000               0.000000000               0.000000000              -0.001049255               0.006237367              -0.001267775              -0.001173139               0.002470148               0.001297009               0.000000000               0.000000000               0.000000000               0.000000000              -0.000631111               0.005993780              -0.001106708              -0.000985887               0.002326535               0.001340648               0.000000000               0.000000000               0.000000000               0.000000000              -0.000262887               0.005752810              -0.000940657              -0.000817682               0.002190145               0.001372463               0.000000000               0.000000000               0.000000000               0.000000000               0.000056955               0.005534925              -0.000761710              -0.000670506               0.002068459               0.001397953               0.000000000               0.000000000               0.000000000               0.000000000               0.000309850               0.005347308              -0.000573680              -0.000552218               0.001966491               0.001414273               0.000000000               0.000000000               0.000000000               0.000000000               0.000474133               0.005189708              -0.000380920              -0.000470913               0.001886856               0.001415944               0.000000000               0.000000000               0.000000000               0.000000000               0.000539974               0.005077425              -0.000186952              -0.000432187               0.001836520               0.001404334               0.000000000               0.000000000               0.000000000               0.000000000               0.000528243               0.005023113              -0.000085312              -0.000429797               0.001817620               0.001387823               0.000000000               0.000000000               0.000000000               0.000000000              -0.008473053              -0.000046710               0.001065598              -0.003171554               0.001041607              -0.002129946               0.000000000               0.000000000               0.000000000               0.000000000              -0.006490693               0.001826323              -0.000715337              -0.002662297               0.001496196              -0.001166100               0.000000000               0.000000000               0.000000000               0.000000000              -0.005304683               0.003555800              -0.002259677              -0.002433727               0.001996495              -0.000437232               0.000000000               0.000000000               0.000000000               0.000000000              -0.004439897               0.004667886              -0.002587699              -0.002248443               0.002305426               0.000056983               0.000000000               0.000000000               0.000000000               0.000000000              -0.003712472               0.005349091              -0.002513793              -0.002060809               0.002469948               0.000409139               0.000000000               0.000000000               0.000000000               0.000000000              -0.003056819               0.005746155              -0.002313032              -0.001864573               0.002536889               0.000672317               0.000000000               0.000000000               0.000000000               0.000000000              -0.002458154               0.005948374              -0.002094871              -0.001665351               0.002537888               0.000872537               0.000000000               0.000000000               0.000000000               0.000000000              -0.001902897               0.006011314              -0.001891900              -0.001464998               0.002492083               0.001027086               0.000000000               0.000000000               0.000000000               0.000000000              -0.001377982               0.005986978              -0.001705083              -0.001265113               0.002417343               0.001152230               0.000000000               0.000000000               0.000000000               0.000000000              -0.000888256               0.005902748              -0.001529249              -0.001070938               0.002324542               0.001253604               0.000000000               0.000000000               0.000000000               0.000000000              -0.000439016               0.005780913              -0.001362331              -0.000887244               0.002222699               0.001335456               0.000000000               0.000000000               0.000000000               0.000000000              -0.000023722               0.005644288              -0.001194099              -0.000714431               0.002119554               0.001405123               0.000000000               0.000000000               0.000000000               0.000000000               0.000356245               0.005501861              -0.001009805              -0.000554140               0.002018649               0.001464509               0.000000000               0.000000000               0.000000000               0.000000000               0.000689365               0.005361054              -0.000801973              -0.000411619               0.001924206               0.001512587               0.000000000               0.000000000               0.000000000               0.000000000               0.000949760               0.005229001              -0.000566280              -0.000297464               0.001842138               0.001544673               0.000000000               0.000000000               0.000000000               0.000000000               0.001106615               0.005109344              -0.000298134              -0.000223687               0.001777660               0.001553973               0.000000000               0.000000000               0.000000000               0.000000000               0.001152832               0.005050715              -0.000155432              -0.000199027               0.001749897               0.001550870               0.000000000               0.000000000               0.000000000               0.000000000              -0.010599536              -0.000730365               0.001295008              -0.003883528               0.001051047              -0.002832481               0.000000000               0.000000000               0.000000000               0.000000000              -0.007604527               0.000723237              -0.000416554              -0.002942099               0.001221770              -0.001720329               0.000000000               0.000000000               0.000000000               0.000000000              -0.005513372               0.002004367              -0.001959010              -0.002318057               0.001440797              -0.000877260               0.000000000               0.000000000               0.000000000               0.000000000              -0.004295951               0.003105826              -0.002378927              -0.001999207               0.001701665              -0.000297542               0.000000000               0.000000000               0.000000000               0.000000000              -0.003445300               0.003937331              -0.002386137              -0.001784150               0.001907146               0.000122996               0.000000000               0.000000000               0.000000000               0.000000000              -0.002760930               0.004531798              -0.002242379              -0.001601821               0.002044524               0.000442703               0.000000000               0.000000000               0.000000000               0.000000000              -0.002169357               0.004926679              -0.002062531              -0.001429341               0.002118656               0.000689315               0.000000000               0.000000000               0.000000000               0.000000000              -0.001626050               0.005173217              -0.001890525              -0.001256418               0.002143194               0.000886775               0.000000000               0.000000000               0.000000000               0.000000000              -0.001113155               0.005321851              -0.001726122              -0.001082663               0.002134820               0.001052157               0.000000000               0.000000000               0.000000000               0.000000000              -0.000621341               0.005394288              -0.001567972              -0.000907287               0.002100507               0.001193220               0.000000000               0.000000000               0.000000000               0.000000000              -0.000143988               0.005410199              -0.001419808              -0.000730269               0.002046804               0.001316535               0.000000000               0.000000000               0.000000000               0.000000000               0.000322941               0.005394781              -0.001272676              -0.000553244               0.001982657               0.001429413               0.000000000               0.000000000               0.000000000               0.000000000               0.000776897               0.005350825              -0.001109434              -0.000377517               0.001909429               0.001531913               0.000000000               0.000000000               0.000000000               0.000000000               0.001209573               0.005281416              -0.000914894              -0.000206587               0.001829317               0.001622729               0.000000000               0.000000000               0.000000000               0.000000000               0.001604408               0.005195931              -0.000670788              -0.000047839               0.001747906               0.001700067               0.000000000               0.000000000               0.000000000               0.000000000               0.001936552               0.005102988              -0.000365660               0.000088332               0.001671535               0.001759867               0.000000000               0.000000000               0.000000000               0.000000000               0.002124202               0.005071914              -0.000205955               0.000162585               0.001636426               0.001799011               0.000000000               0.000000000               0.000000000               0.000000000              -0.012379311              -0.001089437               0.001148027              -0.004506059               0.001138866              -0.003367193               0.000000000               0.000000000               0.000000000               0.000000000              -0.008562000              -0.000076601              -0.000197682              -0.003201172               0.001041517              -0.002159656               0.000000000               0.000000000               0.000000000               0.000000000              -0.005690814               0.000736339              -0.001441338              -0.002226095               0.000987471              -0.001238625               0.000000000               0.000000000               0.000000000               0.000000000              -0.004131878               0.001745287              -0.001830880              -0.001767613               0.001170958              -0.000596655               0.000000000               0.000000000               0.000000000               0.000000000              -0.003144204               0.002650323              -0.001881769              -0.001510364               0.001386885              -0.000123479               0.000000000               0.000000000               0.000000000               0.000000000              -0.002423254               0.003373638              -0.001796213              -0.001330423               0.001568008               0.000237586               0.000000000               0.000000000               0.000000000               0.000000000              -0.001830799               0.003913561              -0.001672655              -0.001175742               0.001696421               0.000520678               0.000000000               0.000000000               0.000000000               0.000000000              -0.001303751               0.004319871              -0.001545855              -0.001028889               0.001782905               0.000754016               0.000000000               0.000000000               0.000000000               0.000000000              -0.000805091               0.004620210              -0.001421408              -0.000879434               0.001833199               0.000953765               0.000000000               0.000000000               0.000000000               0.000000000              -0.000313450               0.004829360              -0.001304454              -0.000721213               0.001850174               0.001128962               0.000000000               0.000000000               0.000000000               0.000000000               0.000183873               0.004973517              -0.001197125              -0.000552736               0.001842068               0.001289331               0.000000000               0.000000000               0.000000000               0.000000000               0.000691558               0.005070217              -0.001091119              -0.000374443               0.001814869               0.001440427               0.000000000               0.000000000               0.000000000               0.000000000               0.001212827               0.005126507              -0.000970146              -0.000186003               0.001770820               0.001584816               0.000000000               0.000000000               0.000000000               0.000000000               0.001748400               0.005145173              -0.000818741               0.000012502               0.001710873               0.001723375               0.000000000               0.000000000               0.000000000               0.000000000               0.002298946               0.005126651              -0.000618327               0.000221271               0.001635110               0.001856381               0.000000000               0.000000000               0.000000000               0.000000000               0.002860732               0.005076759              -0.000346410               0.000438175               0.001546178               0.001984353               0.000000000               0.000000000               0.000000000               0.000000000               0.003250494               0.005084744              -0.000203834               0.000583337               0.001500452               0.002083789               0.000000000               0.000000000               0.000000000               0.000000000              -0.013572020              -0.001239077               0.000671587              -0.004934620               0.001231839              -0.003702780               0.000000000               0.000000000               0.000000000               0.000000000              -0.009214227              -0.000555304              -0.000068914              -0.003385920               0.000943532              -0.002442387               0.000000000               0.000000000               0.000000000               0.000000000              -0.005818823              -0.000094471              -0.000762859              -0.002170248               0.000691921              -0.001478327               0.000000000               0.000000000               0.000000000               0.000000000              -0.004008749               0.000817990              -0.000998370              -0.001605528               0.000807833              -0.000797695               0.000000000               0.000000000               0.000000000               0.000000000              -0.002911836               0.001739474              -0.001043650              -0.001309370               0.001016274              -0.000293096               0.000000000               0.000000000               0.000000000               0.000000000              -0.002151933               0.002526833              -0.001006392              -0.001122826               0.001216544               0.000093718               0.000000000               0.000000000               0.000000000               0.000000000              -0.001555928               0.003157414              -0.000942209              -0.000978148               0.001378510               0.000400362               0.000000000               0.000000000               0.000000000               0.000000000              -0.001038390               0.003667543              -0.000872510              -0.000847837               0.001505114               0.000657277               0.000000000               0.000000000               0.000000000               0.000000000              -0.000548847               0.004073031              -0.000805640              -0.000714945               0.001595978               0.000881033               0.000000000               0.000000000               0.000000000               0.000000000              -0.000061013               0.004384744              -0.000744423              -0.000570972               0.001651890               0.001080919               0.000000000               0.000000000               0.000000000               0.000000000               0.000440368               0.004622484              -0.000688235              -0.000412672               0.001678370               0.001265698               0.000000000               0.000000000               0.000000000               0.000000000               0.000965789               0.004801827              -0.000632927              -0.000238057               0.001679945               0.001441888               0.000000000               0.000000000               0.000000000               0.000000000               0.001529749               0.004938338              -0.000570127              -0.000043637               0.001660642               0.001617005               0.000000000               0.000000000               0.000000000               0.000000000               0.002147155               0.005036157              -0.000490657               0.000175662               0.001620148               0.001795810               0.000000000               0.000000000               0.000000000               0.000000000               0.002831294               0.005081094              -0.000380095               0.000426594               0.001551483               0.001978077               0.000000000               0.000000000               0.000000000               0.000000000               0.003600015               0.005062899              -0.000218018               0.000717136               0.001448571               0.002165707               0.000000000               0.000000000               0.000000000               0.000000000               0.004186366               0.005100940              -0.000133169               0.000932260               0.001389543               0.002321803               0.000000000               0.000000000               0.000000000               0.000000000              -0.013993604              -0.001277751              -0.000000000              -0.005087879               0.001270034              -0.003817845               0.000000000               0.000000000               0.000000000               0.000000000              -0.009446293              -0.000714966              -0.000000000              -0.003452987               0.000912667              -0.002540320               0.000000000               0.000000000               0.000000000               0.000000000              -0.005866318              -0.000383097               0.000000000              -0.002151981               0.000589624              -0.001562357               0.000000000               0.000000000               0.000000000               0.000000000              -0.003963151               0.000491640               0.000000000              -0.001547635               0.000679754              -0.000867881               0.000000000               0.000000000               0.000000000               0.000000000              -0.002825045               0.001409968              -0.000000000              -0.001235636               0.000881862              -0.000353774               0.000000000               0.000000000               0.000000000               0.000000000              -0.002048988               0.002211204               0.000000000              -0.001044769               0.001085316               0.000040548               0.000000000               0.000000000               0.000000000               0.000000000              -0.001452226               0.002870224               0.000000000              -0.000903361               0.001257852               0.000354491               0.000000000               0.000000000               0.000000000               0.000000000              -0.000933293               0.003416063               0.000000000              -0.000776991               0.001397673               0.000620682               0.000000000               0.000000000               0.000000000               0.000000000              -0.000445867               0.003863843               0.000000000              -0.000650179               0.001504661               0.000854482               0.000000000               0.000000000               0.000000000               0.000000000               0.000036985               0.004219793              -0.000000000              -0.000513604               0.001577785               0.001064181               0.000000000               0.000000000               0.000000000               0.000000000               0.000534763               0.004487889              -0.000000000              -0.000360449               0.001616098               0.001255648               0.000000000               0.000000000               0.000000000               0.000000000               0.001065336               0.004698285              -0.000000000              -0.000187784               0.001628674               0.001440890               0.000000000               0.000000000               0.000000000               0.000000000               0.001647627               0.004874327               0.000000000               0.000008569               0.001621903               0.001630472               0.000000000               0.000000000               0.000000000               0.000000000               0.002296655               0.005003489              -0.000000000               0.000235807               0.001589211               0.001825018               0.000000000               0.000000000               0.000000000               0.000000000               0.003031022               0.005068889              -0.000000000               0.000503017               0.001521940               0.002024958               0.000000000               0.000000000               0.000000000               0.000000000               0.003884747               0.005060276               0.000000000               0.000824237               0.001411996               0.002236234               0.000000000               0.000000000               0.000000000               0.000000000               0.004555761               0.005109417               0.000000000               0.001069723               0.001346548               0.002416270               0.000000000               0.000000000               0.000000000               0.000000000               0.000000000               0.000000000               0.000000000               0.000000000               0.000000000               0.000000000               0.000000000               0.000000000               0.000000000               0.000000000               0.000000000               0.000000000               0.000000000               0.000000000               0.000000000               0.000000000               0.000000000               0.000000000               0.000000000               0.000000000               0.000000000               0.000000000               0.000000000               0.000000000               0.000000000               0.000000000               0.000000000               0.000000000               0.000000000               0.000000000               0.000000000               0.000000000               0.000000000               0.000000000               0.000000000               0.000000000               0.000000000               0.000000000               0.000000000               0.000000000               0.000000000               0.000000000               0.000000000               0.000000000               0.000000000               0.000000000               0.000000000               0.000000000               0.000000000               0.000000000               0.000000000               0.000000000               0.000000000               0.000000000               0.000000000               0.000000000               0.000000000               0.000000000               0.000000000               0.000000000               0.000000000               0.000000000               0.000000000               0.000000000               0.000000000               0.000000000               0.000000000               0.000000000               0.000000000               0.000000000               0.000000000               0.000000000               0.000000000               0.000000000               0.000000000               0.000000000               0.000000000               0.000000000               0.000000000               0.000000000               0.000000000               0.000000000               0.000000000               0.000000000               0.000000000               0.000000000               0.000000000               0.000000000               0.000000000               0.000000000               0.000000000               0.000000000               0.000000000               0.000000000               0.000000000               0.000000000               0.000000000               0.000000000               0.000000000               0.000000000               0.000000000               0.000000000               0.000000000               0.000000000               0.000000000               0.000000000               0.000000000               0.000000000               0.000000000               0.000000000               0.000000000               0.000000000               0.000000000               0.000000000               0.000000000               0.000000000               0.000000000               0.000000000               0.000000000               0.000000000               0.000000000               0.000000000               0.000000000               0.000000000               0.000000000               0.000000000               0.000000000               0.000000000               0.000000000               0.000000000               0.000000000               0.000000000               0.000000000               0.000000000               0.000000000               0.000000000               0.000000000               0.000000000               0.000000000               0.000000000               0.000000000               0.000000000               0.000000000               0.000000000               0.000000000               0.000000000               0.000000000               0.000000000               0.000000000               0.000000000               0.000000000               0.000000000               0.000000000               0.000000000               0.000000000               0.000000000               0.000000000               0.000000000               0.000000000               0.000000000               0.000000000               0.000000000               0.000000000               0.000000000               0.000000000               0.000000000               0.000000000               0.000000000               0.000000000               0.000000000               0.002329138               0.023551041               0.001598674              -0.002070449               0.008540418               0.006469969               0.000000000               0.000000000               0.000000000               0.000000000               0.002115107               0.018201303               0.000729088              -0.001481994               0.006561038               0.005079044               0.000000000               0.000000000               0.000000000               0.000000000               0.002590645               0.013909024              -0.000131374              -0.000767134               0.004892006               0.004124872               0.000000000               0.000000000               0.000000000               0.000000000               0.002316518               0.011491867              -0.000486228              -0.000567788               0.004019847               0.003452059               0.000000000               0.000000000               0.000000000               0.000000000               0.001851013               0.009958867              -0.000621938              -0.000550727               0.003503165               0.002952438               0.000000000               0.000000000               0.000000000               0.000000000               0.001380312               0.008873562              -0.000659153              -0.000591577               0.003155017               0.002563439               0.000000000               0.000000000               0.000000000               0.000000000               0.000968108               0.008026900              -0.000653219              -0.000640320               0.002889047               0.002248726               0.000000000               0.000000000               0.000000000               0.000000000               0.000629708               0.007308644              -0.000629095              -0.000677439               0.002662003               0.001984565               0.000000000               0.000000000               0.000000000               0.000000000               0.000363886               0.006661359              -0.000598205              -0.000696211               0.002452501               0.001756290               0.000000000               0.000000000               0.000000000               0.000000000               0.000160957               0.006055018              -0.000567567              -0.000696517               0.002250492               0.001553975               0.000000000               0.000000000               0.000000000               0.000000000               0.000009242               0.005468697              -0.000537355              -0.000680120               0.002049587               0.001369467               0.000000000               0.000000000               0.000000000               0.000000000              -0.000093702               0.004886996              -0.000498802              -0.000646011               0.001844319               0.001198308               0.000000000               0.000000000               0.000000000               0.000000000              -0.000149778               0.004291634              -0.000448629              -0.000592620               0.001628070               0.001035451               0.000000000               0.000000000               0.000000000               0.000000000              -0.000170867               0.003668697              -0.000389758              -0.000522661               0.001397107               0.000874446               0.000000000               0.000000000               0.000000000               0.000000000              -0.000152999               0.003009714              -0.000306469              -0.000433588               0.001147757               0.000714169               0.000000000               0.000000000               0.000000000               0.000000000              -0.000088039               0.002295937              -0.000177343              -0.000320006               0.000871973               0.000551967               0.000000000               0.000000000               0.000000000               0.000000000              -0.000101851               0.001761641              -0.000110006              -0.000258399               0.000673341               0.000414942               0.000000000               0.000000000               0.000000000               0.000000000               0.002483398               0.022079182               0.002963030              -0.001828620               0.007969193               0.006140573               0.000000000               0.000000000               0.000000000               0.000000000               0.001910670               0.017274140               0.001347904              -0.001442763               0.006238910               0.004796147               0.000000000               0.000000000               0.000000000               0.000000000               0.002005761               0.013544349              -0.000235548              -0.000940881               0.004828365               0.003887484               0.000000000               0.000000000               0.000000000               0.000000000               0.001601083               0.011407321              -0.000865287              -0.000825507               0.004077571               0.003252064               0.000000000               0.000000000               0.000000000               0.000000000               0.001127954               0.010015928              -0.001092850              -0.000829006               0.003614945               0.002785938               0.000000000               0.000000000               0.000000000               0.000000000               0.000708684               0.008996770              -0.001145407              -0.000858838               0.003285173               0.002426334               0.000000000               0.000000000               0.000000000               0.000000000               0.000369744               0.008175335              -0.001122461              -0.000883261               0.003019505               0.002136244               0.000000000               0.000000000               0.000000000               0.000000000               0.000112156               0.007462439              -0.001071120              -0.000890745               0.002784370               0.001893625               0.000000000               0.000000000               0.000000000               0.000000000              -0.000072839               0.006818035              -0.001013668              -0.000879567               0.002565845               0.001686277               0.000000000               0.000000000               0.000000000               0.000000000              -0.000203350               0.006221665              -0.000956297              -0.000853963               0.002358522               0.001504559               0.000000000               0.000000000               0.000000000               0.000000000              -0.000287866               0.005657148              -0.000896220              -0.000815092               0.002157394               0.001342303               0.000000000               0.000000000               0.000000000               0.000000000              -0.000331534               0.005110292              -0.000821715              -0.000763110               0.001957784               0.001194673               0.000000000               0.000000000               0.000000000               0.000000000              -0.000335931               0.004568472              -0.000727747              -0.000697031               0.001755152               0.001058121               0.000000000               0.000000000               0.000000000               0.000000000              -0.000301571               0.004028293              -0.000618372              -0.000616625               0.001548292               0.000931668               0.000000000               0.000000000               0.000000000               0.000000000              -0.000228736               0.003489925              -0.000472938              -0.000522015               0.001337302               0.000815286               0.000000000               0.000000000               0.000000000               0.000000000              -0.000122922               0.002956647              -0.000266361              -0.000415676               0.001124098               0.000708422               0.000000000               0.000000000               0.000000000               0.000000000              -0.000101688               0.002590928              -0.000160154              -0.000361998               0.000984300               0.000622302               0.000000000               0.000000000               0.000000000               0.000000000               0.002609561               0.019854909               0.003907147              -0.001503277               0.007119329               0.005616052               0.000000000               0.000000000               0.000000000               0.000000000               0.001540123               0.015895787               0.001777004              -0.001409424               0.005768351               0.004358926               0.000000000               0.000000000               0.000000000               0.000000000               0.001109924               0.013002882              -0.000278770              -0.001209136               0.004737296               0.003528160               0.000000000               0.000000000               0.000000000               0.000000000               0.000562605               0.011262712              -0.001049738              -0.001196859               0.004153153               0.002956294               0.000000000               0.000000000               0.000000000               0.000000000               0.000112539               0.010056537              -0.001308221              -0.001214862               0.003757099               0.002542237               0.000000000               0.000000000               0.000000000               0.000000000              -0.000214314               0.009117508              -0.001351384              -0.001220054               0.003445823               0.002225770               0.000000000               0.000000000               0.000000000               0.000000000              -0.000430850               0.008327600              -0.001307068              -0.001202516               0.003176678               0.001974161               0.000000000               0.000000000               0.000000000               0.000000000              -0.000562580               0.007626134              -0.001232689              -0.001164232               0.002930096               0.001765864               0.000000000               0.000000000               0.000000000               0.000000000              -0.000633283               0.006993899              -0.001154594              -0.001111716               0.002701848               0.001590132               0.000000000               0.000000000               0.000000000               0.000000000              -0.000662118               0.006415568              -0.001078531              -0.001050238               0.002488580               0.001438343               0.000000000               0.000000000               0.000000000               0.000000000              -0.000650455               0.005883334              -0.000997719              -0.000979335               0.002287537               0.001308201               0.000000000               0.000000000               0.000000000               0.000000000              -0.000599877               0.005382537              -0.000897865              -0.000897769               0.002093417               0.001195648               0.000000000               0.000000000               0.000000000               0.000000000              -0.000522064               0.004907903              -0.000776472              -0.000809260               0.001905704               0.001096444               0.000000000               0.000000000               0.000000000               0.000000000              -0.000419286               0.004463018              -0.000639848              -0.000715108               0.001726027               0.001010919               0.000000000               0.000000000               0.000000000               0.000000000              -0.000291396               0.004056004              -0.000469695              -0.000616273               0.001557412               0.000941139               0.000000000               0.000000000               0.000000000               0.000000000              -0.000149369               0.003706476              -0.000252817              -0.000519322               0.001408587               0.000889265               0.000000000               0.000000000               0.000000000               0.000000000              -0.000098014               0.003499815              -0.000144632              -0.000474231               0.001324670               0.000850439               0.000000000               0.000000000               0.000000000               0.000000000               0.002557453               0.017153321               0.004342354              -0.001185120               0.006112756               0.004927635               0.000000000               0.000000000               0.000000000               0.000000000               0.000974476               0.014256355               0.001996433              -0.001416614               0.005224275               0.003807661               0.000000000               0.000000000               0.000000000               0.000000000               0.000004398               0.012361043              -0.000227696              -0.001543477               0.004634799               0.003091322               0.000000000               0.000000000               0.000000000               0.000000000              -0.000625365               0.011052758              -0.001003352              -0.001616103               0.004222917               0.002606814               0.000000000               0.000000000               0.000000000               0.000000000              -0.000989671               0.010029697              -0.001239164              -0.001624835               0.003884811               0.002259976               0.000000000               0.000000000               0.000000000               0.000000000              -0.001168517               0.009168248              -0.001262125              -0.001584221               0.003584126               0.001999904               0.000000000               0.000000000               0.000000000               0.000000000              -0.001227124               0.008409111              -0.001202117              -0.001511307               0.003306778               0.001795471               0.000000000               0.000000000               0.000000000               0.000000000              -0.001209985               0.007727876              -0.001117776              -0.001419726               0.003049174               0.001629449               0.000000000               0.000000000               0.000000000               0.000000000              -0.001147568               0.007117180              -0.001037917              -0.001319983               0.002812364               0.001492381               0.000000000               0.000000000               0.000000000               0.000000000              -0.001058045               0.006569464              -0.000962339              -0.001217947               0.002595782               0.001377835               0.000000000               0.000000000               0.000000000               0.000000000              -0.000942399               0.006071188              -0.000879175              -0.001112296               0.002394474               0.001282178               0.000000000               0.000000000               0.000000000               0.000000000              -0.000800269               0.005611958              -0.000775097              -0.001001593               0.002204498               0.001202905               0.000000000               0.000000000               0.000000000               0.000000000              -0.000639289               0.005198545              -0.000653668              -0.000889549               0.002029347               0.001139798               0.000000000               0.000000000               0.000000000               0.000000000              -0.000474601               0.004835835              -0.000519324              -0.000782453               0.001872746               0.001090293               0.000000000               0.000000000               0.000000000               0.000000000              -0.000306670               0.004535628              -0.000364616              -0.000681953               0.001739179               0.001057225               0.000000000               0.000000000               0.000000000               0.000000000              -0.000145471               0.004323732              -0.000189194              -0.000595017               0.001639568               0.001044552               0.000000000               0.000000000               0.000000000               0.000000000              -0.000080795               0.004224185              -0.000104211              -0.000558320               0.001594154               0.001035834               0.000000000               0.000000000               0.000000000               0.000000000               0.002194164               0.014249175               0.004283619              -0.000958337               0.005069122               0.004110785               0.000000000               0.000000000               0.000000000               0.000000000               0.000215330               0.012532173               0.002039717              -0.001485770               0.004672606               0.003186835               0.000000000               0.000000000               0.000000000               0.000000000              -0.001181927               0.011668083              -0.000056231              -0.001901728               0.004523232               0.002621503               0.000000000               0.000000000               0.000000000               0.000000000              -0.001785445               0.010757031              -0.000734397              -0.002014166               0.004257030               0.002242864               0.000000000               0.000000000               0.000000000               0.000000000              -0.001987631               0.009896116              -0.000924465              -0.001982371               0.003959463               0.001977091               0.000000000               0.000000000               0.000000000               0.000000000              -0.001977693               0.009102998              -0.000933233              -0.001879505               0.003660804               0.001781299               0.000000000               0.000000000               0.000000000               0.000000000              -0.001857780               0.008375142              -0.000877691              -0.001743556               0.003372871               0.001629315               0.000000000               0.000000000               0.000000000               0.000000000              -0.001683156               0.007723149              -0.000808522              -0.001596573               0.003106548               0.001509975               0.000000000               0.000000000               0.000000000               0.000000000              -0.001487543               0.007144129              -0.000747833              -0.001450841               0.002864966               0.001414125               0.000000000               0.000000000               0.000000000               0.000000000              -0.001285283               0.006624187              -0.000693358              -0.001310001               0.002644707               0.001334706               0.000000000               0.000000000               0.000000000               0.000000000              -0.001074346               0.006152595              -0.000626345              -0.001171951               0.002441495               0.001269544               0.000000000               0.000000000               0.000000000               0.000000000              -0.000856607               0.005725512              -0.000541036              -0.001036914               0.002254123               0.001217209               0.000000000               0.000000000               0.000000000               0.000000000              -0.000635166               0.005356944              -0.000444495              -0.000907803               0.002088231               0.001180428               0.000000000               0.000000000               0.000000000               0.000000000              -0.000432630               0.005056679              -0.000337251              -0.000794319               0.001950316               0.001155997               0.000000000               0.000000000               0.000000000               0.000000000              -0.000256400               0.004835047              -0.000222576              -0.000700529               0.001845176               0.001144647               0.000000000               0.000000000               0.000000000               0.000000000              -0.000111170               0.004705064              -0.000109949              -0.000629820               0.001778279               0.001148459               0.000000000               0.000000000               0.000000000               0.000000000              -0.000053860               0.004659335              -0.000057652              -0.000602613               0.001753967               0.001151354               0.000000000               0.000000000               0.000000000               0.000000000               0.001464459               0.011375730               0.003822661              -0.000872795               0.004082803               0.003210008               0.000000000               0.000000000               0.000000000               0.000000000              -0.000683830               0.010851502               0.001969724              -0.001612871               0.004154754               0.002541883               0.000000000               0.000000000               0.000000000               0.000000000              -0.002311058               0.010933895               0.000246088              -0.002233378               0.004389054               0.002155676               0.000000000               0.000000000               0.000000000               0.000000000              -0.002764435               0.010349910              -0.000285926              -0.002330396               0.004226734               0.001896338               0.000000000               0.000000000               0.000000000               0.000000000              -0.002744887               0.009623286              -0.000442106              -0.002232238               0.003951809               0.001719571               0.000000000               0.000000000               0.000000000               0.000000000              -0.002523995               0.008894406              -0.000462562              -0.002058294               0.003650870               0.001592576               0.000000000               0.000000000               0.000000000               0.000000000              -0.002227805               0.008211808              -0.000437571              -0.001861898               0.003357875               0.001495976               0.000000000               0.000000000               0.000000000               0.000000000              -0.001913072               0.007599202              -0.000407830              -0.001667298               0.003088808               0.001421510               0.000000000               0.000000000               0.000000000               0.000000000              -0.001605351               0.007051621              -0.000384296              -0.001483456               0.002845002               0.001361546               0.000000000               0.000000000               0.000000000               0.000000000              -0.001313792               0.006550248              -0.000364624              -0.001311450               0.002620544               0.001309094               0.000000000               0.000000000               0.000000000               0.000000000              -0.001032239               0.006096065              -0.000329770              -0.001149095               0.002415033               0.001265938               0.000000000               0.000000000               0.000000000               0.000000000              -0.000767334               0.005694037              -0.000274581              -0.000999502               0.002231161               0.001231659               0.000000000               0.000000000               0.000000000               0.000000000              -0.000525068               0.005362013              -0.000215564              -0.000867150               0.002076370               0.001209220               0.000000000               0.000000000               0.000000000               0.000000000              -0.000318075               0.005114578              -0.000153643              -0.000758599               0.001957709               0.001199110               0.000000000               0.000000000               0.000000000               0.000000000              -0.000159744               0.004952394              -0.000090801              -0.000678952               0.001877099               0.001198147               0.000000000               0.000000000               0.000000000               0.000000000              -0.000057751               0.004863997              -0.000039445              -0.000629655               0.001831201               0.001201546               0.000000000               0.000000000               0.000000000               0.000000000              -0.000026642               0.004833062              -0.000019782              -0.000614122               0.001815712               0.001201590               0.000000000               0.000000000               0.000000000               0.000000000               0.000403850               0.008725394               0.003073639              -0.000939231               0.003221511               0.002282281               0.000000000               0.000000000               0.000000000               0.000000000              -0.001667164               0.009314337               0.001842330              -0.001789475               0.003701239               0.001911764               0.000000000               0.000000000               0.000000000               0.000000000              -0.003267628               0.010158701               0.000664262              -0.002495192               0.004217930               0.001722738               0.000000000               0.000000000               0.000000000               0.000000000              -0.003461220               0.009827949               0.000268335              -0.002526445               0.004118098               0.001591653               0.000000000               0.000000000               0.000000000               0.000000000              -0.003195694               0.009217140               0.000108461              -0.002350522               0.003855857               0.001505335               0.000000000               0.000000000               0.000000000               0.000000000              -0.002776926               0.008559367               0.000043695              -0.002111263               0.003556848               0.001445585               0.000000000               0.000000000               0.000000000               0.000000000              -0.002328760               0.007934002               0.000013408              -0.001865030               0.003266318               0.001401287               0.000000000               0.000000000               0.000000000               0.000000000              -0.001901839               0.007365787              -0.000009052              -0.001633909               0.002999874               0.001365965               0.000000000               0.000000000               0.000000000               0.000000000              -0.001515806               0.006839615              -0.000031279              -0.001423376               0.002754308               0.001330932               0.000000000               0.000000000               0.000000000               0.000000000              -0.001169583               0.006352881              -0.000051305              -0.001232701               0.002528506               0.001295805               0.000000000               0.000000000               0.000000000               0.000000000              -0.000854985               0.005913018              -0.000057838              -0.001059744               0.002324234               0.001264490               0.000000000               0.000000000               0.000000000               0.000000000              -0.000577949               0.005546866              -0.000046634              -0.000910087               0.002152299               0.001242212               0.000000000               0.000000000               0.000000000               0.000000000              -0.000348590               0.005271208              -0.000036327              -0.000789620               0.002020259               0.001230638               0.000000000               0.000000000               0.000000000               0.000000000              -0.000172982               0.005085455              -0.000027195              -0.000700548               0.001928651               0.001228102               0.000000000               0.000000000               0.000000000               0.000000000              -0.000061502               0.004975083              -0.000013236              -0.000644947               0.001873327               0.001228380               0.000000000               0.000000000               0.000000000               0.000000000              -0.000010892               0.004918065              -0.000003157              -0.000618841               0.001845619               0.001226778               0.000000000               0.000000000               0.000000000               0.000000000              -0.000004505               0.004897007              -0.000002397              -0.000613814               0.001836924               0.001223110               0.000000000               0.000000000               0.000000000               0.000000000              -0.000852418               0.006498686               0.002165315              -0.001131991               0.002543537               0.001411546               0.000000000               0.000000000               0.000000000               0.000000000              -0.002626909               0.007938829               0.001703399              -0.001977440               0.003305396               0.001327956               0.000000000               0.000000000               0.000000000               0.000000000              -0.004013568               0.009372454               0.001163879              -0.002676638               0.004016333               0.001339694               0.000000000               0.000000000               0.000000000               0.000000000              -0.003928561               0.009308918               0.000857043              -0.002636819               0.003981881               0.001345062               0.000000000               0.000000000               0.000000000               0.000000000              -0.003454624               0.008846646               0.000662334              -0.002401309               0.003749289               0.001347980               0.000000000               0.000000000               0.000000000               0.000000000              -0.002881053               0.008282815               0.000530505              -0.002115742               0.003466158               0.001350416               0.000000000               0.000000000               0.000000000               0.000000000              -0.002323234               0.007723519               0.000435191              -0.001836648               0.003186697               0.001350048               0.000000000               0.000000000               0.000000000               0.000000000              -0.001816922               0.007192823               0.000359741              -0.001580445               0.002924399               0.001343954               0.000000000               0.000000000               0.000000000               0.000000000              -0.001369049               0.006690183               0.000294133              -0.001349663               0.002679926               0.001330263               0.000000000               0.000000000               0.000000000               0.000000000              -0.000984480               0.006217884               0.000233704              -0.001146413               0.002454745               0.001308332               0.000000000               0.000000000               0.000000000               0.000000000              -0.000655444               0.005797847               0.000179063              -0.000970520               0.002256103               0.001285583               0.000000000               0.000000000               0.000000000               0.000000000              -0.000378143               0.005464808               0.000129702              -0.000824903               0.002096552               0.001271649               0.000000000               0.000000000               0.000000000               0.000000000              -0.000172452               0.005228241               0.000083314              -0.000718198               0.001982129               0.001263931               0.000000000               0.000000000               0.000000000               0.000000000              -0.000043046               0.005077145               0.000045180              -0.000650784               0.001909293               0.001258509               0.000000000               0.000000000               0.000000000               0.000000000               0.000018505               0.004992875               0.000021434              -0.000617169               0.001869998               0.001252829               0.000000000               0.000000000               0.000000000               0.000000000               0.000029288               0.004957720               0.000006905              -0.000608731               0.001855467               0.001246736               0.000000000               0.000000000               0.000000000               0.000000000               0.000023400               0.004952949               0.000000973              -0.000610342               0.001854414               0.001244072               0.000000000               0.000000000               0.000000000               0.000000000              -0.002303148               0.004438560               0.001219023              -0.001418497               0.001952337               0.000533840               0.000000000               0.000000000               0.000000000               0.000000000              -0.003427689               0.006336314               0.001551982              -0.002077418               0.002804556               0.000727138               0.000000000               0.000000000               0.000000000               0.000000000              -0.004451905               0.008195429               0.001687232              -0.002693887               0.003629744               0.000935857               0.000000000               0.000000000               0.000000000               0.000000000              -0.004220530               0.008535006               0.001476366              -0.002649568               0.003728163               0.001078594               0.000000000               0.000000000               0.000000000               0.000000000              -0.003666749               0.008358121               0.001248301              -0.002419790               0.003592609               0.001172819               0.000000000               0.000000000               0.000000000               0.000000000              -0.003043761               0.007999581               0.001047596              -0.002141353               0.003380284               0.001238932               0.000000000               0.000000000               0.000000000               0.000000000              -0.002445033               0.007578771               0.000886016              -0.001864229               0.003147641               0.001283412               0.000000000               0.000000000               0.000000000               0.000000000              -0.001903311               0.007141738               0.000757882              -0.001606455               0.002916041               0.001309586               0.000000000               0.000000000               0.000000000               0.000000000              -0.001426730               0.006706847               0.000645356              -0.001373376               0.002693385               0.001320009               0.000000000               0.000000000               0.000000000               0.000000000              -0.001017962               0.006285523               0.000539501              -0.001167423               0.002484295               0.001316871               0.000000000               0.000000000               0.000000000               0.000000000              -0.000669615               0.005903511               0.000438458              -0.000989042               0.002297498               0.001308456               0.000000000               0.000000000               0.000000000               0.000000000              -0.000377604               0.005580372               0.000336307              -0.000839146               0.002139820               0.001300675               0.000000000               0.000000000               0.000000000               0.000000000              -0.000154499               0.005328194               0.000235469              -0.000723960               0.002017367               0.001293407               0.000000000               0.000000000               0.000000000               0.000000000              -0.000004988               0.005157616               0.000148153              -0.000646571               0.001934712               0.001288141               0.000000000               0.000000000               0.000000000               0.000000000               0.000072949               0.005053450               0.000075657              -0.000604324               0.001885908               0.001281584               0.000000000               0.000000000               0.000000000               0.000000000               0.000093084               0.005007771               0.000023857              -0.000591063               0.001866262               0.001275198               0.000000000               0.000000000               0.000000000               0.000000000               0.000087366               0.005000992               0.000004164              -0.000592360               0.001864434               0.001272074               0.000000000               0.000000000               0.000000000               0.000000000              -0.004144936               0.002577270               0.000304377              -0.001876506               0.001484582              -0.000391924               0.000000000               0.000000000               0.000000000               0.000000000              -0.004326710               0.004719599               0.001337498              -0.002212461               0.002310670               0.000098209               0.000000000               0.000000000               0.000000000               0.000000000              -0.004793031               0.006802774               0.002107377              -0.002647727               0.003150144               0.000502417               0.000000000               0.000000000               0.000000000               0.000000000              -0.004438123               0.007525060               0.002061035              -0.002604923               0.003376635               0.000771713               0.000000000               0.000000000               0.000000000               0.000000000              -0.003848674               0.007675851               0.001838543              -0.002402729               0.003359501               0.000956772               0.000000000               0.000000000               0.000000000               0.000000000              -0.003214101               0.007562905               0.001595460              -0.002150646               0.003237825               0.001087179               0.000000000               0.000000000               0.000000000               0.000000000              -0.002598850               0.007324276               0.001382900              -0.001890099               0.003071434               0.001181335               0.000000000               0.000000000               0.000000000               0.000000000              -0.002030938               0.007027806               0.001206895              -0.001640074               0.002889270               0.001249196               0.000000000               0.000000000               0.000000000               0.000000000              -0.001526307               0.006698137               0.001048971              -0.001409629               0.002702566               0.001292937               0.000000000               0.000000000               0.000000000               0.000000000              -0.001085225               0.006355603               0.000904331              -0.001201407               0.002518982               0.001317575               0.000000000               0.000000000               0.000000000               0.000000000              -0.000701452               0.006022896               0.000768344              -0.001015904               0.002346247               0.001330343               0.000000000               0.000000000               0.000000000               0.000000000              -0.000372134               0.005721341               0.000625320              -0.000854716               0.002192000               0.001337284               0.000000000               0.000000000               0.000000000               0.000000000              -0.000102970               0.005466442               0.000475626              -0.000721917               0.002062768               0.001340851               0.000000000               0.000000000               0.000000000               0.000000000               0.000091327               0.005267720               0.000333172              -0.000624216               0.001963961               0.001339745               0.000000000               0.000000000               0.000000000               0.000000000               0.000202743               0.005123851               0.000199382              -0.000564451               0.001896084               0.001331632               0.000000000               0.000000000               0.000000000               0.000000000               0.000239252               0.005043200               0.000084221              -0.000540679               0.001861276               0.001320597               0.000000000               0.000000000               0.000000000               0.000000000               0.000226189               0.005011033               0.000029309              -0.000541557               0.001850846               0.001309290               0.000000000               0.000000000               0.000000000               0.000000000              -0.006251534               0.001052375              -0.000497329              -0.002475869               0.001176074              -0.001299796               0.000000000               0.000000000               0.000000000               0.000000000              -0.005366731               0.003185816               0.001044016              -0.002410747               0.001865508              -0.000545239               0.000000000               0.000000000               0.000000000               0.000000000              -0.005067884               0.005210454               0.002309331              -0.002551758               0.002587385               0.000035627               0.000000000               0.000000000               0.000000000               0.000000000              -0.004501744               0.006201260               0.002462607              -0.002463306               0.002888167               0.000424861               0.000000000               0.000000000               0.000000000               0.000000000              -0.003863295               0.006649132               0.002300475              -0.002279872               0.002976312               0.000696440               0.000000000               0.000000000               0.000000000               0.000000000              -0.003224037               0.006796533               0.002060227              -0.002058576               0.002951680               0.000893104               0.000000000               0.000000000               0.000000000               0.000000000              -0.002612484               0.006778827               0.001828809              -0.001827031               0.002868596               0.001041565               0.000000000               0.000000000               0.000000000               0.000000000              -0.002044130               0.006657051               0.001623035              -0.001598677               0.002751887               0.001153210               0.000000000               0.000000000               0.000000000               0.000000000              -0.001521704               0.006466662               0.001437305              -0.001378969               0.002615189               0.001236220               0.000000000               0.000000000               0.000000000               0.000000000              -0.001049255               0.006237367               0.001267775              -0.001173139               0.002470148               0.001297009               0.000000000               0.000000000               0.000000000               0.000000000              -0.000631111               0.005993780               0.001106708              -0.000985887               0.002326535               0.001340648               0.000000000               0.000000000               0.000000000               0.000000000              -0.000262887               0.005752810               0.000940657              -0.000817682               0.002190145               0.001372463               0.000000000               0.000000000               0.000000000               0.000000000               0.000056955               0.005534925               0.000761710              -0.000670506               0.002068459               0.001397953               0.000000000               0.000000000               0.000000000               0.000000000               0.000309850               0.005347308               0.000573680              -0.000552218               0.001966491               0.001414273               0.000000000               0.000000000               0.000000000               0.000000000               0.000474133               0.005189708               0.000380920              -0.000470913               0.001886856               0.001415944               0.000000000               0.000000000               0.000000000               0.000000000               0.000539974               0.005077425               0.000186952              -0.000432187               0.001836520               0.001404334               0.000000000               0.000000000               0.000000000               0.000000000               0.000528243               0.005023113               0.000085312              -0.000429797               0.001817620               0.001387823               0.000000000               0.000000000               0.000000000               0.000000000              -0.008473053              -0.000046710              -0.001065598              -0.003171554               0.001041607              -0.002129946               0.000000000               0.000000000               0.000000000               0.000000000              -0.006490693               0.001826323               0.000715337              -0.002662297               0.001496196              -0.001166100               0.000000000               0.000000000               0.000000000               0.000000000              -0.005304683               0.003555800               0.002259677              -0.002433727               0.001996495              -0.000437232               0.000000000               0.000000000               0.000000000               0.000000000              -0.004439897               0.004667886               0.002587699              -0.002248443               0.002305426               0.000056983               0.000000000               0.000000000               0.000000000               0.000000000              -0.003712472               0.005349091               0.002513793              -0.002060809               0.002469948               0.000409139               0.000000000               0.000000000               0.000000000               0.000000000              -0.003056819               0.005746155               0.002313032              -0.001864573               0.002536889               0.000672317               0.000000000               0.000000000               0.000000000               0.000000000              -0.002458154               0.005948374               0.002094871              -0.001665351               0.002537888               0.000872537               0.000000000               0.000000000               0.000000000               0.000000000              -0.001902897               0.006011314               0.001891900              -0.001464998               0.002492083               0.001027086               0.000000000               0.000000000               0.000000000               0.000000000              -0.001377982               0.005986978               0.001705083              -0.001265113               0.002417343               0.001152230               0.000000000               0.000000000               0.000000000               0.000000000              -0.000888256               0.005902748               0.001529249              -0.001070938               0.002324542               0.001253604               0.000000000               0.000000000               0.000000000               0.000000000              -0.000439016               0.005780913               0.001362331              -0.000887244               0.002222699               0.001335456               0.000000000               0.000000000               0.000000000               0.000000000              -0.000023722               0.005644288               0.001194099              -0.000714431               0.002119554               0.001405123               0.000000000               0.000000000               0.000000000               0.000000000               0.000356245               0.005501861               0.001009805              -0.000554140               0.002018649               0.001464509               0.000000000               0.000000000               0.000000000               0.000000000               0.000689365               0.005361054               0.000801973              -0.000411619               0.001924206               0.001512587               0.000000000               0.000000000               0.000000000               0.000000000               0.000949760               0.005229001               0.000566280              -0.000297464               0.001842138               0.001544673               0.000000000               0.000000000               0.000000000               0.000000000               0.001106615               0.005109344               0.000298134              -0.000223687               0.001777660               0.001553973               0.000000000               0.000000000               0.000000000               0.000000000               0.001152832               0.005050715               0.000155432              -0.000199027               0.001749897               0.001550870               0.000000000               0.000000000               0.000000000               0.000000000              -0.010599536              -0.000730365              -0.001295008              -0.003883528               0.001051047              -0.002832481               0.000000000               0.000000000               0.000000000               0.000000000              -0.007604527               0.000723237               0.000416554              -0.002942099               0.001221770              -0.001720329               0.000000000               0.000000000               0.000000000               0.000000000              -0.005513372               0.002004367               0.001959010              -0.002318057               0.001440797              -0.000877260               0.000000000               0.000000000               0.000000000               0.000000000              -0.004295951               0.003105826               0.002378927              -0.001999207               0.001701665              -0.000297542               0.000000000               0.000000000               0.000000000               0.000000000              -0.003445300               0.003937331               0.002386137              -0.001784150               0.001907146               0.000122996               0.000000000               0.000000000               0.000000000               0.000000000              -0.002760930               0.004531798               0.002242379              -0.001601821               0.002044524               0.000442703               0.000000000               0.000000000               0.000000000               0.000000000              -0.002169357               0.004926679               0.002062531              -0.001429341               0.002118656               0.000689315               0.000000000               0.000000000               0.000000000               0.000000000              -0.001626050               0.005173217               0.001890525              -0.001256418               0.002143194               0.000886775               0.000000000               0.000000000               0.000000000               0.000000000              -0.001113155               0.005321851               0.001726122              -0.001082663               0.002134820               0.001052157               0.000000000               0.000000000               0.000000000               0.000000000              -0.000621341               0.005394288               0.001567972              -0.000907287               0.002100507               0.001193220               0.000000000               0.000000000               0.000000000               0.000000000              -0.000143988               0.005410199               0.001419808              -0.000730269               0.002046804               0.001316535               0.000000000               0.000000000               0.000000000               0.000000000               0.000322941               0.005394781               0.001272676              -0.000553244               0.001982657               0.001429413               0.000000000               0.000000000               0.000000000               0.000000000               0.000776897               0.005350825               0.001109434              -0.000377517               0.001909429               0.001531913               0.000000000               0.000000000               0.000000000               0.000000000               0.001209573               0.005281416               0.000914894              -0.000206587               0.001829317               0.001622729               0.000000000               0.000000000               0.000000000               0.000000000               0.001604408               0.005195931               0.000670788              -0.000047839               0.001747906               0.001700067               0.000000000               0.000000000               0.000000000               0.000000000               0.001936552               0.005102988               0.000365660               0.000088332               0.001671535               0.001759867               0.000000000               0.000000000               0.000000000               0.000000000               0.002124202               0.005071914               0.000205955               0.000162585               0.001636426               0.001799011               0.000000000               0.000000000               0.000000000               0.000000000              -0.012379311              -0.001089437              -0.001148027              -0.004506059               0.001138866              -0.003367193               0.000000000               0.000000000               0.000000000               0.000000000              -0.008562000              -0.000076601               0.000197682              -0.003201172               0.001041517              -0.002159656               0.000000000               0.000000000               0.000000000               0.000000000              -0.005690814               0.000736339               0.001441338              -0.002226095               0.000987471              -0.001238625               0.000000000               0.000000000               0.000000000               0.000000000              -0.004131878               0.001745287               0.001830880              -0.001767613               0.001170958              -0.000596655               0.000000000               0.000000000               0.000000000               0.000000000              -0.003144204               0.002650323               0.001881769              -0.001510364               0.001386885              -0.000123479               0.000000000               0.000000000               0.000000000               0.000000000              -0.002423254               0.003373638               0.001796213              -0.001330423               0.001568008               0.000237586               0.000000000               0.000000000               0.000000000               0.000000000              -0.001830799               0.003913561               0.001672655              -0.001175742               0.001696421               0.000520678               0.000000000               0.000000000               0.000000000               0.000000000              -0.001303751               0.004319871               0.001545855              -0.001028889               0.001782905               0.000754016               0.000000000               0.000000000               0.000000000               0.000000000              -0.000805091               0.004620210               0.001421408              -0.000879434               0.001833199               0.000953765               0.000000000               0.000000000               0.000000000               0.000000000              -0.000313450               0.004829360               0.001304454              -0.000721213               0.001850174               0.001128962               0.000000000               0.000000000               0.000000000               0.000000000               0.000183873               0.004973517               0.001197125              -0.000552736               0.001842068               0.001289331               0.000000000               0.000000000               0.000000000               0.000000000               0.000691558               0.005070217               0.001091119              -0.000374443               0.001814869               0.001440427               0.000000000               0.000000000               0.000000000               0.000000000               0.001212827               0.005126507               0.000970146              -0.000186003               0.001770820               0.001584816               0.000000000               0.000000000               0.000000000               0.000000000               0.001748400               0.005145173               0.000818741               0.000012502               0.001710873               0.001723375               0.000000000               0.000000000               0.000000000               0.000000000               0.002298946               0.005126651               0.000618327               0.000221271               0.001635110               0.001856381               0.000000000               0.000000000               0.000000000               0.000000000               0.002860732               0.005076759               0.000346410               0.000438175               0.001546178               0.001984353               0.000000000               0.000000000               0.000000000               0.000000000               0.003250494               0.005084744               0.000203834               0.000583337               0.001500452               0.002083789               0.000000000               0.000000000               0.000000000               0.000000000              -0.013572020              -0.001239077              -0.000671587              -0.004934620               0.001231839              -0.003702780               0.000000000               0.000000000               0.000000000               0.000000000              -0.009214227              -0.000555304               0.000068914              -0.003385920               0.000943532              -0.002442387               0.000000000               0.000000000               0.000000000               0.000000000              -0.005818823              -0.000094471               0.000762859              -0.002170248               0.000691921              -0.001478327               0.000000000               0.000000000               0.000000000               0.000000000              -0.004008749               0.000817990               0.000998370              -0.001605528               0.000807833              -0.000797695               0.000000000               0.000000000               0.000000000               0.000000000              -0.002911836               0.001739474               0.001043650              -0.001309370               0.001016274              -0.000293096               0.000000000               0.000000000               0.000000000               0.000000000              -0.002151933               0.002526833               0.001006392              -0.001122826               0.001216544               0.000093718               0.000000000               0.000000000               0.000000000               0.000000000              -0.001555928               0.003157414               0.000942209              -0.000978148               0.001378510               0.000400362               0.000000000               0.000000000               0.000000000               0.000000000              -0.001038390               0.003667543               0.000872510              -0.000847837               0.001505114               0.000657277               0.000000000               0.000000000               0.000000000               0.000000000              -0.000548847               0.004073031               0.000805640              -0.000714945               0.001595978               0.000881033               0.000000000               0.000000000               0.000000000               0.000000000              -0.000061013               0.004384744               0.000744423              -0.000570972               0.001651890               0.001080919               0.000000000               0.000000000               0.000000000               0.000000000               0.000440368               0.004622484               0.000688235              -0.000412672               0.001678370               0.001265698               0.000000000               0.000000000               0.000000000               0.000000000               0.000965789               0.004801827               0.000632927              -0.000238057               0.001679945               0.001441888               0.000000000               0.000000000               0.000000000               0.000000000               0.001529749               0.004938338               0.000570127              -0.000043637               0.001660642               0.001617005               0.000000000               0.000000000               0.000000000               0.000000000               0.002147155               0.005036157               0.000490657               0.000175662               0.001620148               0.001795810               0.000000000               0.000000000               0.000000000               0.000000000               0.002831294               0.005081094               0.000380095               0.000426594               0.001551483               0.001978077               0.000000000               0.000000000               0.000000000               0.000000000               0.003600015               0.005062899               0.000218018               0.000717136               0.001448571               0.002165707               0.000000000               0.000000000               0.000000000               0.000000000               0.004186366               0.005100940               0.000133169               0.000932260               0.001389543               0.002321803               0.000000000               0.000000000               0.000000000               0.000000000              -0.013993604              -0.001277751               0.000000000              -0.005087879               0.001270034              -0.003817845               0.000000000               0.000000000               0.000000000               0.000000000              -0.009446293              -0.000714966               0.000000000              -0.003452987               0.000912667              -0.002540320               0.000000000               0.000000000               0.000000000               0.000000000              -0.005866318              -0.000383097              -0.000000000              -0.002151981               0.000589624              -0.001562357               0.000000000               0.000000000               0.000000000               0.000000000              -0.003963151               0.000491640              -0.000000000              -0.001547635               0.000679754              -0.000867881               0.000000000               0.000000000               0.000000000               0.000000000              -0.002825045               0.001409968               0.000000000              -0.001235636               0.000881862              -0.000353774               0.000000000               0.000000000               0.000000000               0.000000000              -0.002048988               0.002211204               0.000000000              -0.001044769               0.001085316               0.000040548               0.000000000               0.000000000               0.000000000               0.000000000              -0.001452226               0.002870224               0.000000000              -0.000903361               0.001257852               0.000354491               0.000000000               0.000000000               0.000000000               0.000000000              -0.000933293               0.003416063               0.000000000              -0.000776991               0.001397673               0.000620682               0.000000000               0.000000000               0.000000000               0.000000000              -0.000445867               0.003863843              -0.000000000              -0.000650179               0.001504661               0.000854482               0.000000000               0.000000000               0.000000000               0.000000000               0.000036985               0.004219793              -0.000000000              -0.000513604               0.001577785               0.001064181               0.000000000               0.000000000               0.000000000               0.000000000               0.000534763               0.004487889              -0.000000000              -0.000360449               0.001616098               0.001255648               0.000000000               0.000000000               0.000000000               0.000000000               0.001065336               0.004698285              -0.000000000              -0.000187784               0.001628674               0.001440890               0.000000000               0.000000000               0.000000000               0.000000000               0.001647627               0.004874327              -0.000000000               0.000008569               0.001621903               0.001630472               0.000000000               0.000000000               0.000000000               0.000000000               0.002296655               0.005003489              -0.000000000               0.000235807               0.001589211               0.001825018               0.000000000               0.000000000               0.000000000               0.000000000               0.003031022               0.005068889              -0.000000000               0.000503017               0.001521940               0.002024958               0.000000000               0.000000000               0.000000000               0.000000000               0.003884747               0.005060276              -0.000000000               0.000824237               0.001411996               0.002236234               0.000000000               0.000000000               0.000000000               0.000000000               0.004555761               0.005109417              -0.000000000               0.001069723               0.001346548               0.002416270               0.000000000               0.000000000               0.000000000               0.000000000               0.002262571               0.024067264               0.000000000              -0.002159938               0.008742321               0.006582382               0.000000000               0.000000000               0.000000000               0.000000000               0.002181500               0.018529674               0.000000000              -0.001498143               0.006675877               0.005177734               0.000000000               0.000000000               0.000000000               0.000000000               0.002796612               0.014037522               0.000000000              -0.000705959               0.004914447               0.004208488               0.000000000               0.000000000               0.000000000               0.000000000               0.002571776               0.011518711              -0.000000000              -0.000475422               0.003998006               0.003522584               0.000000000               0.000000000               0.000000000               0.000000000               0.002109945               0.009932362              -0.000000000              -0.000450315               0.003460859               0.003010544               0.000000000               0.000000000               0.000000000               0.000000000               0.001621937               0.008822595               0.000000000              -0.000494597               0.003105701               0.002611104               0.000000000               0.000000000               0.000000000               0.000000000               0.001187836               0.007963116               0.000000000              -0.000549950               0.002837662               0.002287712               0.000000000               0.000000000               0.000000000               0.000000000               0.000826971               0.007245331              -0.000000000              -0.000595551               0.002613603               0.002018052               0.000000000               0.000000000               0.000000000               0.000000000               0.000532922               0.006599599              -0.000000000              -0.000625103               0.002408212               0.001783109               0.000000000               0.000000000               0.000000000               0.000000000               0.000301809               0.005988535               0.000000000              -0.000635387               0.002207954               0.001572567               0.000000000               0.000000000               0.000000000               0.000000000               0.000128193               0.005393907               0.000000000              -0.000626165               0.002006673               0.001380508               0.000000000               0.000000000               0.000000000               0.000000000               0.000006131               0.004799387              -0.000000000              -0.000597623               0.001798987               0.001201364               0.000000000               0.000000000               0.000000000               0.000000000              -0.000073112               0.004181725               0.000000000              -0.000550131               0.001577271               0.001027140               0.000000000               0.000000000               0.000000000               0.000000000              -0.000118752               0.003525311               0.000000000              -0.000485195               0.001336824               0.000851629               0.000000000               0.000000000               0.000000000               0.000000000              -0.000121994               0.002818107               0.000000000              -0.000398010               0.001072030               0.000674019               0.000000000               0.000000000               0.000000000               0.000000000              -0.000072135               0.002026439              -0.000000000              -0.000280355               0.000768925               0.000488570               0.000000000               0.000000000               0.000000000               0.000000000              -0.000100625               0.001415398              -0.000000000              -0.000214659               0.000543347               0.000328689               0.000000000               0.000000000               0.000000000               0.000000000               0.002329138               0.023551041              -0.001598674              -0.002070449               0.008540418               0.006469969               0.000000000               0.000000000               0.000000000               0.000000000               0.002115107               0.018201303              -0.000729088              -0.001481994               0.006561038               0.005079044               0.000000000               0.000000000               0.000000000               0.000000000               0.002590645               0.013909024               0.000131374              -0.000767134               0.004892006               0.004124872               0.000000000               0.000000000               0.000000000               0.000000000               0.002316518               0.011491867               0.000486228              -0.000567788               0.004019847               0.003452059               0.000000000               0.000000000               0.000000000               0.000000000               0.001851013               0.009958867               0.000621938              -0.000550727               0.003503165               0.002952438               0.000000000               0.000000000               0.000000000               0.000000000               0.001380312               0.008873562               0.000659153              -0.000591577               0.003155017               0.002563439               0.000000000               0.000000000               0.000000000               0.000000000               0.000968108               0.008026900               0.000653219              -0.000640320               0.002889047               0.002248726               0.000000000               0.000000000               0.000000000               0.000000000               0.000629708               0.007308644               0.000629095              -0.000677439               0.002662003               0.001984565               0.000000000               0.000000000               0.000000000               0.000000000               0.000363886               0.006661359               0.000598205              -0.000696211               0.002452501               0.001756290               0.000000000               0.000000000               0.000000000               0.000000000               0.000160957               0.006055018               0.000567567              -0.000696517               0.002250492               0.001553975               0.000000000               0.000000000               0.000000000               0.000000000               0.000009242               0.005468697               0.000537355              -0.000680120               0.002049587               0.001369467               0.000000000               0.000000000               0.000000000               0.000000000              -0.000093702               0.004886996               0.000498802              -0.000646011               0.001844319               0.001198308               0.000000000               0.000000000               0.000000000               0.000000000              -0.000149778               0.004291634               0.000448629              -0.000592620               0.001628070               0.001035451               0.000000000               0.000000000               0.000000000               0.000000000              -0.000170867               0.003668697               0.000389758              -0.000522661               0.001397107               0.000874446               0.000000000               0.000000000               0.000000000               0.000000000              -0.000152999               0.003009714               0.000306469              -0.000433588               0.001147757               0.000714169               0.000000000               0.000000000               0.000000000               0.000000000              -0.000088039               0.002295937               0.000177343              -0.000320006               0.000871973               0.000551967               0.000000000               0.000000000               0.000000000               0.000000000              -0.000101851               0.001761641               0.000110006              -0.000258399               0.000673341               0.000414942               0.000000000               0.000000000               0.000000000               0.000000000               0.002483398               0.022079182              -0.002963030              -0.001828620               0.007969193               0.006140573               0.000000000               0.000000000               0.000000000               0.000000000               0.001910670               0.017274140              -0.001347904              -0.001442763               0.006238910               0.004796147               0.000000000               0.000000000               0.000000000               0.000000000               0.002005761               0.013544349               0.000235548              -0.000940881               0.004828365               0.003887484               0.000000000               0.000000000               0.000000000               0.000000000               0.001601083               0.011407321               0.000865287              -0.000825507               0.004077571               0.003252064               0.000000000               0.000000000               0.000000000               0.000000000               0.001127954               0.010015928               0.001092850              -0.000829006               0.003614945               0.002785938               0.000000000               0.000000000               0.000000000               0.000000000               0.000708684               0.008996770               0.001145407              -0.000858838               0.003285173               0.002426334               0.000000000               0.000000000               0.000000000               0.000000000               0.000369744               0.008175335               0.001122461              -0.000883261               0.003019505               0.002136244               0.000000000               0.000000000               0.000000000               0.000000000               0.000112156               0.007462439               0.001071120              -0.000890745               0.002784370               0.001893625               0.000000000               0.000000000               0.000000000               0.000000000              -0.000072839               0.006818035               0.001013668              -0.000879567               0.002565845               0.001686277               0.000000000               0.000000000               0.000000000               0.000000000              -0.000203350               0.006221665               0.000956297              -0.000853963               0.002358522               0.001504559               0.000000000               0.000000000               0.000000000               0.000000000              -0.000287866               0.005657148               0.000896220              -0.000815092               0.002157394               0.001342303               0.000000000               0.000000000               0.000000000               0.000000000              -0.000331534               0.005110292               0.000821715              -0.000763110               0.001957784               0.001194673               0.000000000               0.000000000               0.000000000               0.000000000              -0.000335931               0.004568472               0.000727747              -0.000697031               0.001755152               0.001058121               0.000000000               0.000000000               0.000000000               0.000000000              -0.000301571               0.004028293               0.000618372              -0.000616625               0.001548292               0.000931668               0.000000000               0.000000000               0.000000000               0.000000000              -0.000228736               0.003489925               0.000472938              -0.000522015               0.001337302               0.000815286               0.000000000               0.000000000               0.000000000               0.000000000              -0.000122922               0.002956647               0.000266361              -0.000415676               0.001124098               0.000708422               0.000000000               0.000000000               0.000000000               0.000000000              -0.000101688               0.002590928               0.000160154              -0.000361998               0.000984300               0.000622302               0.000000000               0.000000000               0.000000000               0.000000000               0.002609561               0.019854909              -0.003907147              -0.001503277               0.007119329               0.005616052               0.000000000               0.000000000               0.000000000               0.000000000               0.001540123               0.015895787              -0.001777004              -0.001409424               0.005768351               0.004358926               0.000000000               0.000000000               0.000000000               0.000000000               0.001109924               0.013002882               0.000278770              -0.001209136               0.004737296               0.003528160               0.000000000               0.000000000               0.000000000               0.000000000               0.000562605               0.011262712               0.001049738              -0.001196859               0.004153153               0.002956294               0.000000000               0.000000000               0.000000000               0.000000000               0.000112539               0.010056537               0.001308221              -0.001214862               0.003757099               0.002542237               0.000000000               0.000000000               0.000000000               0.000000000              -0.000214314               0.009117508               0.001351384              -0.001220054               0.003445823               0.002225770               0.000000000               0.000000000               0.000000000               0.000000000              -0.000430850               0.008327600               0.001307068              -0.001202516               0.003176678               0.001974161               0.000000000               0.000000000               0.000000000               0.000000000              -0.000562580               0.007626134               0.001232689              -0.001164232               0.002930096               0.001765864               0.000000000               0.000000000               0.000000000               0.000000000              -0.000633283               0.006993899               0.001154594              -0.001111716               0.002701848               0.001590132               0.000000000               0.000000000               0.000000000               0.000000000              -0.000662118               0.006415568               0.001078531              -0.001050238               0.002488580               0.001438343               0.000000000               0.000000000               0.000000000               0.000000000              -0.000650455               0.005883334               0.000997719              -0.000979335               0.002287537               0.001308201               0.000000000               0.000000000               0.000000000               0.000000000              -0.000599877               0.005382537               0.000897865              -0.000897769               0.002093417               0.001195648               0.000000000               0.000000000               0.000000000               0.000000000              -0.000522064               0.004907903               0.000776472              -0.000809260               0.001905704               0.001096444               0.000000000               0.000000000               0.000000000               0.000000000              -0.000419286               0.004463018               0.000639848              -0.000715108               0.001726027               0.001010919               0.000000000               0.000000000               0.000000000               0.000000000              -0.000291396               0.004056004               0.000469695              -0.000616273               0.001557412               0.000941139               0.000000000               0.000000000               0.000000000               0.000000000              -0.000149369               0.003706476               0.000252817              -0.000519322               0.001408587               0.000889265               0.000000000               0.000000000               0.000000000               0.000000000              -0.000098014               0.003499815               0.000144632              -0.000474231               0.001324670               0.000850439               0.000000000               0.000000000               0.000000000               0.000000000               0.002557453               0.017153321              -0.004342354              -0.001185120               0.006112756               0.004927635               0.000000000               0.000000000               0.000000000               0.000000000               0.000974476               0.014256355              -0.001996433              -0.001416614               0.005224275               0.003807661               0.000000000               0.000000000               0.000000000               0.000000000               0.000004398               0.012361043               0.000227696              -0.001543477               0.004634799               0.003091322               0.000000000               0.000000000               0.000000000               0.000000000              -0.000625365               0.011052758               0.001003352              -0.001616103               0.004222917               0.002606814               0.000000000               0.000000000               0.000000000               0.000000000              -0.000989671               0.010029697               0.001239164              -0.001624835               0.003884811               0.002259976               0.000000000               0.000000000               0.000000000               0.000000000              -0.001168517               0.009168248               0.001262125              -0.001584221               0.003584126               0.001999904               0.000000000               0.000000000               0.000000000               0.000000000              -0.001227124               0.008409111               0.001202117              -0.001511307               0.003306778               0.001795471               0.000000000               0.000000000               0.000000000               0.000000000              -0.001209985               0.007727876               0.001117776              -0.001419726               0.003049174               0.001629449               0.000000000               0.000000000               0.000000000               0.000000000              -0.001147568               0.007117180               0.001037917              -0.001319983               0.002812364               0.001492381               0.000000000               0.000000000               0.000000000               0.000000000              -0.001058045               0.006569464               0.000962339              -0.001217947               0.002595782               0.001377835               0.000000000               0.000000000               0.000000000               0.000000000              -0.000942399               0.006071188               0.000879175              -0.001112296               0.002394474               0.001282178               0.000000000               0.000000000               0.000000000               0.000000000              -0.000800269               0.005611958               0.000775097              -0.001001593               0.002204498               0.001202905               0.000000000               0.000000000               0.000000000               0.000000000              -0.000639289               0.005198545               0.000653668              -0.000889549               0.002029347               0.001139798               0.000000000               0.000000000               0.000000000               0.000000000              -0.000474601               0.004835835               0.000519324              -0.000782453               0.001872746               0.001090293               0.000000000               0.000000000               0.000000000               0.000000000              -0.000306670               0.004535628               0.000364616              -0.000681953               0.001739179               0.001057225               0.000000000               0.000000000               0.000000000               0.000000000              -0.000145471               0.004323732               0.000189194              -0.000595017               0.001639568               0.001044552               0.000000000               0.000000000               0.000000000               0.000000000              -0.000080795               0.004224185               0.000104211              -0.000558320               0.001594154               0.001035834               0.000000000               0.000000000               0.000000000               0.000000000               0.002194164               0.014249175              -0.004283619              -0.000958337               0.005069122               0.004110785               0.000000000               0.000000000               0.000000000               0.000000000               0.000215330               0.012532173              -0.002039717              -0.001485770               0.004672606               0.003186835               0.000000000               0.000000000               0.000000000               0.000000000              -0.001181927               0.011668083               0.000056231              -0.001901728               0.004523232               0.002621503               0.000000000               0.000000000               0.000000000               0.000000000              -0.001785445               0.010757031               0.000734397              -0.002014166               0.004257030               0.002242864               0.000000000               0.000000000               0.000000000               0.000000000              -0.001987631               0.009896116               0.000924465              -0.001982371               0.003959463               0.001977091               0.000000000               0.000000000               0.000000000               0.000000000              -0.001977693               0.009102998               0.000933233              -0.001879505               0.003660804               0.001781299               0.000000000               0.000000000               0.000000000               0.000000000              -0.001857780               0.008375142               0.000877691              -0.001743556               0.003372871               0.001629315               0.000000000               0.000000000               0.000000000               0.000000000              -0.001683156               0.007723149               0.000808522              -0.001596573               0.003106548               0.001509975               0.000000000               0.000000000               0.000000000               0.000000000              -0.001487543               0.007144129               0.000747833              -0.001450841               0.002864966               0.001414125               0.000000000               0.000000000               0.000000000               0.000000000              -0.001285283               0.006624187               0.000693358              -0.001310001               0.002644707               0.001334706               0.000000000               0.000000000               0.000000000               0.000000000              -0.001074346               0.006152595               0.000626345              -0.001171951               0.002441495               0.001269544               0.000000000               0.000000000               0.000000000               0.000000000              -0.000856607               0.005725512               0.000541036              -0.001036914               0.002254123               0.001217209               0.000000000               0.000000000               0.000000000               0.000000000              -0.000635166               0.005356944               0.000444495              -0.000907803               0.002088231               0.001180428               0.000000000               0.000000000               0.000000000               0.000000000              -0.000432630               0.005056679               0.000337251              -0.000794319               0.001950316               0.001155997               0.000000000               0.000000000               0.000000000               0.000000000              -0.000256400               0.004835047               0.000222576              -0.000700529               0.001845176               0.001144647               0.000000000               0.000000000               0.000000000               0.000000000              -0.000111170               0.004705064               0.000109949              -0.000629820               0.001778279               0.001148459               0.000000000               0.000000000               0.000000000               0.000000000              -0.000053860               0.004659335               0.000057652              -0.000602613               0.001753967               0.001151354               0.000000000               0.000000000               0.000000000               0.000000000               0.001464459               0.011375730              -0.003822661              -0.000872795               0.004082803               0.003210008               0.000000000               0.000000000               0.000000000               0.000000000              -0.000683830               0.010851502              -0.001969724              -0.001612871               0.004154754               0.002541883               0.000000000               0.000000000               0.000000000               0.000000000              -0.002311058               0.010933895              -0.000246088              -0.002233378               0.004389054               0.002155676               0.000000000               0.000000000               0.000000000               0.000000000              -0.002764435               0.010349910               0.000285926              -0.002330396               0.004226734               0.001896338               0.000000000               0.000000000               0.000000000               0.000000000              -0.002744887               0.009623286               0.000442106              -0.002232238               0.003951809               0.001719571               0.000000000               0.000000000               0.000000000               0.000000000              -0.002523995               0.008894406               0.000462562              -0.002058294               0.003650870               0.001592576               0.000000000               0.000000000               0.000000000               0.000000000              -0.002227805               0.008211808               0.000437571              -0.001861898               0.003357875               0.001495976               0.000000000               0.000000000               0.000000000               0.000000000              -0.001913072               0.007599202               0.000407830              -0.001667298               0.003088808               0.001421510               0.000000000               0.000000000               0.000000000               0.000000000              -0.001605351               0.007051621               0.000384296              -0.001483456               0.002845002               0.001361546               0.000000000               0.000000000               0.000000000               0.000000000              -0.001313792               0.006550248               0.000364624              -0.001311450               0.002620544               0.001309094               0.000000000               0.000000000               0.000000000               0.000000000              -0.001032239               0.006096065               0.000329770              -0.001149095               0.002415033               0.001265938               0.000000000               0.000000000               0.000000000               0.000000000              -0.000767334               0.005694037               0.000274581              -0.000999502               0.002231161               0.001231659               0.000000000               0.000000000               0.000000000               0.000000000              -0.000525068               0.005362013               0.000215564              -0.000867150               0.002076370               0.001209220               0.000000000               0.000000000               0.000000000               0.000000000              -0.000318075               0.005114578               0.000153643              -0.000758599               0.001957709               0.001199110               0.000000000               0.000000000               0.000000000               0.000000000              -0.000159744               0.004952394               0.000090801              -0.000678952               0.001877099               0.001198147               0.000000000               0.000000000               0.000000000               0.000000000              -0.000057751               0.004863997               0.000039445              -0.000629655               0.001831201               0.001201546               0.000000000               0.000000000               0.000000000               0.000000000              -0.000026642               0.004833062               0.000019782              -0.000614122               0.001815712               0.001201590               0.000000000               0.000000000               0.000000000               0.000000000               0.000403850               0.008725394              -0.003073639              -0.000939231               0.003221511               0.002282281               0.000000000               0.000000000               0.000000000               0.000000000              -0.001667164               0.009314337              -0.001842330              -0.001789475               0.003701239               0.001911764               0.000000000               0.000000000               0.000000000               0.000000000              -0.003267628               0.010158701              -0.000664262              -0.002495192               0.004217930               0.001722738               0.000000000               0.000000000               0.000000000               0.000000000              -0.003461220               0.009827949              -0.000268335              -0.002526445               0.004118098               0.001591653               0.000000000               0.000000000               0.000000000               0.000000000              -0.003195694               0.009217140              -0.000108461              -0.002350522               0.003855857               0.001505335               0.000000000               0.000000000               0.000000000               0.000000000              -0.002776926               0.008559367              -0.000043695              -0.002111263               0.003556848               0.001445585               0.000000000               0.000000000               0.000000000               0.000000000              -0.002328760               0.007934002              -0.000013408              -0.001865030               0.003266318               0.001401287               0.000000000               0.000000000               0.000000000               0.000000000              -0.001901839               0.007365787               0.000009052              -0.001633909               0.002999874               0.001365965               0.000000000               0.000000000               0.000000000               0.000000000              -0.001515806               0.006839615               0.000031279              -0.001423376               0.002754308               0.001330932               0.000000000               0.000000000               0.000000000               0.000000000              -0.001169583               0.006352881               0.000051305              -0.001232701               0.002528506               0.001295805               0.000000000               0.000000000               0.000000000               0.000000000              -0.000854985               0.005913018               0.000057838              -0.001059744               0.002324234               0.001264490               0.000000000               0.000000000               0.000000000               0.000000000              -0.000577949               0.005546866               0.000046634              -0.000910087               0.002152299               0.001242212               0.000000000               0.000000000               0.000000000               0.000000000              -0.000348590               0.005271208               0.000036327              -0.000789620               0.002020259               0.001230638               0.000000000               0.000000000               0.000000000               0.000000000              -0.000172982               0.005085455               0.000027195              -0.000700548               0.001928651               0.001228102               0.000000000               0.000000000               0.000000000               0.000000000              -0.000061502               0.004975083               0.000013236              -0.000644947               0.001873327               0.001228380               0.000000000               0.000000000               0.000000000               0.000000000              -0.000010892               0.004918065               0.000003157              -0.000618841               0.001845619               0.001226778               0.000000000               0.000000000               0.000000000               0.000000000              -0.000004505               0.004897007               0.000002397              -0.000613814               0.001836924               0.001223110               0.000000000               0.000000000               0.000000000               0.000000000              -0.000852418               0.006498686              -0.002165315              -0.001131991               0.002543537               0.001411546               0.000000000               0.000000000               0.000000000               0.000000000              -0.002626909               0.007938829              -0.001703399              -0.001977440               0.003305396               0.001327956               0.000000000               0.000000000               0.000000000               0.000000000              -0.004013568               0.009372454              -0.001163879              -0.002676638               0.004016333               0.001339694               0.000000000               0.000000000               0.000000000               0.000000000              -0.003928561               0.009308918              -0.000857043              -0.002636819               0.003981881               0.001345062               0.000000000               0.000000000               0.000000000               0.000000000              -0.003454624               0.008846646              -0.000662334              -0.002401309               0.003749289               0.001347980               0.000000000               0.000000000               0.000000000               0.000000000              -0.002881053               0.008282815              -0.000530505              -0.002115742               0.003466158               0.001350416               0.000000000               0.000000000               0.000000000               0.000000000              -0.002323234               0.007723519              -0.000435191              -0.001836648               0.003186697               0.001350048               0.000000000               0.000000000               0.000000000               0.000000000              -0.001816922               0.007192823              -0.000359741              -0.001580445               0.002924399               0.001343954               0.000000000               0.000000000               0.000000000               0.000000000              -0.001369049               0.006690183              -0.000294133              -0.001349663               0.002679926               0.001330263               0.000000000               0.000000000               0.000000000               0.000000000              -0.000984480               0.006217884              -0.000233704              -0.001146413               0.002454745               0.001308332               0.000000000               0.000000000               0.000000000               0.000000000              -0.000655444               0.005797847              -0.000179063              -0.000970520               0.002256103               0.001285583               0.000000000               0.000000000               0.000000000               0.000000000              -0.000378143               0.005464808              -0.000129702              -0.000824903               0.002096552               0.001271649               0.000000000               0.000000000               0.000000000               0.000000000              -0.000172452               0.005228241              -0.000083314              -0.000718198               0.001982129               0.001263931               0.000000000               0.000000000               0.000000000               0.000000000              -0.000043046               0.005077145              -0.000045180              -0.000650784               0.001909293               0.001258509               0.000000000               0.000000000               0.000000000               0.000000000               0.000018505               0.004992875              -0.000021434              -0.000617169               0.001869998               0.001252829               0.000000000               0.000000000               0.000000000               0.000000000               0.000029288               0.004957720              -0.000006905              -0.000608731               0.001855467               0.001246736               0.000000000               0.000000000               0.000000000               0.000000000               0.000023400               0.004952949              -0.000000973              -0.000610342               0.001854414               0.001244072               0.000000000               0.000000000               0.000000000               0.000000000              -0.002303148               0.004438560              -0.001219023              -0.001418497               0.001952337               0.000533840               0.000000000               0.000000000               0.000000000               0.000000000              -0.003427689               0.006336314              -0.001551982              -0.002077418               0.002804556               0.000727138               0.000000000               0.000000000               0.000000000               0.000000000              -0.004451905               0.008195429              -0.001687232              -0.002693887               0.003629744               0.000935857               0.000000000               0.000000000               0.000000000               0.000000000              -0.004220530               0.008535006              -0.001476366              -0.002649568               0.003728163               0.001078594               0.000000000               0.000000000               0.000000000               0.000000000              -0.003666749               0.008358121              -0.001248301              -0.002419790               0.003592609               0.001172819               0.000000000               0.000000000               0.000000000               0.000000000              -0.003043761               0.007999581              -0.001047596              -0.002141353               0.003380284               0.001238932               0.000000000               0.000000000               0.000000000               0.000000000              -0.002445033               0.007578771              -0.000886016              -0.001864229               0.003147641               0.001283412               0.000000000               0.000000000               0.000000000               0.000000000              -0.001903311               0.007141738              -0.000757882              -0.001606455               0.002916041               0.001309586               0.000000000               0.000000000               0.000000000               0.000000000              -0.001426730               0.006706847              -0.000645356              -0.001373376               0.002693385               0.001320009               0.000000000               0.000000000               0.000000000               0.000000000              -0.001017962               0.006285523              -0.000539501              -0.001167423               0.002484295               0.001316871               0.000000000               0.000000000               0.000000000               0.000000000              -0.000669615               0.005903511              -0.000438458              -0.000989042               0.002297498               0.001308456               0.000000000               0.000000000               0.000000000               0.000000000              -0.000377604               0.005580372              -0.000336307              -0.000839146               0.002139820               0.001300675               0.000000000               0.000000000               0.000000000               0.000000000              -0.000154499               0.005328194              -0.000235469              -0.000723960               0.002017367               0.001293407               0.000000000               0.000000000               0.000000000               0.000000000              -0.000004988               0.005157616              -0.000148153              -0.000646571               0.001934712               0.001288141               0.000000000               0.000000000               0.000000000               0.000000000               0.000072949               0.005053450              -0.000075657              -0.000604324               0.001885908               0.001281584               0.000000000               0.000000000               0.000000000               0.000000000               0.000093084               0.005007771              -0.000023857              -0.000591063               0.001866262               0.001275198               0.000000000               0.000000000               0.000000000               0.000000000               0.000087366               0.005000992              -0.000004164              -0.000592360               0.001864434               0.001272074               0.000000000               0.000000000               0.000000000               0.000000000              -0.004144936               0.002577270              -0.000304377              -0.001876506               0.001484582              -0.000391924               0.000000000               0.000000000               0.000000000               0.000000000              -0.004326710               0.004719599              -0.001337498              -0.002212461               0.002310670               0.000098209               0.000000000               0.000000000               0.000000000               0.000000000              -0.004793031               0.006802774              -0.002107377              -0.002647727               0.003150144               0.000502417               0.000000000               0.000000000               0.000000000               0.000000000              -0.004438123               0.007525060              -0.002061035              -0.002604923               0.003376635               0.000771713               0.000000000               0.000000000               0.000000000               0.000000000              -0.003848674               0.007675851              -0.001838543              -0.002402729               0.003359501               0.000956772               0.000000000               0.000000000               0.000000000               0.000000000              -0.003214101               0.007562905              -0.001595460              -0.002150646               0.003237825               0.001087179               0.000000000               0.000000000               0.000000000               0.000000000              -0.002598850               0.007324276              -0.001382900              -0.001890099               0.003071434               0.001181335               0.000000000               0.000000000               0.000000000               0.000000000              -0.002030938               0.007027806              -0.001206895              -0.001640074               0.002889270               0.001249196               0.000000000               0.000000000               0.000000000               0.000000000              -0.001526307               0.006698137              -0.001048971              -0.001409629               0.002702566               0.001292937               0.000000000               0.000000000               0.000000000               0.000000000              -0.001085225               0.006355603              -0.000904331              -0.001201407               0.002518982               0.001317575               0.000000000               0.000000000               0.000000000               0.000000000              -0.000701452               0.006022896              -0.000768344              -0.001015904               0.002346247               0.001330343               0.000000000               0.000000000               0.000000000               0.000000000              -0.000372134               0.005721341              -0.000625320              -0.000854716               0.002192000               0.001337284               0.000000000               0.000000000               0.000000000               0.000000000              -0.000102970               0.005466442              -0.000475626              -0.000721917               0.002062768               0.001340851               0.000000000               0.000000000               0.000000000               0.000000000               0.000091327               0.005267720              -0.000333172              -0.000624216               0.001963961               0.001339745               0.000000000               0.000000000               0.000000000               0.000000000               0.000202743               0.005123851              -0.000199382              -0.000564451               0.001896084               0.001331632               0.000000000               0.000000000               0.000000000               0.000000000               0.000239252               0.005043200              -0.000084221              -0.000540679               0.001861276               0.001320597               0.000000000               0.000000000               0.000000000               0.000000000               0.000226189               0.005011033              -0.000029309              -0.000541557               0.001850846               0.001309290               0.000000000               0.000000000               0.000000000               0.000000000              -0.006251534               0.001052375               0.000497329              -0.002475869               0.001176074              -0.001299796               0.000000000               0.000000000               0.000000000               0.000000000              -0.005366731               0.003185816              -0.001044016              -0.002410747               0.001865508              -0.000545239               0.000000000               0.000000000               0.000000000               0.000000000              -0.005067884               0.005210454              -0.002309331              -0.002551758               0.002587385               0.000035627               0.000000000               0.000000000               0.000000000               0.000000000              -0.004501744               0.006201260              -0.002462607              -0.002463306               0.002888167               0.000424861               0.000000000               0.000000000               0.000000000               0.000000000              -0.003863295               0.006649132              -0.002300475              -0.002279872               0.002976312               0.000696440               0.000000000               0.000000000               0.000000000               0.000000000              -0.003224037               0.006796533              -0.002060227              -0.002058576               0.002951680               0.000893104               0.000000000               0.000000000               0.000000000               0.000000000              -0.002612484               0.006778827              -0.001828809              -0.001827031               0.002868596               0.001041565               0.000000000               0.000000000               0.000000000               0.000000000              -0.002044130               0.006657051              -0.001623035              -0.001598677               0.002751887               0.001153210               0.000000000               0.000000000               0.000000000               0.000000000              -0.001521704               0.006466662              -0.001437305              -0.001378969               0.002615189               0.001236220               0.000000000               0.000000000               0.000000000               0.000000000              -0.001049255               0.006237367              -0.001267775              -0.001173139               0.002470148               0.001297009               0.000000000               0.000000000               0.000000000               0.000000000              -0.000631111               0.005993780              -0.001106708              -0.000985887               0.002326535               0.001340648               0.000000000               0.000000000               0.000000000               0.000000000              -0.000262887               0.005752810              -0.000940657              -0.000817682               0.002190145               0.001372463               0.000000000               0.000000000               0.000000000               0.000000000               0.000056955               0.005534925              -0.000761710              -0.000670506               0.002068459               0.001397953               0.000000000               0.000000000               0.000000000               0.000000000               0.000309850               0.005347308              -0.000573680              -0.000552218               0.001966491               0.001414273               0.000000000               0.000000000               0.000000000               0.000000000               0.000474133               0.005189708              -0.000380920              -0.000470913               0.001886856               0.001415944               0.000000000               0.000000000               0.000000000               0.000000000               0.000539974               0.005077425              -0.000186952              -0.000432187               0.001836520               0.001404334               0.000000000               0.000000000               0.000000000               0.000000000               0.000528243               0.005023113              -0.000085312              -0.000429797               0.001817620               0.001387823               0.000000000               0.000000000               0.000000000               0.000000000              -0.008473053              -0.000046710               0.001065598              -0.003171554               0.001041607              -0.002129946               0.000000000               0.000000000               0.000000000               0.000000000              -0.006490693               0.001826323              -0.000715337              -0.002662297               0.001496196              -0.001166100               0.000000000               0.000000000               0.000000000               0.000000000              -0.005304683               0.003555800              -0.002259677              -0.002433727               0.001996495              -0.000437232               0.000000000               0.000000000               0.000000000               0.000000000              -0.004439897               0.004667886              -0.002587699              -0.002248443               0.002305426               0.000056983               0.000000000               0.000000000               0.000000000               0.000000000              -0.003712472               0.005349091              -0.002513793              -0.002060809               0.002469948               0.000409139               0.000000000               0.000000000               0.000000000               0.000000000              -0.003056819               0.005746155              -0.002313032              -0.001864573               0.002536889               0.000672317               0.000000000               0.000000000               0.000000000               0.000000000              -0.002458154               0.005948374              -0.002094871              -0.001665351               0.002537888               0.000872537               0.000000000               0.000000000               0.000000000               0.000000000              -0.001902897               0.006011314              -0.001891900              -0.001464998               0.002492083               0.001027086               0.000000000               0.000000000               0.000000000               0.000000000              -0.001377982               0.005986978              -0.001705083              -0.001265113               0.002417343               0.001152230               0.000000000               0.000000000               0.000000000               0.000000000              -0.000888256               0.005902748              -0.001529249              -0.001070938               0.002324542               0.001253604               0.000000000               0.000000000               0.000000000               0.000000000              -0.000439016               0.005780913              -0.001362331              -0.000887244               0.002222699               0.001335456               0.000000000               0.000000000               0.000000000               0.000000000              -0.000023722               0.005644288              -0.001194099              -0.000714431               0.002119554               0.001405123               0.000000000               0.000000000               0.000000000               0.000000000               0.000356245               0.005501861              -0.001009805              -0.000554140               0.002018649               0.001464509               0.000000000               0.000000000               0.000000000               0.000000000               0.000689365               0.005361054              -0.000801973              -0.000411619               0.001924206               0.001512587               0.000000000               0.000000000               0.000000000               0.000000000               0.000949760               0.005229001              -0.000566280              -0.000297464               0.001842138               0.001544673               0.000000000               0.000000000               0.000000000               0.000000000               0.001106615               0.005109344              -0.000298134              -0.000223687               0.001777660               0.001553973               0.000000000               0.000000000               0.000000000               0.000000000               0.001152832               0.005050715              -0.000155432              -0.000199027               0.001749897               0.001550870               0.000000000               0.000000000               0.000000000               0.000000000              -0.010599536              -0.000730365               0.001295008              -0.003883528               0.001051047              -0.002832481               0.000000000               0.000000000               0.000000000               0.000000000              -0.007604527               0.000723237              -0.000416554              -0.002942099               0.001221770              -0.001720329               0.000000000               0.000000000               0.000000000               0.000000000              -0.005513372               0.002004367              -0.001959010              -0.002318057               0.001440797              -0.000877260               0.000000000               0.000000000               0.000000000               0.000000000              -0.004295951               0.003105826              -0.002378927              -0.001999207               0.001701665              -0.000297542               0.000000000               0.000000000               0.000000000               0.000000000              -0.003445300               0.003937331              -0.002386137              -0.001784150               0.001907146               0.000122996               0.000000000               0.000000000               0.000000000               0.000000000              -0.002760930               0.004531798              -0.002242379              -0.001601821               0.002044524               0.000442703               0.000000000               0.000000000               0.000000000               0.000000000              -0.002169357               0.004926679              -0.002062531              -0.001429341               0.002118656               0.000689315               0.000000000               0.000000000               0.000000000               0.000000000              -0.001626050               0.005173217              -0.001890525              -0.001256418               0.002143194               0.000886775               0.000000000               0.000000000               0.000000000               0.000000000              -0.001113155               0.005321851              -0.001726122              -0.001082663               0.002134820               0.001052157               0.000000000               0.000000000               0.000000000               0.000000000              -0.000621341               0.005394288              -0.001567972              -0.000907287               0.002100507               0.001193220               0.000000000               0.000000000               0.000000000               0.000000000              -0.000143988               0.005410199              -0.001419808              -0.000730269               0.002046804               0.001316535               0.000000000               0.000000000               0.000000000               0.000000000               0.000322941               0.005394781              -0.001272676              -0.000553244               0.001982657               0.001429413               0.000000000               0.000000000               0.000000000               0.000000000               0.000776897               0.005350825              -0.001109434              -0.000377517               0.001909429               0.001531913               0.000000000               0.000000000               0.000000000               0.000000000               0.001209573               0.005281416              -0.000914894              -0.000206587               0.001829317               0.001622729               0.000000000               0.000000000               0.000000000               0.000000000               0.001604408               0.005195931              -0.000670788              -0.000047839               0.001747906               0.001700067               0.000000000               0.000000000               0.000000000               0.000000000               0.001936552               0.005102988              -0.000365660               0.000088332               0.001671535               0.001759867               0.000000000               0.000000000               0.000000000               0.000000000               0.002124202               0.005071914              -0.000205955               0.000162585               0.001636426               0.001799011               0.000000000               0.000000000               0.000000000               0.000000000              -0.012379311              -0.001089437               0.001148027              -0.004506059               0.001138866              -0.003367193               0.000000000               0.000000000               0.000000000               0.000000000              -0.008562000              -0.000076601              -0.000197682              -0.003201172               0.001041517              -0.002159656               0.000000000               0.000000000               0.000000000               0.000000000              -0.005690814               0.000736339              -0.001441338              -0.002226095               0.000987471              -0.001238625               0.000000000               0.000000000               0.000000000               0.000000000              -0.004131878               0.001745287              -0.001830880              -0.001767613               0.001170958              -0.000596655               0.000000000               0.000000000               0.000000000               0.000000000              -0.003144204               0.002650323              -0.001881769              -0.001510364               0.001386885              -0.000123479               0.000000000               0.000000000               0.000000000               0.000000000              -0.002423254               0.003373638              -0.001796213              -0.001330423               0.001568008               0.000237586               0.000000000               0.000000000               0.000000000               0.000000000              -0.001830799               0.003913561              -0.001672655              -0.001175742               0.001696421               0.000520678               0.000000000               0.000000000               0.000000000               0.000000000              -0.001303751               0.004319871              -0.001545855              -0.001028889               0.001782905               0.000754016               0.000000000               0.000000000               0.000000000               0.000000000              -0.000805091               0.004620210              -0.001421408              -0.000879434               0.001833199               0.000953765               0.000000000               0.000000000               0.000000000               0.000000000              -0.000313450               0.004829360              -0.001304454              -0.000721213               0.001850174               0.001128962               0.000000000               0.000000000               0.000000000               0.000000000               0.000183873               0.004973517              -0.001197125              -0.000552736               0.001842068               0.001289331               0.000000000               0.000000000               0.000000000               0.000000000               0.000691558               0.005070217              -0.001091119              -0.000374443               0.001814869               0.001440427               0.000000000               0.000000000               0.000000000               0.000000000               0.001212827               0.005126507              -0.000970146              -0.000186003               0.001770820               0.001584816               0.000000000               0.000000000               0.000000000               0.000000000               0.001748400               0.005145173              -0.000818741               0.000012502               0.001710873               0.001723375               0.000000000               0.000000000               0.000000000               0.000000000               0.002298946               0.005126651              -0.000618327               0.000221271               0.001635110               0.001856381               0.000000000               0.000000000               0.000000000               0.000000000               0.002860732               0.005076759              -0.000346410               0.000438175               0.001546178               0.001984353               0.000000000               0.000000000               0.000000000               0.000000000               0.003250494               0.005084744              -0.000203834               0.000583337               0.001500452               0.002083789               0.000000000               0.000000000               0.000000000               0.000000000              -0.013572020              -0.001239077               0.000671587              -0.004934620               0.001231839              -0.003702780               0.000000000               0.000000000               0.000000000               0.000000000              -0.009214227              -0.000555304              -0.000068914              -0.003385920               0.000943532              -0.002442387               0.000000000               0.000000000               0.000000000               0.000000000              -0.005818823              -0.000094471              -0.000762859              -0.002170248               0.000691921              -0.001478327               0.000000000               0.000000000               0.000000000               0.000000000              -0.004008749               0.000817990              -0.000998370              -0.001605528               0.000807833              -0.000797695               0.000000000               0.000000000               0.000000000               0.000000000              -0.002911836               0.001739474              -0.001043650              -0.001309370               0.001016274              -0.000293096               0.000000000               0.000000000               0.000000000               0.000000000              -0.002151933               0.002526833              -0.001006392              -0.001122826               0.001216544               0.000093718               0.000000000               0.000000000               0.000000000               0.000000000              -0.001555928               0.003157414              -0.000942209              -0.000978148               0.001378510               0.000400362               0.000000000               0.000000000               0.000000000               0.000000000              -0.001038390               0.003667543              -0.000872510              -0.000847837               0.001505114               0.000657277               0.000000000               0.000000000               0.000000000               0.000000000              -0.000548847               0.004073031              -0.000805640              -0.000714945               0.001595978               0.000881033               0.000000000               0.000000000               0.000000000               0.000000000              -0.000061013               0.004384744              -0.000744423              -0.000570972               0.001651890               0.001080919               0.000000000               0.000000000               0.000000000               0.000000000               0.000440368               0.004622484              -0.000688235              -0.000412672               0.001678370               0.001265698               0.000000000               0.000000000               0.000000000               0.000000000               0.000965789               0.004801827              -0.000632927              -0.000238057               0.001679945               0.001441888               0.000000000               0.000000000               0.000000000               0.000000000               0.001529749               0.004938338              -0.000570127              -0.000043637               0.001660642               0.001617005               0.000000000               0.000000000               0.000000000               0.000000000               0.002147155               0.005036157              -0.000490657               0.000175662               0.001620148               0.001795810               0.000000000               0.000000000               0.000000000               0.000000000               0.002831294               0.005081094              -0.000380095               0.000426594               0.001551483               0.001978077               0.000000000               0.000000000               0.000000000               0.000000000               0.003600015               0.005062899              -0.000218018               0.000717136               0.001448571               0.002165707               0.000000000               0.000000000               0.000000000               0.000000000               0.004186366               0.005100940              -0.000133169               0.000932260               0.001389543               0.002321803               0.000000000               0.000000000               0.000000000               0.000000000               0.000000000               0.000000000               0.000000000               0.000000000               0.000000000               0.000000000               0.000000000               0.000000000               0.000000000               0.000000000               0.000000000               0.000000000               0.000000000               0.000000000               0.000000000               0.000000000               0.000000000               0.000000000               0.000000000               0.000000000               0.000000000               0.000000000               0.000000000               0.000000000               0.000000000               0.000000000               0.000000000               0.000000000               0.000000000               0.000000000               0.000000000               0.000000000               0.000000000               0.000000000               0.000000000               0.000000000               0.000000000               0.000000000               0.000000000               0.000000000               0.000000000               0.000000000               0.000000000               0.000000000               0.000000000               0.000000000               0.000000000               0.000000000               0.000000000               0.000000000               0.000000000               0.000000000               0.000000000               0.000000000               0.000000000               0.000000000               0.000000000               0.000000000               0.000000000               0.000000000               0.000000000               0.000000000               0.000000000               0.000000000               0.000000000               0.000000000               0.000000000               0.000000000               0.000000000               0.000000000               0.000000000               0.000000000               0.000000000               0.000000000               0.000000000               0.000000000               0.000000000               0.000000000               0.000000000               0.000000000               0.000000000               0.000000000               0.000000000               0.000000000               0.000000000               0.000000000               0.000000000               0.000000000               0.000000000               0.000000000               0.000000000               0.000000000               0.000000000               0.000000000               0.000000000               0.000000000               0.000000000               0.000000000               0.000000000               0.000000000               0.000000000               0.000000000               0.000000000               0.000000000               0.000000000               0.000000000               0.000000000               0.000000000               0.000000000               0.000000000               0.000000000               0.000000000               0.000000000               0.000000000               0.000000000               0.000000000               0.000000000               0.000000000               0.000000000               0.000000000               0.000000000               0.000000000               0.000000000               0.000000000               0.000000000               0.000000000               0.000000000               0.000000000               0.000000000               0.000000000               0.000000000               0.000000000               0.000000000               0.000000000               0.000000000               0.000000000               0.000000000               0.000000000               0.000000000               0.000000000               0.000000000               0.000000000               0.000000000               0.000000000               0.000000000               0.000000000               0.000000000               0.000000000               0.000000000               0.000000000               0.000000000               0.000000000               0.000000000               0.000000000               0.000000000               0.000000000               0.000000000               0.000000000               0.000000000               0.000000000               0.000000000               0.000000000               0.000000000               0.000000000               0.000000000               0.000000000               0.000000000               0.000000000               0.000000000               0.000000000               0.000000000               0.000000000               0.000000000               0.000000000               0.000000000               0.000000000               0.000000000               0.000000000               0.000000000               0.000000000               0.000000000               0.000000000               0.000000000               0.000000000               0.000000000               0.000000000               0.000000000               0.000000000               0.000000000               0.000000000               0.000000000               0.000000000               0.000000000               0.000000000               0.000000000               0.000000000               0.000000000               0.000000000               0.000000000               0.000000000               0.000000000               0.000000000               0.000000000               0.000000000               0.000000000               0.000000000               0.000000000               0.000000000               0.000000000               0.000000000               0.000000000               0.000000000               0.000000000               0.000000000               0.000000000               0.000000000               0.000000000               0.000000000               0.000000000               0.000000000               0.000000000               0.000000000               0.000000000               0.000000000               0.000000000               0.000000000               0.000000000               0.000000000               0.000000000               0.000000000               0.000000000               0.000000000               0.000000000               0.000000000               0.000000000               0.000000000               0.000000000               0.000000000               0.000000000               0.000000000               0.000000000               0.000000000               0.000000000               0.000000000               0.000000000               0.000000000               0.000000000               0.000000000               0.000000000               0.000000000               0.000000000               0.000000000               0.000000000               0.000000000               0.000000000               0.000000000               0.000000000               0.000000000               0.000000000               0.000000000               0.000000000               0.000000000               0.000000000               0.000000000               0.000000000               0.000000000               0.000000000               0.000000000               0.000000000               0.000000000               0.000000000               0.000000000               0.000000000               0.000000000               0.000000000               0.000000000               0.000000000               0.000000000               0.000000000               0.000000000               0.000000000               0.000000000               0.000000000               0.000000000               0.000000000               0.000000000               0.000000000               0.000000000               0.000000000               0.000000000               0.000000000               0.000000000               0.000000000               0.000000000               0.000000000               0.000000000               0.000000000               0.000000000               0.000000000               0.000000000               0.000000000               0.000000000               0.000000000               0.000000000               0.000000000               0.000000000               0.000000000               0.000000000               0.000000000               0.000000000               0.000000000               0.000000000               0.000000000               0.000000000               0.000000000               0.000000000               0.000000000               0.000000000               0.000000000               0.000000000               0.000000000               0.000000000               0.000000000               0.000000000               0.000000000               0.000000000               0.000000000               0.000000000               0.000000000               0.000000000               0.000000000               0.000000000               0.000000000               0.000000000               0.000000000               0.000000000               0.000000000               0.000000000               0.000000000               0.000000000               0.002329138               0.023551041               0.001598674              -0.002070449               0.008540418               0.006469969               0.000000000               0.000000000               0.000000000               0.000000000               0.002115107               0.018201303               0.000729088              -0.001481994               0.006561038               0.005079044               0.000000000               0.000000000               0.000000000               0.000000000               0.002590645               0.013909024              -0.000131374              -0.000767134               0.004892006               0.004124872               0.000000000               0.000000000               0.000000000               0.000000000               0.002316518               0.011491867              -0.000486228              -0.000567788               0.004019847               0.003452059               0.000000000               0.000000000               0.000000000               0.000000000               0.001851013               0.009958867              -0.000621938              -0.000550727               0.003503165               0.002952438               0.000000000               0.000000000               0.000000000               0.000000000               0.001380312               0.008873562              -0.000659153              -0.000591577               0.003155017               0.002563439               0.000000000               0.000000000               0.000000000               0.000000000               0.000968108               0.008026900              -0.000653219              -0.000640320               0.002889047               0.002248726               0.000000000               0.000000000               0.000000000               0.000000000               0.000629708               0.007308644              -0.000629095              -0.000677439               0.002662003               0.001984565               0.000000000               0.000000000               0.000000000               0.000000000               0.000363886               0.006661359              -0.000598205              -0.000696211               0.002452501               0.001756290               0.000000000               0.000000000               0.000000000               0.000000000               0.000160957               0.006055018              -0.000567567              -0.000696517               0.002250492               0.001553975               0.000000000               0.000000000               0.000000000               0.000000000               0.000009242               0.005468697              -0.000537355              -0.000680120               0.002049587               0.001369467               0.000000000               0.000000000               0.000000000               0.000000000              -0.000093702               0.004886996              -0.000498802              -0.000646011               0.001844319               0.001198308               0.000000000               0.000000000               0.000000000               0.000000000              -0.000149778               0.004291634              -0.000448629              -0.000592620               0.001628070               0.001035451               0.000000000               0.000000000               0.000000000               0.000000000              -0.000170867               0.003668697              -0.000389758              -0.000522661               0.001397107               0.000874446               0.000000000               0.000000000               0.000000000               0.000000000              -0.000152999               0.003009714              -0.000306469              -0.000433588               0.001147757               0.000714169               0.000000000               0.000000000               0.000000000               0.000000000              -0.000088039               0.002295937              -0.000177343              -0.000320006               0.000871973               0.000551967               0.000000000               0.000000000               0.000000000               0.000000000              -0.000101851               0.001761641              -0.000110006              -0.000258399               0.000673341               0.000414942               0.000000000               0.000000000               0.000000000               0.000000000               0.002483398               0.022079182               0.002963030              -0.001828620               0.007969193               0.006140573               0.000000000               0.000000000               0.000000000               0.000000000               0.001910670               0.017274140               0.001347904              -0.001442763               0.006238910               0.004796147               0.000000000               0.000000000               0.000000000               0.000000000               0.002005761               0.013544349              -0.000235548              -0.000940881               0.004828365               0.003887484               0.000000000               0.000000000               0.000000000               0.000000000               0.001601083               0.011407321              -0.000865287              -0.000825507               0.004077571               0.003252064               0.000000000               0.000000000               0.000000000               0.000000000               0.001127954               0.010015928              -0.001092850              -0.000829006               0.003614945               0.002785938               0.000000000               0.000000000               0.000000000               0.000000000               0.000708684               0.008996770              -0.001145407              -0.000858838               0.003285173               0.002426334               0.000000000               0.000000000               0.000000000               0.000000000               0.000369744               0.008175335              -0.001122461              -0.000883261               0.003019505               0.002136244               0.000000000               0.000000000               0.000000000               0.000000000               0.000112156               0.007462439              -0.001071120              -0.000890745               0.002784370               0.001893625               0.000000000               0.000000000               0.000000000               0.000000000              -0.000072839               0.006818035              -0.001013668              -0.000879567               0.002565845               0.001686277               0.000000000               0.000000000               0.000000000               0.000000000              -0.000203350               0.006221665              -0.000956297              -0.000853963               0.002358522               0.001504559               0.000000000               0.000000000               0.000000000               0.000000000              -0.000287866               0.005657148              -0.000896220              -0.000815092               0.002157394               0.001342303               0.000000000               0.000000000               0.000000000               0.000000000              -0.000331534               0.005110292              -0.000821715              -0.000763110               0.001957784               0.001194673               0.000000000               0.000000000               0.000000000               0.000000000              -0.000335931               0.004568472              -0.000727747              -0.000697031               0.001755152               0.001058121               0.000000000               0.000000000               0.000000000               0.000000000              -0.000301571               0.004028293              -0.000618372              -0.000616625               0.001548292               0.000931668               0.000000000               0.000000000               0.000000000               0.000000000              -0.000228736               0.003489925              -0.000472938              -0.000522015               0.001337302               0.000815286               0.000000000               0.000000000               0.000000000               0.000000000              -0.000122922               0.002956647              -0.000266361              -0.000415676               0.001124098               0.000708422               0.000000000               0.000000000               0.000000000               0.000000000              -0.000101688               0.002590928              -0.000160154              -0.000361998               0.000984300               0.000622302               0.000000000               0.000000000               0.000000000               0.000000000               0.002609561               0.019854909               0.003907147              -0.001503277               0.007119329               0.005616052               0.000000000               0.000000000               0.000000000               0.000000000               0.001540123               0.015895787               0.001777004              -0.001409424               0.005768351               0.004358926               0.000000000               0.000000000               0.000000000               0.000000000               0.001109924               0.013002882              -0.000278770              -0.001209136               0.004737296               0.003528160               0.000000000               0.000000000               0.000000000               0.000000000               0.000562605               0.011262712              -0.001049738              -0.001196859               0.004153153               0.002956294               0.000000000               0.000000000               0.000000000               0.000000000               0.000112539               0.010056537              -0.001308221              -0.001214862               0.003757099               0.002542237               0.000000000               0.000000000               0.000000000               0.000000000              -0.000214314               0.009117508              -0.001351384              -0.001220054               0.003445823               0.002225770               0.000000000               0.000000000               0.000000000               0.000000000              -0.000430850               0.008327600              -0.001307068              -0.001202516               0.003176678               0.001974161               0.000000000               0.000000000               0.000000000               0.000000000              -0.000562580               0.007626134              -0.001232689              -0.001164232               0.002930096               0.001765864               0.000000000               0.000000000               0.000000000               0.000000000              -0.000633283               0.006993899              -0.001154594              -0.001111716               0.002701848               0.001590132               0.000000000               0.000000000               0.000000000               0.000000000              -0.000662118               0.006415568              -0.001078531              -0.001050238               0.002488580               0.001438343               0.000000000               0.000000000               0.000000000               0.000000000              -0.000650455               0.005883334              -0.000997719              -0.000979335               0.002287537               0.001308201               0.000000000               0.000000000               0.000000000               0.000000000              -0.000599877               0.005382537              -0.000897865              -0.000897769               0.002093417               0.001195648               0.000000000               0.000000000               0.000000000               0.000000000              -0.000522064               0.004907903              -0.000776472              -0.000809260               0.001905704               0.001096444               0.000000000               0.000000000               0.000000000               0.000000000              -0.000419286               0.004463018              -0.000639848              -0.000715108               0.001726027               0.001010919               0.000000000               0.000000000               0.000000000               0.000000000              -0.000291396               0.004056004              -0.000469695              -0.000616273               0.001557412               0.000941139               0.000000000               0.000000000               0.000000000               0.000000000              -0.000149369               0.003706476              -0.000252817              -0.000519322               0.001408587               0.000889265               0.000000000               0.000000000               0.000000000               0.000000000              -0.000098014               0.003499815              -0.000144632              -0.000474231               0.001324670               0.000850439               0.000000000               0.000000000               0.000000000               0.000000000               0.002557453               0.017153321               0.004342354              -0.001185120               0.006112756               0.004927635               0.000000000               0.000000000               0.000000000               0.000000000               0.000974476               0.014256355               0.001996433              -0.001416614               0.005224275               0.003807661               0.000000000               0.000000000               0.000000000               0.000000000               0.000004398               0.012361043              -0.000227696              -0.001543477               0.004634799               0.003091322               0.000000000               0.000000000               0.000000000               0.000000000              -0.000625365               0.011052758              -0.001003352              -0.001616103               0.004222917               0.002606814               0.000000000               0.000000000               0.000000000               0.000000000              -0.000989671               0.010029697              -0.001239164              -0.001624835               0.003884811               0.002259976               0.000000000               0.000000000               0.000000000               0.000000000              -0.001168517               0.009168248              -0.001262125              -0.001584221               0.003584126               0.001999904               0.000000000               0.000000000               0.000000000               0.000000000              -0.001227124               0.008409111              -0.001202117              -0.001511307               0.003306778               0.001795471               0.000000000               0.000000000               0.000000000               0.000000000              -0.001209985               0.007727876              -0.001117776              -0.001419726               0.003049174               0.001629449               0.000000000               0.000000000               0.000000000               0.000000000              -0.001147568               0.007117180              -0.001037917              -0.001319983               0.002812364               0.001492381               0.000000000               0.000000000               0.000000000               0.000000000              -0.001058045               0.006569464              -0.000962339              -0.001217947               0.002595782               0.001377835               0.000000000               0.000000000               0.000000000               0.000000000              -0.000942399               0.006071188              -0.000879175              -0.001112296               0.002394474               0.001282178               0.000000000               0.000000000               0.000000000               0.000000000              -0.000800269               0.005611958              -0.000775097              -0.001001593               0.002204498               0.001202905               0.000000000               0.000000000               0.000000000               0.000000000              -0.000639289               0.005198545              -0.000653668              -0.000889549               0.002029347               0.001139798               0.000000000               0.000000000               0.000000000               0.000000000              -0.000474601               0.004835835              -0.000519324              -0.000782453               0.001872746               0.001090293               0.000000000               0.000000000               0.000000000               0.000000000              -0.000306670               0.004535628              -0.000364616              -0.000681953               0.001739179               0.001057225               0.000000000               0.000000000               0.000000000               0.000000000              -0.000145471               0.004323732              -0.000189194              -0.000595017               0.001639568               0.001044552               0.000000000               0.000000000               0.000000000               0.000000000              -0.000080795               0.004224185              -0.000104211              -0.000558320               0.001594154               0.001035834               0.000000000               0.000000000               0.000000000               0.000000000               0.002194164               0.014249175               0.004283619              -0.000958337               0.005069122               0.004110785               0.000000000               0.000000000               0.000000000               0.000000000               0.000215330               0.012532173               0.002039717              -0.001485770               0.004672606               0.003186835               0.000000000               0.000000000               0.000000000               0.000000000              -0.001181927               0.011668083              -0.000056231              -0.001901728               0.004523232               0.002621503               0.000000000               0.000000000               0.000000000               0.000000000              -0.001785445               0.010757031              -0.000734397              -0.002014166               0.004257030               0.002242864               0.000000000               0.000000000               0.000000000               0.000000000              -0.001987631               0.009896116              -0.000924465              -0.001982371               0.003959463               0.001977091               0.000000000               0.000000000               0.000000000               0.000000000              -0.001977693               0.009102998              -0.000933233              -0.001879505               0.003660804               0.001781299               0.000000000               0.000000000               0.000000000               0.000000000              -0.001857780               0.008375142              -0.000877691              -0.001743556               0.003372871               0.001629315               0.000000000               0.000000000               0.000000000               0.000000000              -0.001683156               0.007723149              -0.000808522              -0.001596573               0.003106548               0.001509975               0.000000000               0.000000000               0.000000000               0.000000000              -0.001487543               0.007144129              -0.000747833              -0.001450841               0.002864966               0.001414125               0.000000000               0.000000000               0.000000000               0.000000000              -0.001285283               0.006624187              -0.000693358              -0.001310001               0.002644707               0.001334706               0.000000000               0.000000000               0.000000000               0.000000000              -0.001074346               0.006152595              -0.000626345              -0.001171951               0.002441495               0.001269544               0.000000000               0.000000000               0.000000000               0.000000000              -0.000856607               0.005725512              -0.000541036              -0.001036914               0.002254123               0.001217209               0.000000000               0.000000000               0.000000000               0.000000000              -0.000635166               0.005356944              -0.000444495              -0.000907803               0.002088231               0.001180428               0.000000000               0.000000000               0.000000000               0.000000000              -0.000432630               0.005056679              -0.000337251              -0.000794319               0.001950316               0.001155997               0.000000000               0.000000000               0.000000000               0.000000000              -0.000256400               0.004835047              -0.000222576              -0.000700529               0.001845176               0.001144647               0.000000000               0.000000000               0.000000000               0.000000000              -0.000111170               0.004705064              -0.000109949              -0.000629820               0.001778279               0.001148459               0.000000000               0.000000000               0.000000000               0.000000000              -0.000053860               0.004659335              -0.000057652              -0.000602613               0.001753967               0.001151354               0.000000000               0.000000000               0.000000000               0.000000000               0.001464459               0.011375730               0.003822661              -0.000872795               0.004082803               0.003210008               0.000000000               0.000000000               0.000000000               0.000000000              -0.000683830               0.010851502               0.001969724              -0.001612871               0.004154754               0.002541883               0.000000000               0.000000000               0.000000000               0.000000000              -0.002311058               0.010933895               0.000246088              -0.002233378               0.004389054               0.002155676               0.000000000               0.000000000               0.000000000               0.000000000              -0.002764435               0.010349910              -0.000285926              -0.002330396               0.004226734               0.001896338               0.000000000               0.000000000               0.000000000               0.000000000              -0.002744887               0.009623286              -0.000442106              -0.002232238               0.003951809               0.001719571               0.000000000               0.000000000               0.000000000               0.000000000              -0.002523995               0.008894406              -0.000462562              -0.002058294               0.003650870               0.001592576               0.000000000               0.000000000               0.000000000               0.000000000              -0.002227805               0.008211808              -0.000437571              -0.001861898               0.003357875               0.001495976               0.000000000               0.000000000               0.000000000               0.000000000              -0.001913072               0.007599202              -0.000407830              -0.001667298               0.003088808               0.001421510               0.000000000               0.000000000               0.000000000               0.000000000              -0.001605351               0.007051621              -0.000384296              -0.001483456               0.002845002               0.001361546               0.000000000               0.000000000               0.000000000               0.000000000              -0.001313792               0.006550248              -0.000364624              -0.001311450               0.002620544               0.001309094               0.000000000               0.000000000               0.000000000               0.000000000              -0.001032239               0.006096065              -0.000329770              -0.001149095               0.002415033               0.001265938               0.000000000               0.000000000               0.000000000               0.000000000              -0.000767334               0.005694037              -0.000274581              -0.000999502               0.002231161               0.001231659               0.000000000               0.000000000               0.000000000               0.000000000              -0.000525068               0.005362013              -0.000215564              -0.000867150               0.002076370               0.001209220               0.000000000               0.000000000               0.000000000               0.000000000              -0.000318075               0.005114578              -0.000153643              -0.000758599               0.001957709               0.001199110               0.000000000               0.000000000               0.000000000               0.000000000              -0.000159744               0.004952394              -0.000090801              -0.000678952               0.001877099               0.001198147               0.000000000               0.000000000               0.000000000               0.000000000              -0.000057751               0.004863997              -0.000039445              -0.000629655               0.001831201               0.001201546               0.000000000               0.000000000               0.000000000               0.000000000              -0.000026642               0.004833062              -0.000019782              -0.000614122               0.001815712               0.001201590               0.000000000               0.000000000               0.000000000               0.000000000               0.000403850               0.008725394               0.003073639              -0.000939231               0.003221511               0.002282281               0.000000000               0.000000000               0.000000000               0.000000000              -0.001667164               0.009314337               0.001842330              -0.001789475               0.003701239               0.001911764               0.000000000               0.000000000               0.000000000               0.000000000              -0.003267628               0.010158701               0.000664262              -0.002495192               0.004217930               0.001722738               0.000000000               0.000000000               0.000000000               0.000000000              -0.003461220               0.009827949               0.000268335              -0.002526445               0.004118098               0.001591653               0.000000000               0.000000000               0.000000000               0.000000000              -0.003195694               0.009217140               0.000108461              -0.002350522               0.003855857               0.001505335               0.000000000               0.000000000               0.000000000               0.000000000              -0.002776926               0.008559367               0.000043695              -0.002111263               0.003556848               0.001445585               0.000000000               0.000000000               0.000000000               0.000000000              -0.002328760               0.007934002               0.000013408              -0.001865030               0.003266318               0.001401287               0.000000000               0.000000000               0.000000000               0.000000000              -0.001901839               0.007365787              -0.000009052              -0.001633909               0.002999874               0.001365965               0.000000000               0.000000000               0.000000000               0.000000000              -0.001515806               0.006839615              -0.000031279              -0.001423376               0.002754308               0.001330932               0.000000000               0.000000000               0.000000000               0.000000000              -0.001169583               0.006352881              -0.000051305              -0.001232701               0.002528506               0.001295805               0.000000000               0.000000000               0.000000000               0.000000000              -0.000854985               0.005913018              -0.000057838              -0.001059744               0.002324234               0.001264490               0.000000000               0.000000000               0.000000000               0.000000000              -0.000577949               0.005546866              -0.000046634              -0.000910087               0.002152299               0.001242212               0.000000000               0.000000000               0.000000000               0.000000000              -0.000348590               0.005271208              -0.000036327              -0.000789620               0.002020259               0.001230638               0.000000000               0.000000000               0.000000000               0.000000000              -0.000172982               0.005085455              -0.000027195              -0.000700548               0.001928651               0.001228102               0.000000000               0.000000000               0.000000000               0.000000000              -0.000061502               0.004975083              -0.000013236              -0.000644947               0.001873327               0.001228380               0.000000000               0.000000000               0.000000000               0.000000000              -0.000010892               0.004918065              -0.000003157              -0.000618841               0.001845619               0.001226778               0.000000000               0.000000000               0.000000000               0.000000000              -0.000004505               0.004897007              -0.000002397              -0.000613814               0.001836924               0.001223110               0.000000000               0.000000000               0.000000000               0.000000000              -0.000852418               0.006498686               0.002165315              -0.001131991               0.002543537               0.001411546               0.000000000               0.000000000               0.000000000               0.000000000              -0.002626909               0.007938829               0.001703399              -0.001977440               0.003305396               0.001327956               0.000000000               0.000000000               0.000000000               0.000000000              -0.004013568               0.009372454               0.001163879              -0.002676638               0.004016333               0.001339694               0.000000000               0.000000000               0.000000000               0.000000000              -0.003928561               0.009308918               0.000857043              -0.002636819               0.003981881               0.001345062               0.000000000               0.000000000               0.000000000               0.000000000              -0.003454624               0.008846646               0.000662334              -0.002401309               0.003749289               0.001347980               0.000000000               0.000000000               0.000000000               0.000000000              -0.002881053               0.008282815               0.000530505              -0.002115742               0.003466158               0.001350416               0.000000000               0.000000000               0.000000000               0.000000000              -0.002323234               0.007723519               0.000435191              -0.001836648               0.003186697               0.001350048               0.000000000               0.000000000               0.000000000               0.000000000              -0.001816922               0.007192823               0.000359741              -0.001580445               0.002924399               0.001343954               0.000000000               0.000000000               0.000000000               0.000000000              -0.001369049               0.006690183               0.000294133              -0.001349663               0.002679926               0.001330263               0.000000000               0.000000000               0.000000000               0.000000000              -0.000984480               0.006217884               0.000233704              -0.001146413               0.002454745               0.001308332               0.000000000               0.000000000               0.000000000               0.000000000              -0.000655444               0.005797847               0.000179063              -0.000970520               0.002256103               0.001285583               0.000000000               0.000000000               0.000000000               0.000000000              -0.000378143               0.005464808               0.000129702              -0.000824903               0.002096552               0.001271649               0.000000000               0.000000000               0.000000000               0.000000000              -0.000172452               0.005228241               0.000083314              -0.000718198               0.001982129               0.001263931               0.000000000               0.000000000               0.000000000               0.000000000              -0.000043046               0.005077145               0.000045180              -0.000650784               0.001909293               0.001258509               0.000000000               0.000000000               0.000000000               0.000000000               0.000018505               0.004992875               0.000021434              -0.000617169               0.001869998               0.001252829               0.000000000               0.000000000               0.000000000               0.000000000               0.000029288               0.004957720               0.000006905              -0.000608731               0.001855467               0.001246736               0.000000000               0.000000000               0.000000000               0.000000000               0.000023400               0.004952949               0.000000973              -0.000610342               0.001854414               0.001244072               0.000000000               0.000000000               0.000000000               0.000000000              -0.002303148               0.004438560               0.001219023              -0.001418497               0.001952337               0.000533840               0.000000000               0.000000000               0.000000000               0.000000000              -0.003427689               0.006336314               0.001551982              -0.002077418               0.002804556               0.000727138               0.000000000               0.000000000               0.000000000               0.000000000              -0.004451905               0.008195429               0.001687232              -0.002693887               0.003629744               0.000935857               0.000000000               0.000000000               0.000000000               0.000000000              -0.004220530               0.008535006               0.001476366              -0.002649568               0.003728163               0.001078594               0.000000000               0.000000000               0.000000000               0.000000000              -0.003666749               0.008358121               0.001248301              -0.002419790               0.003592609               0.001172819               0.000000000               0.000000000               0.000000000               0.000000000              -0.003043761               0.007999581               0.001047596              -0.002141353               0.003380284               0.001238932               0.000000000               0.000000000               0.000000000               0.000000000              -0.002445033               0.007578771               0.000886016              -0.001864229               0.003147641               0.001283412               0.000000000               0.000000000               0.000000000               0.000000000              -0.001903311               0.007141738               0.000757882              -0.001606455               0.002916041               0.001309586               0.000000000               0.000000000               0.000000000               0.000000000              -0.001426730               0.006706847               0.000645356              -0.001373376               0.002693385               0.001320009               0.000000000               0.000000000               0.000000000               0.000000000              -0.001017962               0.006285523               0.000539501              -0.001167423               0.002484295               0.001316871               0.000000000               0.000000000               0.000000000               0.000000000              -0.000669615               0.005903511               0.000438458              -0.000989042               0.002297498               0.001308456               0.000000000               0.000000000               0.000000000               0.000000000              -0.000377604               0.005580372               0.000336307              -0.000839146               0.002139820               0.001300675               0.000000000               0.000000000               0.000000000               0.000000000              -0.000154499               0.005328194               0.000235469              -0.000723960               0.002017367               0.001293407               0.000000000               0.000000000               0.000000000               0.000000000              -0.000004988               0.005157616               0.000148153              -0.000646571               0.001934712               0.001288141               0.000000000               0.000000000               0.000000000               0.000000000               0.000072949               0.005053450               0.000075657              -0.000604324               0.001885908               0.001281584               0.000000000               0.000000000               0.000000000               0.000000000               0.000093084               0.005007771               0.000023857              -0.000591063               0.001866262               0.001275198               0.000000000               0.000000000               0.000000000               0.000000000               0.000087366               0.005000992               0.000004164              -0.000592360               0.001864434               0.001272074               0.000000000               0.000000000               0.000000000               0.000000000              -0.004144936               0.002577270               0.000304377              -0.001876506               0.001484582              -0.000391924               0.000000000               0.000000000               0.000000000               0.000000000              -0.004326710               0.004719599               0.001337498              -0.002212461               0.002310670               0.000098209               0.000000000               0.000000000               0.000000000               0.000000000              -0.004793031               0.006802774               0.002107377              -0.002647727               0.003150144               0.000502417               0.000000000               0.000000000               0.000000000               0.000000000              -0.004438123               0.007525060               0.002061035              -0.002604923               0.003376635               0.000771713               0.000000000               0.000000000               0.000000000               0.000000000              -0.003848674               0.007675851               0.001838543              -0.002402729               0.003359501               0.000956772               0.000000000               0.000000000               0.000000000               0.000000000              -0.003214101               0.007562905               0.001595460              -0.002150646               0.003237825               0.001087179               0.000000000               0.000000000               0.000000000               0.000000000              -0.002598850               0.007324276               0.001382900              -0.001890099               0.003071434               0.001181335               0.000000000               0.000000000               0.000000000               0.000000000              -0.002030938               0.007027806               0.001206895              -0.001640074               0.002889270               0.001249196               0.000000000               0.000000000               0.000000000               0.000000000              -0.001526307               0.006698137               0.001048971              -0.001409629               0.002702566               0.001292937               0.000000000               0.000000000               0.000000000               0.000000000              -0.001085225               0.006355603               0.000904331              -0.001201407               0.002518982               0.001317575               0.000000000               0.000000000               0.000000000               0.000000000              -0.000701452               0.006022896               0.000768344              -0.001015904               0.002346247               0.001330343               0.000000000               0.000000000               0.000000000               0.000000000              -0.000372134               0.005721341               0.000625320              -0.000854716               0.002192000               0.001337284               0.000000000               0.000000000               0.000000000               0.000000000              -0.000102970               0.005466442               0.000475626              -0.000721917               0.002062768               0.001340851               0.000000000               0.000000000               0.000000000               0.000000000               0.000091327               0.005267720               0.000333172              -0.000624216               0.001963961               0.001339745               0.000000000               0.000000000               0.000000000               0.000000000               0.000202743               0.005123851               0.000199382              -0.000564451               0.001896084               0.001331632               0.000000000               0.000000000               0.000000000               0.000000000               0.000239252               0.005043200               0.000084221              -0.000540679               0.001861276               0.001320597               0.000000000               0.000000000               0.000000000               0.000000000               0.000226189               0.005011033               0.000029309              -0.000541557               0.001850846               0.001309290               0.000000000               0.000000000               0.000000000               0.000000000              -0.006251534               0.001052375              -0.000497329              -0.002475869               0.001176074              -0.001299796               0.000000000               0.000000000               0.000000000               0.000000000              -0.005366731               0.003185816               0.001044016              -0.002410747               0.001865508              -0.000545239               0.000000000               0.000000000               0.000000000               0.000000000              -0.005067884               0.005210454               0.002309331              -0.002551758               0.002587385               0.000035627               0.000000000               0.000000000               0.000000000               0.000000000              -0.004501744               0.006201260               0.002462607              -0.002463306               0.002888167               0.000424861               0.000000000               0.000000000               0.000000000               0.000000000              -0.003863295               0.006649132               0.002300475              -0.002279872               0.002976312               0.000696440               0.000000000               0.000000000               0.000000000               0.000000000              -0.003224037               0.006796533               0.002060227              -0.002058576               0.002951680               0.000893104               0.000000000               0.000000000               0.000000000               0.000000000              -0.002612484               0.006778827               0.001828809              -0.001827031               0.002868596               0.001041565               0.000000000               0.000000000               0.000000000               0.000000000              -0.002044130               0.006657051               0.001623035              -0.001598677               0.002751887               0.001153210               0.000000000               0.000000000               0.000000000               0.000000000              -0.001521704               0.006466662               0.001437305              -0.001378969               0.002615189               0.001236220               0.000000000               0.000000000               0.000000000               0.000000000              -0.001049255               0.006237367               0.001267775              -0.001173139               0.002470148               0.001297009               0.000000000               0.000000000               0.000000000               0.000000000              -0.000631111               0.005993780               0.001106708              -0.000985887               0.002326535               0.001340648               0.000000000               0.000000000               0.000000000               0.000000000              -0.000262887               0.005752810               0.000940657              -0.000817682               0.002190145               0.001372463               0.000000000               0.000000000               0.000000000               0.000000000               0.000056955               0.005534925               0.000761710              -0.000670506               0.002068459               0.001397953               0.000000000               0.000000000               0.000000000               0.000000000               0.000309850               0.005347308               0.000573680              -0.000552218               0.001966491               0.001414273               0.000000000               0.000000000               0.000000000               0.000000000               0.000474133               0.005189708               0.000380920              -0.000470913               0.001886856               0.001415944               0.000000000               0.000000000               0.000000000               0.000000000               0.000539974               0.005077425               0.000186952              -0.000432187               0.001836520               0.001404334               0.000000000               0.000000000               0.000000000               0.000000000               0.000528243               0.005023113               0.000085312              -0.000429797               0.001817620               0.001387823               0.000000000               0.000000000               0.000000000               0.000000000              -0.008473053              -0.000046710              -0.001065598              -0.003171554               0.001041607              -0.002129946               0.000000000               0.000000000               0.000000000               0.000000000              -0.006490693               0.001826323               0.000715337              -0.002662297               0.001496196              -0.001166100               0.000000000               0.000000000               0.000000000               0.000000000              -0.005304683               0.003555800               0.002259677              -0.002433727               0.001996495              -0.000437232               0.000000000               0.000000000               0.000000000               0.000000000              -0.004439897               0.004667886               0.002587699              -0.002248443               0.002305426               0.000056983               0.000000000               0.000000000               0.000000000               0.000000000              -0.003712472               0.005349091               0.002513793              -0.002060809               0.002469948               0.000409139               0.000000000               0.000000000               0.000000000               0.000000000              -0.003056819               0.005746155               0.002313032              -0.001864573               0.002536889               0.000672317               0.000000000               0.000000000               0.000000000               0.000000000              -0.002458154               0.005948374               0.002094871              -0.001665351               0.002537888               0.000872537               0.000000000               0.000000000               0.000000000               0.000000000              -0.001902897               0.006011314               0.001891900              -0.001464998               0.002492083               0.001027086               0.000000000               0.000000000               0.000000000               0.000000000              -0.001377982               0.005986978               0.001705083              -0.001265113               0.002417343               0.001152230               0.000000000               0.000000000               0.000000000               0.000000000              -0.000888256               0.005902748               0.001529249              -0.001070938               0.002324542               0.001253604               0.000000000               0.000000000               0.000000000               0.000000000              -0.000439016               0.005780913               0.001362331              -0.000887244               0.002222699               0.001335456               0.000000000               0.000000000               0.000000000               0.000000000              -0.000023722               0.005644288               0.001194099              -0.000714431               0.002119554               0.001405123               0.000000000               0.000000000               0.000000000               0.000000000               0.000356245               0.005501861               0.001009805              -0.000554140               0.002018649               0.001464509               0.000000000               0.000000000               0.000000000               0.000000000               0.000689365               0.005361054               0.000801973              -0.000411619               0.001924206               0.001512587               0.000000000               0.000000000               0.000000000               0.000000000               0.000949760               0.005229001               0.000566280              -0.000297464               0.001842138               0.001544673               0.000000000               0.000000000               0.000000000               0.000000000               0.001106615               0.005109344               0.000298134              -0.000223687               0.001777660               0.001553973               0.000000000               0.000000000               0.000000000               0.000000000               0.001152832               0.005050715               0.000155432              -0.000199027               0.001749897               0.001550870               0.000000000               0.000000000               0.000000000               0.000000000              -0.010599536              -0.000730365              -0.001295008              -0.003883528               0.001051047              -0.002832481               0.000000000               0.000000000               0.000000000               0.000000000              -0.007604527               0.000723237               0.000416554              -0.002942099               0.001221770              -0.001720329               0.000000000               0.000000000               0.000000000               0.000000000              -0.005513372               0.002004367               0.001959010              -0.002318057               0.001440797              -0.000877260               0.000000000               0.000000000               0.000000000               0.000000000              -0.004295951               0.003105826               0.002378927              -0.001999207               0.001701665              -0.000297542               0.000000000               0.000000000               0.000000000               0.000000000              -0.003445300               0.003937331               0.002386137              -0.001784150               0.001907146               0.000122996               0.000000000               0.000000000               0.000000000               0.000000000              -0.002760930               0.004531798               0.002242379              -0.001601821               0.002044524               0.000442703               0.000000000               0.000000000               0.000000000               0.000000000              -0.002169357               0.004926679               0.002062531              -0.001429341               0.002118656               0.000689315               0.000000000               0.000000000               0.000000000               0.000000000              -0.001626050               0.005173217               0.001890525              -0.001256418               0.002143194               0.000886775               0.000000000               0.000000000               0.000000000               0.000000000              -0.001113155               0.005321851               0.001726122              -0.001082663               0.002134820               0.001052157               0.000000000               0.000000000               0.000000000               0.000000000              -0.000621341               0.005394288               0.001567972              -0.000907287               0.002100507               0.001193220               0.000000000               0.000000000               0.000000000               0.000000000              -0.000143988               0.005410199               0.001419808              -0.000730269               0.002046804               0.001316535               0.000000000               0.000000000               0.000000000               0.000000000               0.000322941               0.005394781               0.001272676              -0.000553244               0.001982657               0.001429413               0.000000000               0.000000000               0.000000000               0.000000000               0.000776897               0.005350825               0.001109434              -0.000377517               0.001909429               0.001531913               0.000000000               0.000000000               0.000000000               0.000000000               0.001209573               0.005281416               0.000914894              -0.000206587               0.001829317               0.001622729               0.000000000               0.000000000               0.000000000               0.000000000               0.001604408               0.005195931               0.000670788              -0.000047839               0.001747906               0.001700067               0.000000000               0.000000000               0.000000000               0.000000000               0.001936552               0.005102988               0.000365660               0.000088332               0.001671535               0.001759867               0.000000000               0.000000000               0.000000000               0.000000000               0.002124202               0.005071914               0.000205955               0.000162585               0.001636426               0.001799011               0.000000000               0.000000000               0.000000000               0.000000000              -0.012379311              -0.001089437              -0.001148027              -0.004506059               0.001138866              -0.003367193               0.000000000               0.000000000               0.000000000               0.000000000              -0.008562000              -0.000076601               0.000197682              -0.003201172               0.001041517              -0.002159656               0.000000000               0.000000000               0.000000000               0.000000000              -0.005690814               0.000736339               0.001441338              -0.002226095               0.000987471              -0.001238625               0.000000000               0.000000000               0.000000000               0.000000000              -0.004131878               0.001745287               0.001830880              -0.001767613               0.001170958              -0.000596655               0.000000000               0.000000000               0.000000000               0.000000000              -0.003144204               0.002650323               0.001881769              -0.001510364               0.001386885              -0.000123479               0.000000000               0.000000000               0.000000000               0.000000000              -0.002423254               0.003373638               0.001796213              -0.001330423               0.001568008               0.000237586               0.000000000               0.000000000               0.000000000               0.000000000              -0.001830799               0.003913561               0.001672655              -0.001175742               0.001696421               0.000520678               0.000000000               0.000000000               0.000000000               0.000000000              -0.001303751               0.004319871               0.001545855              -0.001028889               0.001782905               0.000754016               0.000000000               0.000000000               0.000000000               0.000000000              -0.000805091               0.004620210               0.001421408              -0.000879434               0.001833199               0.000953765               0.000000000               0.000000000               0.000000000               0.000000000              -0.000313450               0.004829360               0.001304454              -0.000721213               0.001850174               0.001128962               0.000000000               0.000000000               0.000000000               0.000000000               0.000183873               0.004973517               0.001197125              -0.000552736               0.001842068               0.001289331               0.000000000               0.000000000               0.000000000               0.000000000               0.000691558               0.005070217               0.001091119              -0.000374443               0.001814869               0.001440427               0.000000000               0.000000000               0.000000000               0.000000000               0.001212827               0.005126507               0.000970146              -0.000186003               0.001770820               0.001584816               0.000000000               0.000000000               0.000000000               0.000000000               0.001748400               0.005145173               0.000818741               0.000012502               0.001710873               0.001723375               0.000000000               0.000000000               0.000000000               0.000000000               0.002298946               0.005126651               0.000618327               0.000221271               0.001635110               0.001856381               0.000000000               0.000000000               0.000000000               0.000000000               0.002860732               0.005076759               0.000346410               0.000438175               0.001546178               0.001984353               0.000000000               0.000000000               0.000000000               0.000000000               0.003250494               0.005084744               0.000203834               0.000583337               0.001500452               0.002083789               0.000000000               0.000000000               0.000000000               0.000000000              -0.013572020              -0.001239077              -0.000671587              -0.004934620               0.001231839              -0.003702780               0.000000000               0.000000000               0.000000000               0.000000000              -0.009214227              -0.000555304               0.000068914              -0.003385920               0.000943532              -0.002442387               0.000000000               0.000000000               0.000000000               0.000000000              -0.005818823              -0.000094471               0.000762859              -0.002170248               0.000691921              -0.001478327               0.000000000               0.000000000               0.000000000               0.000000000              -0.004008749               0.000817990               0.000998370              -0.001605528               0.000807833              -0.000797695               0.000000000               0.000000000               0.000000000               0.000000000              -0.002911836               0.001739474               0.001043650              -0.001309370               0.001016274              -0.000293096               0.000000000               0.000000000               0.000000000               0.000000000              -0.002151933               0.002526833               0.001006392              -0.001122826               0.001216544               0.000093718               0.000000000               0.000000000               0.000000000               0.000000000              -0.001555928               0.003157414               0.000942209              -0.000978148               0.001378510               0.000400362               0.000000000               0.000000000               0.000000000               0.000000000              -0.001038390               0.003667543               0.000872510              -0.000847837               0.001505114               0.000657277               0.000000000               0.000000000               0.000000000               0.000000000              -0.000548847               0.004073031               0.000805640              -0.000714945               0.001595978               0.000881033               0.000000000               0.000000000               0.000000000               0.000000000              -0.000061013               0.004384744               0.000744423              -0.000570972               0.001651890               0.001080919               0.000000000               0.000000000               0.000000000               0.000000000               0.000440368               0.004622484               0.000688235              -0.000412672               0.001678370               0.001265698               0.000000000               0.000000000               0.000000000               0.000000000               0.000965789               0.004801827               0.000632927              -0.000238057               0.001679945               0.001441888               0.000000000               0.000000000               0.000000000               0.000000000               0.001529749               0.004938338               0.000570127              -0.000043637               0.001660642               0.001617005               0.000000000               0.000000000               0.000000000               0.000000000               0.002147155               0.005036157               0.000490657               0.000175662               0.001620148               0.001795810               0.000000000               0.000000000               0.000000000               0.000000000               0.002831294               0.005081094               0.000380095               0.000426594               0.001551483               0.001978077               0.000000000               0.000000000               0.000000000               0.000000000               0.003600015               0.005062899               0.000218018               0.000717136               0.001448571               0.002165707               0.000000000               0.000000000               0.000000000               0.000000000               0.004186366               0.005100940               0.000133169               0.000932260               0.001389543               0.002321803               0.000000000               0.000000000               0.000000000               0.000000000               0.000000000               0.000000000               0.000000000               0.000000000               0.000000000               0.000000000               0.000000000               0.000000000               0.000000000               0.000000000               0.000000000               0.000000000               0.000000000               0.000000000               0.000000000               0.000000000               0.000000000               0.000000000               0.000000000               0.000000000               0.000000000               0.000000000               0.000000000               0.000000000               0.000000000               0.000000000               0.000000000               0.000000000               0.000000000               0.000000000               0.000000000               0.000000000               0.000000000               0.000000000               0.000000000               0.000000000               0.000000000               0.000000000               0.000000000               0.000000000               0.000000000               0.000000000               0.000000000               0.000000000               0.000000000               0.000000000               0.000000000               0.000000000               0.000000000               0.000000000               0.000000000               0.000000000               0.000000000               0.000000000               0.000000000               0.000000000               0.000000000               0.000000000               0.000000000               0.000000000               0.000000000               0.000000000               0.000000000               0.000000000               0.000000000               0.000000000               0.000000000               0.000000000               0.000000000               0.000000000               0.000000000               0.000000000               0.000000000               0.000000000               0.000000000               0.000000000               0.000000000               0.000000000               0.000000000               0.000000000               0.000000000               0.000000000               0.000000000               0.000000000               0.000000000               0.000000000               0.000000000               0.000000000               0.000000000               0.000000000               0.000000000               0.000000000               0.000000000               0.000000000               0.000000000               0.000000000               0.000000000               0.000000000               0.000000000               0.000000000               0.000000000               0.000000000               0.000000000               0.000000000               0.000000000               0.000000000               0.000000000               0.000000000               0.000000000               0.000000000               0.000000000               0.000000000               0.000000000               0.000000000               0.000000000               0.000000000               0.000000000               0.000000000               0.000000000               0.000000000               0.000000000               0.000000000               0.000000000               0.000000000               0.000000000               0.000000000               0.000000000               0.000000000               0.000000000               0.000000000               0.000000000               0.000000000               0.000000000               0.000000000               0.000000000               0.000000000               0.000000000               0.000000000               0.000000000               0.000000000               0.000000000               0.000000000               0.000000000               0.000000000               0.000000000               0.000000000               0.000000000               0.000000000               0.000000000               0.000000000               0.000000000               0.000000000               0.000000000               0.000000000               0.000000000               0.000000000               0.000000000               0.000000000               0.000000000               0.000000000               0.000000000               0.000000000               0.000000000               0.000000000               0.000000000               0.000000000               0.000000000               0.000000000               0.000000000               0.000000000 </DataArray>
</PointData>
</Piece>
</UnstructuredGrid> </VTKFile>
