<?xml version="1.0"?>
<VTKFile type="UnstructuredGrid" version="0.1">
<UnstructuredGrid>
<Piece NumberOfPoints="      1156" NumberOfCells="      1024">
<Points>
<DataArray type="Float64"                                    Name="coordinates"                                                      NumberOfComponents=" 3" format="ascii">
              0.133000000               0.000000000               0.000000000               0.155937500               0.000000000               0.000000000               0.178875000               0.000000000               0.000000000               0.201812500               0.000000000               0.000000000               0.224750000               0.000000000               0.000000000               0.247687500               0.000000000               0.000000000               0.270625000               0.000000000               0.000000000               0.293562500               0.000000000               0.000000000               0.316500000               0.000000000               0.000000000               0.339437500               0.000000000               0.000000000               0.362375000               0.000000000               0.000000000               0.385312500               0.000000000               0.000000000               0.408250000               0.000000000               0.000000000               0.431187500               0.000000000               0.000000000               0.454125000               0.000000000               0.000000000               0.477062500               0.000000000               0.000000000               0.500000000               0.000000000               0.000000000               0.132359569               0.013036280               0.000000000               0.155337096               0.016127762               0.000000000               0.178314623               0.019219245               0.000000000               0.201292150               0.022310727               0.000000000               0.224269676               0.025402210               0.000000000               0.247247203               0.028493692               0.000000000               0.270224730               0.031585175               0.000000000               0.293202257               0.034676657               0.000000000               0.316179784               0.037768140               0.000000000               0.339157311               0.040859622               0.000000000               0.362134838               0.043951105               0.000000000               0.385112365               0.047042587               0.000000000               0.408089892               0.050134070               0.000000000               0.431067419               0.053225552               0.000000000               0.454044946               0.056317035               0.000000000               0.477022473               0.059408517               0.000000000               0.500000000               0.062500000               0.000000000               0.130444442               0.025947013               0.000000000               0.153541665               0.032137825               0.000000000               0.176638887               0.038328636               0.000000000               0.199736109               0.044519448               0.000000000               0.222833332               0.050710260               0.000000000               0.245930554               0.056901071               0.000000000               0.269027776               0.063091883               0.000000000               0.292124999               0.069282695               0.000000000               0.315222221               0.075473506               0.000000000               0.338319444               0.081664318               0.000000000               0.361416666               0.087855130               0.000000000               0.384513888               0.094045942               0.000000000               0.407611111               0.100236753               0.000000000               0.430708333               0.106427565               0.000000000               0.453805555               0.112618377               0.000000000               0.476902778               0.118809188               0.000000000               0.500000000               0.125000000               0.000000000               0.127273065               0.038607862               0.000000000               0.150568498               0.047913621               0.000000000               0.173863932               0.057219379               0.000000000               0.197159365               0.066525138               0.000000000               0.220454798               0.075830897               0.000000000               0.243750232               0.085136655               0.000000000               0.267045665               0.094442414               0.000000000               0.290341099               0.103748172               0.000000000               0.313636532               0.113053931               0.000000000               0.336931966               0.122359690               0.000000000               0.360227399               0.131665448               0.000000000               0.383522833               0.140971207               0.000000000               0.406818266               0.150276966               0.000000000               0.430113700               0.159582724               0.000000000               0.453409133               0.168888483               0.000000000               0.476704567               0.178194241               0.000000000               0.500000000               0.187500000               0.000000000               0.122875978               0.050896897               0.000000000               0.146446229               0.063340840               0.000000000               0.170016481               0.075784784               0.000000000               0.193586732               0.088228728               0.000000000               0.217156983               0.100672672               0.000000000               0.240727235               0.113116616               0.000000000               0.264297486               0.125560560               0.000000000               0.287867738               0.138004504               0.000000000               0.311437989               0.150448448               0.000000000               0.335008240               0.162892392               0.000000000               0.358578492               0.175336336               0.000000000               0.382148743               0.187780280               0.000000000               0.405718994               0.200224224               0.000000000               0.429289246               0.212668168               0.000000000               0.452859497               0.225112112               0.000000000               0.476429749               0.237556056               0.000000000               0.500000000               0.250000000               0.000000000               0.117295528               0.062695766               0.000000000               0.141214558               0.078308531               0.000000000               0.165133587               0.093921295               0.000000000               0.189052617               0.109534060               0.000000000               0.212971646               0.125146824               0.000000000               0.236890676               0.140759589               0.000000000               0.260809705               0.156372354               0.000000000               0.284728735               0.171985118               0.000000000               0.308647764               0.187597883               0.000000000               0.332566794               0.203210648               0.000000000               0.356485823               0.218823412               0.000000000               0.380404853               0.234436177               0.000000000               0.404323882               0.250048941               0.000000000               0.428242912               0.265661706               0.000000000               0.452161941               0.281274471               0.000000000               0.476080971               0.296887235               0.000000000               0.500000000               0.312500000               0.000000000               0.110585458               0.073890841               0.000000000               0.134923867               0.092710163               0.000000000               0.159262276               0.111529486               0.000000000               0.183600685               0.130348808               0.000000000               0.207939094               0.149168131               0.000000000               0.232277503               0.167987453               0.000000000               0.256615912               0.186806776               0.000000000               0.280954320               0.205626098               0.000000000               0.305292729               0.224445420               0.000000000               0.329631138               0.243264743               0.000000000               0.353969547               0.262084065               0.000000000               0.378307956               0.280903388               0.000000000               0.402646365               0.299722710               0.000000000               0.426984773               0.318542033               0.000000000               0.451323182               0.337361355               0.000000000               0.475661591               0.356180678               0.000000000               0.500000000               0.375000000               0.000000000               0.102810390               0.084374307               0.000000000               0.127634741               0.106444663               0.000000000               0.152459092               0.128515018               0.000000000               0.177283442               0.150585374               0.000000000               0.202107793               0.172655730               0.000000000               0.226932143               0.194726086               0.000000000               0.251756494               0.216796442               0.000000000               0.276580845               0.238866798               0.000000000               0.301405195               0.260937153               0.000000000               0.326229546               0.283007509               0.000000000               0.351053896               0.305077865               0.000000000               0.375878247               0.327148221               0.000000000               0.400702598               0.349218577               0.000000000               0.425526948               0.371288933               0.000000000               0.450351299               0.393359288               0.000000000               0.475175649               0.415429644               0.000000000               0.500000000               0.437500000               0.000000000               0.094045202               0.094045202               0.000000000               0.119417377               0.119417377               0.000000000               0.144789552               0.144789552               0.000000000               0.170161727               0.170161727               0.000000000               0.195533901               0.195533901               0.000000000               0.220906076               0.220906076               0.000000000               0.246278251               0.246278251               0.000000000               0.271650426               0.271650426               0.000000000               0.297022601               0.297022601               0.000000000               0.322394776               0.322394776               0.000000000               0.347766951               0.347766951               0.000000000               0.373139126               0.373139126               0.000000000               0.398511300               0.398511300               0.000000000               0.423883475               0.423883475               0.000000000               0.449255650               0.449255650               0.000000000               0.474627825               0.474627825               0.000000000               0.500000000               0.500000000               0.000000000               0.084374307               0.102810390               0.000000000               0.106444663               0.127634741               0.000000000               0.128515018               0.152459092               0.000000000               0.150585374               0.177283442               0.000000000               0.172655730               0.202107793               0.000000000               0.194726086               0.226932143               0.000000000               0.216796442               0.251756494               0.000000000               0.238866798               0.276580845               0.000000000               0.260937153               0.301405195               0.000000000               0.283007509               0.326229546               0.000000000               0.305077865               0.351053896               0.000000000               0.327148221               0.375878247               0.000000000               0.349218577               0.400702598               0.000000000               0.371288933               0.425526948               0.000000000               0.393359288               0.450351299               0.000000000               0.415429644               0.475175649               0.000000000               0.437500000               0.500000000               0.000000000               0.073890841               0.110585458               0.000000000               0.092710163               0.134923867               0.000000000               0.111529486               0.159262276               0.000000000               0.130348808               0.183600685               0.000000000               0.149168131               0.207939094               0.000000000               0.167987453               0.232277503               0.000000000               0.186806776               0.256615912               0.000000000               0.205626098               0.280954320               0.000000000               0.224445420               0.305292729               0.000000000               0.243264743               0.329631138               0.000000000               0.262084065               0.353969547               0.000000000               0.280903388               0.378307956               0.000000000               0.299722710               0.402646365               0.000000000               0.318542033               0.426984773               0.000000000               0.337361355               0.451323182               0.000000000               0.356180678               0.475661591               0.000000000               0.375000000               0.500000000               0.000000000               0.062695766               0.117295528               0.000000000               0.078308531               0.141214558               0.000000000               0.093921295               0.165133587               0.000000000               0.109534060               0.189052617               0.000000000               0.125146824               0.212971646               0.000000000               0.140759589               0.236890676               0.000000000               0.156372354               0.260809705               0.000000000               0.171985118               0.284728735               0.000000000               0.187597883               0.308647764               0.000000000               0.203210648               0.332566794               0.000000000               0.218823412               0.356485823               0.000000000               0.234436177               0.380404853               0.000000000               0.250048941               0.404323882               0.000000000               0.265661706               0.428242912               0.000000000               0.281274471               0.452161941               0.000000000               0.296887235               0.476080971               0.000000000               0.312500000               0.500000000               0.000000000               0.050896897               0.122875978               0.000000000               0.063340840               0.146446229               0.000000000               0.075784784               0.170016481               0.000000000               0.088228728               0.193586732               0.000000000               0.100672672               0.217156983               0.000000000               0.113116616               0.240727235               0.000000000               0.125560560               0.264297486               0.000000000               0.138004504               0.287867738               0.000000000               0.150448448               0.311437989               0.000000000               0.162892392               0.335008240               0.000000000               0.175336336               0.358578492               0.000000000               0.187780280               0.382148743               0.000000000               0.200224224               0.405718994               0.000000000               0.212668168               0.429289246               0.000000000               0.225112112               0.452859497               0.000000000               0.237556056               0.476429749               0.000000000               0.250000000               0.500000000               0.000000000               0.038607862               0.127273065               0.000000000               0.047913621               0.150568498               0.000000000               0.057219379               0.173863932               0.000000000               0.066525138               0.197159365               0.000000000               0.075830897               0.220454798               0.000000000               0.085136655               0.243750232               0.000000000               0.094442414               0.267045665               0.000000000               0.103748172               0.290341099               0.000000000               0.113053931               0.313636532               0.000000000               0.122359690               0.336931966               0.000000000               0.131665448               0.360227399               0.000000000               0.140971207               0.383522833               0.000000000               0.150276966               0.406818266               0.000000000               0.159582724               0.430113700               0.000000000               0.168888483               0.453409133               0.000000000               0.178194241               0.476704567               0.000000000               0.187500000               0.500000000               0.000000000               0.025947013               0.130444442               0.000000000               0.032137825               0.153541665               0.000000000               0.038328636               0.176638887               0.000000000               0.044519448               0.199736109               0.000000000               0.050710260               0.222833332               0.000000000               0.056901071               0.245930554               0.000000000               0.063091883               0.269027776               0.000000000               0.069282695               0.292124999               0.000000000               0.075473506               0.315222221               0.000000000               0.081664318               0.338319444               0.000000000               0.087855130               0.361416666               0.000000000               0.094045942               0.384513888               0.000000000               0.100236753               0.407611111               0.000000000               0.106427565               0.430708333               0.000000000               0.112618377               0.453805555               0.000000000               0.118809188               0.476902778               0.000000000               0.125000000               0.500000000               0.000000000               0.013036280               0.132359569               0.000000000               0.016127762               0.155337096               0.000000000               0.019219245               0.178314623               0.000000000               0.022310727               0.201292150               0.000000000               0.025402210               0.224269676               0.000000000               0.028493692               0.247247203               0.000000000               0.031585175               0.270224730               0.000000000               0.034676657               0.293202257               0.000000000               0.037768140               0.316179784               0.000000000               0.040859622               0.339157311               0.000000000               0.043951105               0.362134838               0.000000000               0.047042587               0.385112365               0.000000000               0.050134070               0.408089892               0.000000000               0.053225552               0.431067419               0.000000000               0.056317035               0.454044946               0.000000000               0.059408517               0.477022473               0.000000000               0.062500000               0.500000000               0.000000000               0.000000000               0.133000000               0.000000000               0.000000000               0.155937500               0.000000000               0.000000000               0.178875000               0.000000000               0.000000000               0.201812500               0.000000000               0.000000000               0.224750000               0.000000000               0.000000000               0.247687500               0.000000000               0.000000000               0.270625000               0.000000000               0.000000000               0.293562500               0.000000000               0.000000000               0.316500000               0.000000000               0.000000000               0.339437500               0.000000000               0.000000000               0.362375000               0.000000000               0.000000000               0.385312500               0.000000000               0.000000000               0.408250000               0.000000000               0.000000000               0.431187500               0.000000000               0.000000000               0.454125000               0.000000000               0.000000000               0.477062500               0.000000000               0.000000000               0.500000000               0.000000000               0.133000000               0.000000000               0.000000000               0.155937500               0.000000000               0.000000000               0.178875000               0.000000000               0.000000000               0.201812500               0.000000000               0.000000000               0.224750000               0.000000000               0.000000000               0.247687500               0.000000000               0.000000000               0.270625000               0.000000000               0.000000000               0.293562500               0.000000000               0.000000000               0.316500000               0.000000000               0.000000000               0.339437500               0.000000000               0.000000000               0.362375000               0.000000000               0.000000000               0.385312500               0.000000000               0.000000000               0.408250000               0.000000000               0.000000000               0.431187500               0.000000000               0.000000000               0.454125000               0.000000000               0.000000000               0.477062500               0.000000000               0.000000000               0.500000000               0.000000000               0.000000000               0.132359569              -0.013036280               0.000000000               0.155337096              -0.016127762               0.000000000               0.178314623              -0.019219245               0.000000000               0.201292150              -0.022310727               0.000000000               0.224269676              -0.025402210               0.000000000               0.247247203              -0.028493692               0.000000000               0.270224730              -0.031585175               0.000000000               0.293202257              -0.034676657               0.000000000               0.316179784              -0.037768140               0.000000000               0.339157311              -0.040859622               0.000000000               0.362134838              -0.043951105               0.000000000               0.385112365              -0.047042587               0.000000000               0.408089892              -0.050134070               0.000000000               0.431067419              -0.053225552               0.000000000               0.454044946              -0.056317035               0.000000000               0.477022473              -0.059408517               0.000000000               0.500000000              -0.062500000               0.000000000               0.130444442              -0.025947013               0.000000000               0.153541665              -0.032137825               0.000000000               0.176638887              -0.038328636               0.000000000               0.199736109              -0.044519448               0.000000000               0.222833332              -0.050710260               0.000000000               0.245930554              -0.056901071               0.000000000               0.269027776              -0.063091883               0.000000000               0.292124999              -0.069282695               0.000000000               0.315222221              -0.075473506               0.000000000               0.338319444              -0.081664318               0.000000000               0.361416666              -0.087855130               0.000000000               0.384513888              -0.094045942               0.000000000               0.407611111              -0.100236753               0.000000000               0.430708333              -0.106427565               0.000000000               0.453805555              -0.112618377               0.000000000               0.476902778              -0.118809188               0.000000000               0.500000000              -0.125000000               0.000000000               0.127273065              -0.038607862               0.000000000               0.150568498              -0.047913621               0.000000000               0.173863932              -0.057219379               0.000000000               0.197159365              -0.066525138               0.000000000               0.220454798              -0.075830897               0.000000000               0.243750232              -0.085136655               0.000000000               0.267045665              -0.094442414               0.000000000               0.290341099              -0.103748172               0.000000000               0.313636532              -0.113053931               0.000000000               0.336931966              -0.122359690               0.000000000               0.360227399              -0.131665448               0.000000000               0.383522833              -0.140971207               0.000000000               0.406818266              -0.150276966               0.000000000               0.430113700              -0.159582724               0.000000000               0.453409133              -0.168888483               0.000000000               0.476704567              -0.178194241               0.000000000               0.500000000              -0.187500000               0.000000000               0.122875978              -0.050896897               0.000000000               0.146446229              -0.063340840               0.000000000               0.170016481              -0.075784784               0.000000000               0.193586732              -0.088228728               0.000000000               0.217156983              -0.100672672               0.000000000               0.240727235              -0.113116616               0.000000000               0.264297486              -0.125560560               0.000000000               0.287867738              -0.138004504               0.000000000               0.311437989              -0.150448448               0.000000000               0.335008240              -0.162892392               0.000000000               0.358578492              -0.175336336               0.000000000               0.382148743              -0.187780280               0.000000000               0.405718994              -0.200224224               0.000000000               0.429289246              -0.212668168               0.000000000               0.452859497              -0.225112112               0.000000000               0.476429749              -0.237556056               0.000000000               0.500000000              -0.250000000               0.000000000               0.117295528              -0.062695766               0.000000000               0.141214558              -0.078308531               0.000000000               0.165133587              -0.093921295               0.000000000               0.189052617              -0.109534060               0.000000000               0.212971646              -0.125146824               0.000000000               0.236890676              -0.140759589               0.000000000               0.260809705              -0.156372354               0.000000000               0.284728735              -0.171985118               0.000000000               0.308647764              -0.187597883               0.000000000               0.332566794              -0.203210648               0.000000000               0.356485823              -0.218823412               0.000000000               0.380404853              -0.234436177               0.000000000               0.404323882              -0.250048941               0.000000000               0.428242912              -0.265661706               0.000000000               0.452161941              -0.281274471               0.000000000               0.476080971              -0.296887235               0.000000000               0.500000000              -0.312500000               0.000000000               0.110585458              -0.073890841               0.000000000               0.134923867              -0.092710163               0.000000000               0.159262276              -0.111529486               0.000000000               0.183600685              -0.130348808               0.000000000               0.207939094              -0.149168131               0.000000000               0.232277503              -0.167987453               0.000000000               0.256615912              -0.186806776               0.000000000               0.280954320              -0.205626098               0.000000000               0.305292729              -0.224445420               0.000000000               0.329631138              -0.243264743               0.000000000               0.353969547              -0.262084065               0.000000000               0.378307956              -0.280903388               0.000000000               0.402646365              -0.299722710               0.000000000               0.426984773              -0.318542033               0.000000000               0.451323182              -0.337361355               0.000000000               0.475661591              -0.356180678               0.000000000               0.500000000              -0.375000000               0.000000000               0.102810390              -0.084374307               0.000000000               0.127634741              -0.106444663               0.000000000               0.152459092              -0.128515018               0.000000000               0.177283442              -0.150585374               0.000000000               0.202107793              -0.172655730               0.000000000               0.226932143              -0.194726086               0.000000000               0.251756494              -0.216796442               0.000000000               0.276580845              -0.238866798               0.000000000               0.301405195              -0.260937153               0.000000000               0.326229546              -0.283007509               0.000000000               0.351053896              -0.305077865               0.000000000               0.375878247              -0.327148221               0.000000000               0.400702598              -0.349218577               0.000000000               0.425526948              -0.371288933               0.000000000               0.450351299              -0.393359288               0.000000000               0.475175649              -0.415429644               0.000000000               0.500000000              -0.437500000               0.000000000               0.094045202              -0.094045202               0.000000000               0.119417377              -0.119417377               0.000000000               0.144789552              -0.144789552               0.000000000               0.170161727              -0.170161727               0.000000000               0.195533901              -0.195533901               0.000000000               0.220906076              -0.220906076               0.000000000               0.246278251              -0.246278251               0.000000000               0.271650426              -0.271650426               0.000000000               0.297022601              -0.297022601               0.000000000               0.322394776              -0.322394776               0.000000000               0.347766951              -0.347766951               0.000000000               0.373139126              -0.373139126               0.000000000               0.398511300              -0.398511300               0.000000000               0.423883475              -0.423883475               0.000000000               0.449255650              -0.449255650               0.000000000               0.474627825              -0.474627825               0.000000000               0.500000000              -0.500000000               0.000000000               0.084374307              -0.102810390               0.000000000               0.106444663              -0.127634741               0.000000000               0.128515018              -0.152459092               0.000000000               0.150585374              -0.177283442               0.000000000               0.172655730              -0.202107793               0.000000000               0.194726086              -0.226932143               0.000000000               0.216796442              -0.251756494               0.000000000               0.238866798              -0.276580845               0.000000000               0.260937153              -0.301405195               0.000000000               0.283007509              -0.326229546               0.000000000               0.305077865              -0.351053896               0.000000000               0.327148221              -0.375878247               0.000000000               0.349218577              -0.400702598               0.000000000               0.371288933              -0.425526948               0.000000000               0.393359288              -0.450351299               0.000000000               0.415429644              -0.475175649               0.000000000               0.437500000              -0.500000000               0.000000000               0.073890841              -0.110585458               0.000000000               0.092710163              -0.134923867               0.000000000               0.111529486              -0.159262276               0.000000000               0.130348808              -0.183600685               0.000000000               0.149168131              -0.207939094               0.000000000               0.167987453              -0.232277503               0.000000000               0.186806776              -0.256615912               0.000000000               0.205626098              -0.280954320               0.000000000               0.224445420              -0.305292729               0.000000000               0.243264743              -0.329631138               0.000000000               0.262084065              -0.353969547               0.000000000               0.280903388              -0.378307956               0.000000000               0.299722710              -0.402646365               0.000000000               0.318542033              -0.426984773               0.000000000               0.337361355              -0.451323182               0.000000000               0.356180678              -0.475661591               0.000000000               0.375000000              -0.500000000               0.000000000               0.062695766              -0.117295528               0.000000000               0.078308531              -0.141214558               0.000000000               0.093921295              -0.165133587               0.000000000               0.109534060              -0.189052617               0.000000000               0.125146824              -0.212971646               0.000000000               0.140759589              -0.236890676               0.000000000               0.156372354              -0.260809705               0.000000000               0.171985118              -0.284728735               0.000000000               0.187597883              -0.308647764               0.000000000               0.203210648              -0.332566794               0.000000000               0.218823412              -0.356485823               0.000000000               0.234436177              -0.380404853               0.000000000               0.250048941              -0.404323882               0.000000000               0.265661706              -0.428242912               0.000000000               0.281274471              -0.452161941               0.000000000               0.296887235              -0.476080971               0.000000000               0.312500000              -0.500000000               0.000000000               0.050896897              -0.122875978               0.000000000               0.063340840              -0.146446229               0.000000000               0.075784784              -0.170016481               0.000000000               0.088228728              -0.193586732               0.000000000               0.100672672              -0.217156983               0.000000000               0.113116616              -0.240727235               0.000000000               0.125560560              -0.264297486               0.000000000               0.138004504              -0.287867738               0.000000000               0.150448448              -0.311437989               0.000000000               0.162892392              -0.335008240               0.000000000               0.175336336              -0.358578492               0.000000000               0.187780280              -0.382148743               0.000000000               0.200224224              -0.405718994               0.000000000               0.212668168              -0.429289246               0.000000000               0.225112112              -0.452859497               0.000000000               0.237556056              -0.476429749               0.000000000               0.250000000              -0.500000000               0.000000000               0.038607862              -0.127273065               0.000000000               0.047913621              -0.150568498               0.000000000               0.057219379              -0.173863932               0.000000000               0.066525138              -0.197159365               0.000000000               0.075830897              -0.220454798               0.000000000               0.085136655              -0.243750232               0.000000000               0.094442414              -0.267045665               0.000000000               0.103748172              -0.290341099               0.000000000               0.113053931              -0.313636532               0.000000000               0.122359690              -0.336931966               0.000000000               0.131665448              -0.360227399               0.000000000               0.140971207              -0.383522833               0.000000000               0.150276966              -0.406818266               0.000000000               0.159582724              -0.430113700               0.000000000               0.168888483              -0.453409133               0.000000000               0.178194241              -0.476704567               0.000000000               0.187500000              -0.500000000               0.000000000               0.025947013              -0.130444442               0.000000000               0.032137825              -0.153541665               0.000000000               0.038328636              -0.176638887               0.000000000               0.044519448              -0.199736109               0.000000000               0.050710260              -0.222833332               0.000000000               0.056901071              -0.245930554               0.000000000               0.063091883              -0.269027776               0.000000000               0.069282695              -0.292124999               0.000000000               0.075473506              -0.315222221               0.000000000               0.081664318              -0.338319444               0.000000000               0.087855130              -0.361416666               0.000000000               0.094045942              -0.384513888               0.000000000               0.100236753              -0.407611111               0.000000000               0.106427565              -0.430708333               0.000000000               0.112618377              -0.453805555               0.000000000               0.118809188              -0.476902778               0.000000000               0.125000000              -0.500000000               0.000000000               0.013036280              -0.132359569               0.000000000               0.016127762              -0.155337096               0.000000000               0.019219245              -0.178314623               0.000000000               0.022310727              -0.201292150               0.000000000               0.025402210              -0.224269676               0.000000000               0.028493692              -0.247247203               0.000000000               0.031585175              -0.270224730               0.000000000               0.034676657              -0.293202257               0.000000000               0.037768140              -0.316179784               0.000000000               0.040859622              -0.339157311               0.000000000               0.043951105              -0.362134838               0.000000000               0.047042587              -0.385112365               0.000000000               0.050134070              -0.408089892               0.000000000               0.053225552              -0.431067419               0.000000000               0.056317035              -0.454044946               0.000000000               0.059408517              -0.477022473               0.000000000               0.062500000              -0.500000000               0.000000000               0.000000000              -0.133000000               0.000000000               0.000000000              -0.155937500               0.000000000               0.000000000              -0.178875000               0.000000000               0.000000000              -0.201812500               0.000000000               0.000000000              -0.224750000               0.000000000               0.000000000              -0.247687500               0.000000000               0.000000000              -0.270625000               0.000000000               0.000000000              -0.293562500               0.000000000               0.000000000              -0.316500000               0.000000000               0.000000000              -0.339437500               0.000000000               0.000000000              -0.362375000               0.000000000               0.000000000              -0.385312500               0.000000000               0.000000000              -0.408250000               0.000000000               0.000000000              -0.431187500               0.000000000               0.000000000              -0.454125000               0.000000000               0.000000000              -0.477062500               0.000000000               0.000000000              -0.500000000               0.000000000              -0.133000000               0.000000000               0.000000000              -0.155937500               0.000000000               0.000000000              -0.178875000               0.000000000               0.000000000              -0.201812500               0.000000000               0.000000000              -0.224750000               0.000000000               0.000000000              -0.247687500               0.000000000               0.000000000              -0.270625000               0.000000000               0.000000000              -0.293562500               0.000000000               0.000000000              -0.316500000               0.000000000               0.000000000              -0.339437500               0.000000000               0.000000000              -0.362375000               0.000000000               0.000000000              -0.385312500               0.000000000               0.000000000              -0.408250000               0.000000000               0.000000000              -0.431187500               0.000000000               0.000000000              -0.454125000               0.000000000               0.000000000              -0.477062500               0.000000000               0.000000000              -0.500000000               0.000000000               0.000000000              -0.132359569              -0.013036280               0.000000000              -0.155337096              -0.016127762               0.000000000              -0.178314623              -0.019219245               0.000000000              -0.201292150              -0.022310727               0.000000000              -0.224269676              -0.025402210               0.000000000              -0.247247203              -0.028493692               0.000000000              -0.270224730              -0.031585175               0.000000000              -0.293202257              -0.034676657               0.000000000              -0.316179784              -0.037768140               0.000000000              -0.339157311              -0.040859622               0.000000000              -0.362134838              -0.043951105               0.000000000              -0.385112365              -0.047042587               0.000000000              -0.408089892              -0.050134070               0.000000000              -0.431067419              -0.053225552               0.000000000              -0.454044946              -0.056317035               0.000000000              -0.477022473              -0.059408517               0.000000000              -0.500000000              -0.062500000               0.000000000              -0.130444442              -0.025947013               0.000000000              -0.153541665              -0.032137825               0.000000000              -0.176638887              -0.038328636               0.000000000              -0.199736109              -0.044519448               0.000000000              -0.222833332              -0.050710260               0.000000000              -0.245930554              -0.056901071               0.000000000              -0.269027776              -0.063091883               0.000000000              -0.292124999              -0.069282695               0.000000000              -0.315222221              -0.075473506               0.000000000              -0.338319444              -0.081664318               0.000000000              -0.361416666              -0.087855130               0.000000000              -0.384513888              -0.094045942               0.000000000              -0.407611111              -0.100236753               0.000000000              -0.430708333              -0.106427565               0.000000000              -0.453805555              -0.112618377               0.000000000              -0.476902778              -0.118809188               0.000000000              -0.500000000              -0.125000000               0.000000000              -0.127273065              -0.038607862               0.000000000              -0.150568498              -0.047913621               0.000000000              -0.173863932              -0.057219379               0.000000000              -0.197159365              -0.066525138               0.000000000              -0.220454798              -0.075830897               0.000000000              -0.243750232              -0.085136655               0.000000000              -0.267045665              -0.094442414               0.000000000              -0.290341099              -0.103748172               0.000000000              -0.313636532              -0.113053931               0.000000000              -0.336931966              -0.122359690               0.000000000              -0.360227399              -0.131665448               0.000000000              -0.383522833              -0.140971207               0.000000000              -0.406818266              -0.150276966               0.000000000              -0.430113700              -0.159582724               0.000000000              -0.453409133              -0.168888483               0.000000000              -0.476704567              -0.178194241               0.000000000              -0.500000000              -0.187500000               0.000000000              -0.122875978              -0.050896897               0.000000000              -0.146446229              -0.063340840               0.000000000              -0.170016481              -0.075784784               0.000000000              -0.193586732              -0.088228728               0.000000000              -0.217156983              -0.100672672               0.000000000              -0.240727235              -0.113116616               0.000000000              -0.264297486              -0.125560560               0.000000000              -0.287867738              -0.138004504               0.000000000              -0.311437989              -0.150448448               0.000000000              -0.335008240              -0.162892392               0.000000000              -0.358578492              -0.175336336               0.000000000              -0.382148743              -0.187780280               0.000000000              -0.405718994              -0.200224224               0.000000000              -0.429289246              -0.212668168               0.000000000              -0.452859497              -0.225112112               0.000000000              -0.476429749              -0.237556056               0.000000000              -0.500000000              -0.250000000               0.000000000              -0.117295528              -0.062695766               0.000000000              -0.141214558              -0.078308531               0.000000000              -0.165133587              -0.093921295               0.000000000              -0.189052617              -0.109534060               0.000000000              -0.212971646              -0.125146824               0.000000000              -0.236890676              -0.140759589               0.000000000              -0.260809705              -0.156372354               0.000000000              -0.284728735              -0.171985118               0.000000000              -0.308647764              -0.187597883               0.000000000              -0.332566794              -0.203210648               0.000000000              -0.356485823              -0.218823412               0.000000000              -0.380404853              -0.234436177               0.000000000              -0.404323882              -0.250048941               0.000000000              -0.428242912              -0.265661706               0.000000000              -0.452161941              -0.281274471               0.000000000              -0.476080971              -0.296887235               0.000000000              -0.500000000              -0.312500000               0.000000000              -0.110585458              -0.073890841               0.000000000              -0.134923867              -0.092710163               0.000000000              -0.159262276              -0.111529486               0.000000000              -0.183600685              -0.130348808               0.000000000              -0.207939094              -0.149168131               0.000000000              -0.232277503              -0.167987453               0.000000000              -0.256615912              -0.186806776               0.000000000              -0.280954320              -0.205626098               0.000000000              -0.305292729              -0.224445420               0.000000000              -0.329631138              -0.243264743               0.000000000              -0.353969547              -0.262084065               0.000000000              -0.378307956              -0.280903388               0.000000000              -0.402646365              -0.299722710               0.000000000              -0.426984773              -0.318542033               0.000000000              -0.451323182              -0.337361355               0.000000000              -0.475661591              -0.356180678               0.000000000              -0.500000000              -0.375000000               0.000000000              -0.102810390              -0.084374307               0.000000000              -0.127634741              -0.106444663               0.000000000              -0.152459092              -0.128515018               0.000000000              -0.177283442              -0.150585374               0.000000000              -0.202107793              -0.172655730               0.000000000              -0.226932143              -0.194726086               0.000000000              -0.251756494              -0.216796442               0.000000000              -0.276580845              -0.238866798               0.000000000              -0.301405195              -0.260937153               0.000000000              -0.326229546              -0.283007509               0.000000000              -0.351053896              -0.305077865               0.000000000              -0.375878247              -0.327148221               0.000000000              -0.400702598              -0.349218577               0.000000000              -0.425526948              -0.371288933               0.000000000              -0.450351299              -0.393359288               0.000000000              -0.475175649              -0.415429644               0.000000000              -0.500000000              -0.437500000               0.000000000              -0.094045202              -0.094045202               0.000000000              -0.119417377              -0.119417377               0.000000000              -0.144789552              -0.144789552               0.000000000              -0.170161727              -0.170161727               0.000000000              -0.195533901              -0.195533901               0.000000000              -0.220906076              -0.220906076               0.000000000              -0.246278251              -0.246278251               0.000000000              -0.271650426              -0.271650426               0.000000000              -0.297022601              -0.297022601               0.000000000              -0.322394776              -0.322394776               0.000000000              -0.347766951              -0.347766951               0.000000000              -0.373139126              -0.373139126               0.000000000              -0.398511300              -0.398511300               0.000000000              -0.423883475              -0.423883475               0.000000000              -0.449255650              -0.449255650               0.000000000              -0.474627825              -0.474627825               0.000000000              -0.500000000              -0.500000000               0.000000000              -0.084374307              -0.102810390               0.000000000              -0.106444663              -0.127634741               0.000000000              -0.128515018              -0.152459092               0.000000000              -0.150585374              -0.177283442               0.000000000              -0.172655730              -0.202107793               0.000000000              -0.194726086              -0.226932143               0.000000000              -0.216796442              -0.251756494               0.000000000              -0.238866798              -0.276580845               0.000000000              -0.260937153              -0.301405195               0.000000000              -0.283007509              -0.326229546               0.000000000              -0.305077865              -0.351053896               0.000000000              -0.327148221              -0.375878247               0.000000000              -0.349218577              -0.400702598               0.000000000              -0.371288933              -0.425526948               0.000000000              -0.393359288              -0.450351299               0.000000000              -0.415429644              -0.475175649               0.000000000              -0.437500000              -0.500000000               0.000000000              -0.073890841              -0.110585458               0.000000000              -0.092710163              -0.134923867               0.000000000              -0.111529486              -0.159262276               0.000000000              -0.130348808              -0.183600685               0.000000000              -0.149168131              -0.207939094               0.000000000              -0.167987453              -0.232277503               0.000000000              -0.186806776              -0.256615912               0.000000000              -0.205626098              -0.280954320               0.000000000              -0.224445420              -0.305292729               0.000000000              -0.243264743              -0.329631138               0.000000000              -0.262084065              -0.353969547               0.000000000              -0.280903388              -0.378307956               0.000000000              -0.299722710              -0.402646365               0.000000000              -0.318542033              -0.426984773               0.000000000              -0.337361355              -0.451323182               0.000000000              -0.356180678              -0.475661591               0.000000000              -0.375000000              -0.500000000               0.000000000              -0.062695766              -0.117295528               0.000000000              -0.078308531              -0.141214558               0.000000000              -0.093921295              -0.165133587               0.000000000              -0.109534060              -0.189052617               0.000000000              -0.125146824              -0.212971646               0.000000000              -0.140759589              -0.236890676               0.000000000              -0.156372354              -0.260809705               0.000000000              -0.171985118              -0.284728735               0.000000000              -0.187597883              -0.308647764               0.000000000              -0.203210648              -0.332566794               0.000000000              -0.218823412              -0.356485823               0.000000000              -0.234436177              -0.380404853               0.000000000              -0.250048941              -0.404323882               0.000000000              -0.265661706              -0.428242912               0.000000000              -0.281274471              -0.452161941               0.000000000              -0.296887235              -0.476080971               0.000000000              -0.312500000              -0.500000000               0.000000000              -0.050896897              -0.122875978               0.000000000              -0.063340840              -0.146446229               0.000000000              -0.075784784              -0.170016481               0.000000000              -0.088228728              -0.193586732               0.000000000              -0.100672672              -0.217156983               0.000000000              -0.113116616              -0.240727235               0.000000000              -0.125560560              -0.264297486               0.000000000              -0.138004504              -0.287867738               0.000000000              -0.150448448              -0.311437989               0.000000000              -0.162892392              -0.335008240               0.000000000              -0.175336336              -0.358578492               0.000000000              -0.187780280              -0.382148743               0.000000000              -0.200224224              -0.405718994               0.000000000              -0.212668168              -0.429289246               0.000000000              -0.225112112              -0.452859497               0.000000000              -0.237556056              -0.476429749               0.000000000              -0.250000000              -0.500000000               0.000000000              -0.038607862              -0.127273065               0.000000000              -0.047913621              -0.150568498               0.000000000              -0.057219379              -0.173863932               0.000000000              -0.066525138              -0.197159365               0.000000000              -0.075830897              -0.220454798               0.000000000              -0.085136655              -0.243750232               0.000000000              -0.094442414              -0.267045665               0.000000000              -0.103748172              -0.290341099               0.000000000              -0.113053931              -0.313636532               0.000000000              -0.122359690              -0.336931966               0.000000000              -0.131665448              -0.360227399               0.000000000              -0.140971207              -0.383522833               0.000000000              -0.150276966              -0.406818266               0.000000000              -0.159582724              -0.430113700               0.000000000              -0.168888483              -0.453409133               0.000000000              -0.178194241              -0.476704567               0.000000000              -0.187500000              -0.500000000               0.000000000              -0.025947013              -0.130444442               0.000000000              -0.032137825              -0.153541665               0.000000000              -0.038328636              -0.176638887               0.000000000              -0.044519448              -0.199736109               0.000000000              -0.050710260              -0.222833332               0.000000000              -0.056901071              -0.245930554               0.000000000              -0.063091883              -0.269027776               0.000000000              -0.069282695              -0.292124999               0.000000000              -0.075473506              -0.315222221               0.000000000              -0.081664318              -0.338319444               0.000000000              -0.087855130              -0.361416666               0.000000000              -0.094045942              -0.384513888               0.000000000              -0.100236753              -0.407611111               0.000000000              -0.106427565              -0.430708333               0.000000000              -0.112618377              -0.453805555               0.000000000              -0.118809188              -0.476902778               0.000000000              -0.125000000              -0.500000000               0.000000000              -0.013036280              -0.132359569               0.000000000              -0.016127762              -0.155337096               0.000000000              -0.019219245              -0.178314623               0.000000000              -0.022310727              -0.201292150               0.000000000              -0.025402210              -0.224269676               0.000000000              -0.028493692              -0.247247203               0.000000000              -0.031585175              -0.270224730               0.000000000              -0.034676657              -0.293202257               0.000000000              -0.037768140              -0.316179784               0.000000000              -0.040859622              -0.339157311               0.000000000              -0.043951105              -0.362134838               0.000000000              -0.047042587              -0.385112365               0.000000000              -0.050134070              -0.408089892               0.000000000              -0.053225552              -0.431067419               0.000000000              -0.056317035              -0.454044946               0.000000000              -0.059408517              -0.477022473               0.000000000              -0.062500000              -0.500000000               0.000000000               0.000000000              -0.133000000               0.000000000               0.000000000              -0.155937500               0.000000000               0.000000000              -0.178875000               0.000000000               0.000000000              -0.201812500               0.000000000               0.000000000              -0.224750000               0.000000000               0.000000000              -0.247687500               0.000000000               0.000000000              -0.270625000               0.000000000               0.000000000              -0.293562500               0.000000000               0.000000000              -0.316500000               0.000000000               0.000000000              -0.339437500               0.000000000               0.000000000              -0.362375000               0.000000000               0.000000000              -0.385312500               0.000000000               0.000000000              -0.408250000               0.000000000               0.000000000              -0.431187500               0.000000000               0.000000000              -0.454125000               0.000000000               0.000000000              -0.477062500               0.000000000               0.000000000              -0.500000000               0.000000000              -0.133000000               0.000000000               0.000000000              -0.155937500               0.000000000               0.000000000              -0.178875000               0.000000000               0.000000000              -0.201812500               0.000000000               0.000000000              -0.224750000               0.000000000               0.000000000              -0.247687500               0.000000000               0.000000000              -0.270625000               0.000000000               0.000000000              -0.293562500               0.000000000               0.000000000              -0.316500000               0.000000000               0.000000000              -0.339437500               0.000000000               0.000000000              -0.362375000               0.000000000               0.000000000              -0.385312500               0.000000000               0.000000000              -0.408250000               0.000000000               0.000000000              -0.431187500               0.000000000               0.000000000              -0.454125000               0.000000000               0.000000000              -0.477062500               0.000000000               0.000000000              -0.500000000               0.000000000               0.000000000              -0.132359569               0.013036280               0.000000000              -0.155337096               0.016127762               0.000000000              -0.178314623               0.019219245               0.000000000              -0.201292150               0.022310727               0.000000000              -0.224269676               0.025402210               0.000000000              -0.247247203               0.028493692               0.000000000              -0.270224730               0.031585175               0.000000000              -0.293202257               0.034676657               0.000000000              -0.316179784               0.037768140               0.000000000              -0.339157311               0.040859622               0.000000000              -0.362134838               0.043951105               0.000000000              -0.385112365               0.047042587               0.000000000              -0.408089892               0.050134070               0.000000000              -0.431067419               0.053225552               0.000000000              -0.454044946               0.056317035               0.000000000              -0.477022473               0.059408517               0.000000000              -0.500000000               0.062500000               0.000000000              -0.130444442               0.025947013               0.000000000              -0.153541665               0.032137825               0.000000000              -0.176638887               0.038328636               0.000000000              -0.199736109               0.044519448               0.000000000              -0.222833332               0.050710260               0.000000000              -0.245930554               0.056901071               0.000000000              -0.269027776               0.063091883               0.000000000              -0.292124999               0.069282695               0.000000000              -0.315222221               0.075473506               0.000000000              -0.338319444               0.081664318               0.000000000              -0.361416666               0.087855130               0.000000000              -0.384513888               0.094045942               0.000000000              -0.407611111               0.100236753               0.000000000              -0.430708333               0.106427565               0.000000000              -0.453805555               0.112618377               0.000000000              -0.476902778               0.118809188               0.000000000              -0.500000000               0.125000000               0.000000000              -0.127273065               0.038607862               0.000000000              -0.150568498               0.047913621               0.000000000              -0.173863932               0.057219379               0.000000000              -0.197159365               0.066525138               0.000000000              -0.220454798               0.075830897               0.000000000              -0.243750232               0.085136655               0.000000000              -0.267045665               0.094442414               0.000000000              -0.290341099               0.103748172               0.000000000              -0.313636532               0.113053931               0.000000000              -0.336931966               0.122359690               0.000000000              -0.360227399               0.131665448               0.000000000              -0.383522833               0.140971207               0.000000000              -0.406818266               0.150276966               0.000000000              -0.430113700               0.159582724               0.000000000              -0.453409133               0.168888483               0.000000000              -0.476704567               0.178194241               0.000000000              -0.500000000               0.187500000               0.000000000              -0.122875978               0.050896897               0.000000000              -0.146446229               0.063340840               0.000000000              -0.170016481               0.075784784               0.000000000              -0.193586732               0.088228728               0.000000000              -0.217156983               0.100672672               0.000000000              -0.240727235               0.113116616               0.000000000              -0.264297486               0.125560560               0.000000000              -0.287867738               0.138004504               0.000000000              -0.311437989               0.150448448               0.000000000              -0.335008240               0.162892392               0.000000000              -0.358578492               0.175336336               0.000000000              -0.382148743               0.187780280               0.000000000              -0.405718994               0.200224224               0.000000000              -0.429289246               0.212668168               0.000000000              -0.452859497               0.225112112               0.000000000              -0.476429749               0.237556056               0.000000000              -0.500000000               0.250000000               0.000000000              -0.117295528               0.062695766               0.000000000              -0.141214558               0.078308531               0.000000000              -0.165133587               0.093921295               0.000000000              -0.189052617               0.109534060               0.000000000              -0.212971646               0.125146824               0.000000000              -0.236890676               0.140759589               0.000000000              -0.260809705               0.156372354               0.000000000              -0.284728735               0.171985118               0.000000000              -0.308647764               0.187597883               0.000000000              -0.332566794               0.203210648               0.000000000              -0.356485823               0.218823412               0.000000000              -0.380404853               0.234436177               0.000000000              -0.404323882               0.250048941               0.000000000              -0.428242912               0.265661706               0.000000000              -0.452161941               0.281274471               0.000000000              -0.476080971               0.296887235               0.000000000              -0.500000000               0.312500000               0.000000000              -0.110585458               0.073890841               0.000000000              -0.134923867               0.092710163               0.000000000              -0.159262276               0.111529486               0.000000000              -0.183600685               0.130348808               0.000000000              -0.207939094               0.149168131               0.000000000              -0.232277503               0.167987453               0.000000000              -0.256615912               0.186806776               0.000000000              -0.280954320               0.205626098               0.000000000              -0.305292729               0.224445420               0.000000000              -0.329631138               0.243264743               0.000000000              -0.353969547               0.262084065               0.000000000              -0.378307956               0.280903388               0.000000000              -0.402646365               0.299722710               0.000000000              -0.426984773               0.318542033               0.000000000              -0.451323182               0.337361355               0.000000000              -0.475661591               0.356180678               0.000000000              -0.500000000               0.375000000               0.000000000              -0.102810390               0.084374307               0.000000000              -0.127634741               0.106444663               0.000000000              -0.152459092               0.128515018               0.000000000              -0.177283442               0.150585374               0.000000000              -0.202107793               0.172655730               0.000000000              -0.226932143               0.194726086               0.000000000              -0.251756494               0.216796442               0.000000000              -0.276580845               0.238866798               0.000000000              -0.301405195               0.260937153               0.000000000              -0.326229546               0.283007509               0.000000000              -0.351053896               0.305077865               0.000000000              -0.375878247               0.327148221               0.000000000              -0.400702598               0.349218577               0.000000000              -0.425526948               0.371288933               0.000000000              -0.450351299               0.393359288               0.000000000              -0.475175649               0.415429644               0.000000000              -0.500000000               0.437500000               0.000000000              -0.094045202               0.094045202               0.000000000              -0.119417377               0.119417377               0.000000000              -0.144789552               0.144789552               0.000000000              -0.170161727               0.170161727               0.000000000              -0.195533901               0.195533901               0.000000000              -0.220906076               0.220906076               0.000000000              -0.246278251               0.246278251               0.000000000              -0.271650426               0.271650426               0.000000000              -0.297022601               0.297022601               0.000000000              -0.322394776               0.322394776               0.000000000              -0.347766951               0.347766951               0.000000000              -0.373139126               0.373139126               0.000000000              -0.398511300               0.398511300               0.000000000              -0.423883475               0.423883475               0.000000000              -0.449255650               0.449255650               0.000000000              -0.474627825               0.474627825               0.000000000              -0.500000000               0.500000000               0.000000000              -0.084374307               0.102810390               0.000000000              -0.106444663               0.127634741               0.000000000              -0.128515018               0.152459092               0.000000000              -0.150585374               0.177283442               0.000000000              -0.172655730               0.202107793               0.000000000              -0.194726086               0.226932143               0.000000000              -0.216796442               0.251756494               0.000000000              -0.238866798               0.276580845               0.000000000              -0.260937153               0.301405195               0.000000000              -0.283007509               0.326229546               0.000000000              -0.305077865               0.351053896               0.000000000              -0.327148221               0.375878247               0.000000000              -0.349218577               0.400702598               0.000000000              -0.371288933               0.425526948               0.000000000              -0.393359288               0.450351299               0.000000000              -0.415429644               0.475175649               0.000000000              -0.437500000               0.500000000               0.000000000              -0.073890841               0.110585458               0.000000000              -0.092710163               0.134923867               0.000000000              -0.111529486               0.159262276               0.000000000              -0.130348808               0.183600685               0.000000000              -0.149168131               0.207939094               0.000000000              -0.167987453               0.232277503               0.000000000              -0.186806776               0.256615912               0.000000000              -0.205626098               0.280954320               0.000000000              -0.224445420               0.305292729               0.000000000              -0.243264743               0.329631138               0.000000000              -0.262084065               0.353969547               0.000000000              -0.280903388               0.378307956               0.000000000              -0.299722710               0.402646365               0.000000000              -0.318542033               0.426984773               0.000000000              -0.337361355               0.451323182               0.000000000              -0.356180678               0.475661591               0.000000000              -0.375000000               0.500000000               0.000000000              -0.062695766               0.117295528               0.000000000              -0.078308531               0.141214558               0.000000000              -0.093921295               0.165133587               0.000000000              -0.109534060               0.189052617               0.000000000              -0.125146824               0.212971646               0.000000000              -0.140759589               0.236890676               0.000000000              -0.156372354               0.260809705               0.000000000              -0.171985118               0.284728735               0.000000000              -0.187597883               0.308647764               0.000000000              -0.203210648               0.332566794               0.000000000              -0.218823412               0.356485823               0.000000000              -0.234436177               0.380404853               0.000000000              -0.250048941               0.404323882               0.000000000              -0.265661706               0.428242912               0.000000000              -0.281274471               0.452161941               0.000000000              -0.296887235               0.476080971               0.000000000              -0.312500000               0.500000000               0.000000000              -0.050896897               0.122875978               0.000000000              -0.063340840               0.146446229               0.000000000              -0.075784784               0.170016481               0.000000000              -0.088228728               0.193586732               0.000000000              -0.100672672               0.217156983               0.000000000              -0.113116616               0.240727235               0.000000000              -0.125560560               0.264297486               0.000000000              -0.138004504               0.287867738               0.000000000              -0.150448448               0.311437989               0.000000000              -0.162892392               0.335008240               0.000000000              -0.175336336               0.358578492               0.000000000              -0.187780280               0.382148743               0.000000000              -0.200224224               0.405718994               0.000000000              -0.212668168               0.429289246               0.000000000              -0.225112112               0.452859497               0.000000000              -0.237556056               0.476429749               0.000000000              -0.250000000               0.500000000               0.000000000              -0.038607862               0.127273065               0.000000000              -0.047913621               0.150568498               0.000000000              -0.057219379               0.173863932               0.000000000              -0.066525138               0.197159365               0.000000000              -0.075830897               0.220454798               0.000000000              -0.085136655               0.243750232               0.000000000              -0.094442414               0.267045665               0.000000000              -0.103748172               0.290341099               0.000000000              -0.113053931               0.313636532               0.000000000              -0.122359690               0.336931966               0.000000000              -0.131665448               0.360227399               0.000000000              -0.140971207               0.383522833               0.000000000              -0.150276966               0.406818266               0.000000000              -0.159582724               0.430113700               0.000000000              -0.168888483               0.453409133               0.000000000              -0.178194241               0.476704567               0.000000000              -0.187500000               0.500000000               0.000000000              -0.025947013               0.130444442               0.000000000              -0.032137825               0.153541665               0.000000000              -0.038328636               0.176638887               0.000000000              -0.044519448               0.199736109               0.000000000              -0.050710260               0.222833332               0.000000000              -0.056901071               0.245930554               0.000000000              -0.063091883               0.269027776               0.000000000              -0.069282695               0.292124999               0.000000000              -0.075473506               0.315222221               0.000000000              -0.081664318               0.338319444               0.000000000              -0.087855130               0.361416666               0.000000000              -0.094045942               0.384513888               0.000000000              -0.100236753               0.407611111               0.000000000              -0.106427565               0.430708333               0.000000000              -0.112618377               0.453805555               0.000000000              -0.118809188               0.476902778               0.000000000              -0.125000000               0.500000000               0.000000000              -0.013036280               0.132359569               0.000000000              -0.016127762               0.155337096               0.000000000              -0.019219245               0.178314623               0.000000000              -0.022310727               0.201292150               0.000000000              -0.025402210               0.224269676               0.000000000              -0.028493692               0.247247203               0.000000000              -0.031585175               0.270224730               0.000000000              -0.034676657               0.293202257               0.000000000              -0.037768140               0.316179784               0.000000000              -0.040859622               0.339157311               0.000000000              -0.043951105               0.362134838               0.000000000              -0.047042587               0.385112365               0.000000000              -0.050134070               0.408089892               0.000000000              -0.053225552               0.431067419               0.000000000              -0.056317035               0.454044946               0.000000000              -0.059408517               0.477022473               0.000000000              -0.062500000               0.500000000               0.000000000               0.000000000               0.133000000               0.000000000               0.000000000               0.155937500               0.000000000               0.000000000               0.178875000               0.000000000               0.000000000               0.201812500               0.000000000               0.000000000               0.224750000               0.000000000               0.000000000               0.247687500               0.000000000               0.000000000               0.270625000               0.000000000               0.000000000               0.293562500               0.000000000               0.000000000               0.316500000               0.000000000               0.000000000               0.339437500               0.000000000               0.000000000               0.362375000               0.000000000               0.000000000               0.385312500               0.000000000               0.000000000               0.408250000               0.000000000               0.000000000               0.431187500               0.000000000               0.000000000               0.454125000               0.000000000               0.000000000               0.477062500               0.000000000               0.000000000               0.500000000               0.000000000 </DataArray>
</Points>
<Cells>
<DataArray type="Int32"                                    Name="connectivity"                                                      NumberOfComponents=" 1" format="ascii">
         0          1         18         17          1          2         19         18          2          3         20         19          3          4         21         20          4          5         22         21          5          6         23         22          6          7         24         23          7          8         25         24          8          9         26         25          9         10         27         26         10         11         28         27         11         12         29         28         12         13         30         29         13         14         31         30         14         15         32         31         15         16         33         32         17         18         35         34         18         19         36         35         19         20         37         36         20         21         38         37         21         22         39         38         22         23         40         39         23         24         41         40         24         25         42         41         25         26         43         42         26         27         44         43         27         28         45         44         28         29         46         45         29         30         47         46         30         31         48         47         31         32         49         48         32         33         50         49         34         35         52         51         35         36         53         52         36         37         54         53         37         38         55         54         38         39         56         55         39         40         57         56         40         41         58         57         41         42         59         58         42         43         60         59         43         44         61         60         44         45         62         61         45         46         63         62         46         47         64         63         47         48         65         64         48         49         66         65         49         50         67         66         51         52         69         68         52         53         70         69         53         54         71         70         54         55         72         71         55         56         73         72         56         57         74         73         57         58         75         74         58         59         76         75         59         60         77         76         60         61         78         77         61         62         79         78         62         63         80         79         63         64         81         80         64         65         82         81         65         66         83         82         66         67         84         83         68         69         86         85         69         70         87         86         70         71         88         87         71         72         89         88         72         73         90         89         73         74         91         90         74         75         92         91         75         76         93         92         76         77         94         93         77         78         95         94         78         79         96         95         79         80         97         96         80         81         98         97         81         82         99         98         82         83        100         99         83         84        101        100         85         86        103        102         86         87        104        103         87         88        105        104         88         89        106        105         89         90        107        106         90         91        108        107         91         92        109        108         92         93        110        109         93         94        111        110         94         95        112        111         95         96        113        112         96         97        114        113         97         98        115        114         98         99        116        115         99        100        117        116        100        101        118        117        102        103        120        119        103        104        121        120        104        105        122        121        105        106        123        122        106        107        124        123        107        108        125        124        108        109        126        125        109        110        127        126        110        111        128        127        111        112        129        128        112        113        130        129        113        114        131        130        114        115        132        131        115        116        133        132        116        117        134        133        117        118        135        134        119        120        137        136        120        121        138        137        121        122        139        138        122        123        140        139        123        124        141        140        124        125        142        141        125        126        143        142        126        127        144        143        127        128        145        144        128        129        146        145        129        130        147        146        130        131        148        147        131        132        149        148        132        133        150        149        133        134        151        150        134        135        152        151        136        137        154        153        137        138        155        154        138        139        156        155        139        140        157        156        140        141        158        157        141        142        159        158        142        143        160        159        143        144        161        160        144        145        162        161        145        146        163        162        146        147        164        163        147        148        165        164        148        149        166        165        149        150        167        166        150        151        168        167        151        152        169        168        153        154        171        170        154        155        172        171        155        156        173        172        156        157        174        173        157        158        175        174        158        159        176        175        159        160        177        176        160        161        178        177        161        162        179        178        162        163        180        179        163        164        181        180        164        165        182        181        165        166        183        182        166        167        184        183        167        168        185        184        168        169        186        185        170        171        188        187        171        172        189        188        172        173        190        189        173        174        191        190        174        175        192        191        175        176        193        192        176        177        194        193        177        178        195        194        178        179        196        195        179        180        197        196        180        181        198        197        181        182        199        198        182        183        200        199        183        184        201        200        184        185        202        201        185        186        203        202        187        188        205        204        188        189        206        205        189        190        207        206        190        191        208        207        191        192        209        208        192        193        210        209        193        194        211        210        194        195        212        211        195        196        213        212        196        197        214        213        197        198        215        214        198        199        216        215        199        200        217        216        200        201        218        217        201        202        219        218        202        203        220        219        204        205        222        221        205        206        223        222        206        207        224        223        207        208        225        224        208        209        226        225        209        210        227        226        210        211        228        227        211        212        229        228        212        213        230        229        213        214        231        230        214        215        232        231        215        216        233        232        216        217        234        233        217        218        235        234        218        219        236        235        219        220        237        236        221        222        239        238        222        223        240        239        223        224        241        240        224        225        242        241        225        226        243        242        226        227        244        243        227        228        245        244        228        229        246        245        229        230        247        246        230        231        248        247        231        232        249        248        232        233        250        249        233        234        251        250        234        235        252        251        235        236        253        252        236        237        254        253        238        239        256        255        239        240        257        256        240        241        258        257        241        242        259        258        242        243        260        259        243        244        261        260        244        245        262        261        245        246        263        262        246        247        264        263        247        248        265        264        248        249        266        265        249        250        267        266        250        251        268        267        251        252        269        268        252        253        270        269        253        254        271        270        255        256        273        272        256        257        274        273        257        258        275        274        258        259        276        275        259        260        277        276        260        261        278        277        261        262        279        278        262        263        280        279        263        264        281        280        264        265        282        281        265        266        283        282        266        267        284        283        267        268        285        284        268        269        286        285        269        270        287        286        270        271        288        287        306        307          1          0        307        308          2          1        308        309          3          2        309        310          4          3        310        311          5          4        311        312          6          5        312        313          7          6        313        314          8          7        314        315          9          8        315        316         10          9        316        317         11         10        317        318         12         11        318        319         13         12        319        320         14         13        320        321         15         14        321        322         16         15        323        324        307        306        324        325        308        307        325        326        309        308        326        327        310        309        327        328        311        310        328        329        312        311        329        330        313        312        330        331        314        313        331        332        315        314        332        333        316        315        333        334        317        316        334        335        318        317        335        336        319        318        336        337        320        319        337        338        321        320        338        339        322        321        340        341        324        323        341        342        325        324        342        343        326        325        343        344        327        326        344        345        328        327        345        346        329        328        346        347        330        329        347        348        331        330        348        349        332        331        349        350        333        332        350        351        334        333        351        352        335        334        352        353        336        335        353        354        337        336        354        355        338        337        355        356        339        338        357        358        341        340        358        359        342        341        359        360        343        342        360        361        344        343        361        362        345        344        362        363        346        345        363        364        347        346        364        365        348        347        365        366        349        348        366        367        350        349        367        368        351        350        368        369        352        351        369        370        353        352        370        371        354        353        371        372        355        354        372        373        356        355        374        375        358        357        375        376        359        358        376        377        360        359        377        378        361        360        378        379        362        361        379        380        363        362        380        381        364        363        381        382        365        364        382        383        366        365        383        384        367        366        384        385        368        367        385        386        369        368        386        387        370        369        387        388        371        370        388        389        372        371        389        390        373        372        391        392        375        374        392        393        376        375        393        394        377        376        394        395        378        377        395        396        379        378        396        397        380        379        397        398        381        380        398        399        382        381        399        400        383        382        400        401        384        383        401        402        385        384        402        403        386        385        403        404        387        386        404        405        388        387        405        406        389        388        406        407        390        389        408        409        392        391        409        410        393        392        410        411        394        393        411        412        395        394        412        413        396        395        413        414        397        396        414        415        398        397        415        416        399        398        416        417        400        399        417        418        401        400        418        419        402        401        419        420        403        402        420        421        404        403        421        422        405        404        422        423        406        405        423        424        407        406        425        426        409        408        426        427        410        409        427        428        411        410        428        429        412        411        429        430        413        412        430        431        414        413        431        432        415        414        432        433        416        415        433        434        417        416        434        435        418        417        435        436        419        418        436        437        420        419        437        438        421        420        438        439        422        421        439        440        423        422        440        441        424        423        442        443        426        425        443        444        427        426        444        445        428        427        445        446        429        428        446        447        430        429        447        448        431        430        448        449        432        431        449        450        433        432        450        451        434        433        451        452        435        434        452        453        436        435        453        454        437        436        454        455        438        437        455        456        439        438        456        457        440        439        457        458        441        440        459        460        443        442        460        461        444        443        461        462        445        444        462        463        446        445        463        464        447        446        464        465        448        447        465        466        449        448        466        467        450        449        467        468        451        450        468        469        452        451        469        470        453        452        470        471        454        453        471        472        455        454        472        473        456        455        473        474        457        456        474        475        458        457        476        477        460        459        477        478        461        460        478        479        462        461        479        480        463        462        480        481        464        463        481        482        465        464        482        483        466        465        483        484        467        466        484        485        468        467        485        486        469        468        486        487        470        469        487        488        471        470        488        489        472        471        489        490        473        472        490        491        474        473        491        492        475        474        493        494        477        476        494        495        478        477        495        496        479        478        496        497        480        479        497        498        481        480        498        499        482        481        499        500        483        482        500        501        484        483        501        502        485        484        502        503        486        485        503        504        487        486        504        505        488        487        505        506        489        488        506        507        490        489        507        508        491        490        508        509        492        491        510        511        494        493        511        512        495        494        512        513        496        495        513        514        497        496        514        515        498        497        515        516        499        498        516        517        500        499        517        518        501        500        518        519        502        501        519        520        503        502        520        521        504        503        521        522        505        504        522        523        506        505        523        524        507        506        524        525        508        507        525        526        509        508        527        528        511        510        528        529        512        511        529        530        513        512        530        531        514        513        531        532        515        514        532        533        516        515        533        534        517        516        534        535        518        517        535        536        519        518        536        537        520        519        537        538        521        520        538        539        522        521        539        540        523        522        540        541        524        523        541        542        525        524        542        543        526        525        544        545        528        527        545        546        529        528        546        547        530        529        547        548        531        530        548        549        532        531        549        550        533        532        550        551        534        533        551        552        535        534        552        553        536        535        553        554        537        536        554        555        538        537        555        556        539        538        556        557        540        539        557        558        541        540        558        559        542        541        559        560        543        542        561        562        545        544        562        563        546        545        563        564        547        546        564        565        548        547        565        566        549        548        566        567        550        549        567        568        551        550        568        569        552        551        569        570        553        552        570        571        554        553        571        572        555        554        572        573        556        555        573        574        557        556        574        575        558        557        575        576        559        558        576        577        560        559        578        579        596        595        579        580        597        596        580        581        598        597        581        582        599        598        582        583        600        599        583        584        601        600        584        585        602        601        585        586        603        602        586        587        604        603        587        588        605        604        588        589        606        605        589        590        607        606        590        591        608        607        591        592        609        608        592        593        610        609        593        594        611        610        595        596        613        612        596        597        614        613        597        598        615        614        598        599        616        615        599        600        617        616        600        601        618        617        601        602        619        618        602        603        620        619        603        604        621        620        604        605        622        621        605        606        623        622        606        607        624        623        607        608        625        624        608        609        626        625        609        610        627        626        610        611        628        627        612        613        630        629        613        614        631        630        614        615        632        631        615        616        633        632        616        617        634        633        617        618        635        634        618        619        636        635        619        620        637        636        620        621        638        637        621        622        639        638        622        623        640        639        623        624        641        640        624        625        642        641        625        626        643        642        626        627        644        643        627        628        645        644        629        630        647        646        630        631        648        647        631        632        649        648        632        633        650        649        633        634        651        650        634        635        652        651        635        636        653        652        636        637        654        653        637        638        655        654        638        639        656        655        639        640        657        656        640        641        658        657        641        642        659        658        642        643        660        659        643        644        661        660        644        645        662        661        646        647        664        663        647        648        665        664        648        649        666        665        649        650        667        666        650        651        668        667        651        652        669        668        652        653        670        669        653        654        671        670        654        655        672        671        655        656        673        672        656        657        674        673        657        658        675        674        658        659        676        675        659        660        677        676        660        661        678        677        661        662        679        678        663        664        681        680        664        665        682        681        665        666        683        682        666        667        684        683        667        668        685        684        668        669        686        685        669        670        687        686        670        671        688        687        671        672        689        688        672        673        690        689        673        674        691        690        674        675        692        691        675        676        693        692        676        677        694        693        677        678        695        694        678        679        696        695        680        681        698        697        681        682        699        698        682        683        700        699        683        684        701        700        684        685        702        701        685        686        703        702        686        687        704        703        687        688        705        704        688        689        706        705        689        690        707        706        690        691        708        707        691        692        709        708        692        693        710        709        693        694        711        710        694        695        712        711        695        696        713        712        697        698        715        714        698        699        716        715        699        700        717        716        700        701        718        717        701        702        719        718        702        703        720        719        703        704        721        720        704        705        722        721        705        706        723        722        706        707        724        723        707        708        725        724        708        709        726        725        709        710        727        726        710        711        728        727        711        712        729        728        712        713        730        729        714        715        732        731        715        716        733        732        716        717        734        733        717        718        735        734        718        719        736        735        719        720        737        736        720        721        738        737        721        722        739        738        722        723        740        739        723        724        741        740        724        725        742        741        725        726        743        742        726        727        744        743        727        728        745        744        728        729        746        745        729        730        747        746        731        732        749        748        732        733        750        749        733        734        751        750        734        735        752        751        735        736        753        752        736        737        754        753        737        738        755        754        738        739        756        755        739        740        757        756        740        741        758        757        741        742        759        758        742        743        760        759        743        744        761        760        744        745        762        761        745        746        763        762        746        747        764        763        748        749        766        765        749        750        767        766        750        751        768        767        751        752        769        768        752        753        770        769        753        754        771        770        754        755        772        771        755        756        773        772        756        757        774        773        757        758        775        774        758        759        776        775        759        760        777        776        760        761        778        777        761        762        779        778        762        763        780        779        763        764        781        780        765        766        783        782        766        767        784        783        767        768        785        784        768        769        786        785        769        770        787        786        770        771        788        787        771        772        789        788        772        773        790        789        773        774        791        790        774        775        792        791        775        776        793        792        776        777        794        793        777        778        795        794        778        779        796        795        779        780        797        796        780        781        798        797        782        783        800        799        783        784        801        800        784        785        802        801        785        786        803        802        786        787        804        803        787        788        805        804        788        789        806        805        789        790        807        806        790        791        808        807        791        792        809        808        792        793        810        809        793        794        811        810        794        795        812        811        795        796        813        812        796        797        814        813        797        798        815        814        799        800        817        816        800        801        818        817        801        802        819        818        802        803        820        819        803        804        821        820        804        805        822        821        805        806        823        822        806        807        824        823        807        808        825        824        808        809        826        825        809        810        827        826        810        811        828        827        811        812        829        828        812        813        830        829        813        814        831        830        814        815        832        831        816        817        834        833        817        818        835        834        818        819        836        835        819        820        837        836        820        821        838        837        821        822        839        838        822        823        840        839        823        824        841        840        824        825        842        841        825        826        843        842        826        827        844        843        827        828        845        844        828        829        846        845        829        830        847        846        830        831        848        847        831        832        849        848        833        834        562        561        834        835        563        562        835        836        564        563        836        837        565        564        837        838        566        565        838        839        567        566        839        840        568        567        840        841        569        568        841        842        570        569        842        843        571        570        843        844        572        571        844        845        573        572        845        846        574        573        846        847        575        574        847        848        576        575        848        849        577        576        884        885        579        578        885        886        580        579        886        887        581        580        887        888        582        581        888        889        583        582        889        890        584        583        890        891        585        584        891        892        586        585        892        893        587        586        893        894        588        587        894        895        589        588        895        896        590        589        896        897        591        590        897        898        592        591        898        899        593        592        899        900        594        593        901        902        885        884        902        903        886        885        903        904        887        886        904        905        888        887        905        906        889        888        906        907        890        889        907        908        891        890        908        909        892        891        909        910        893        892        910        911        894        893        911        912        895        894        912        913        896        895        913        914        897        896        914        915        898        897        915        916        899        898        916        917        900        899        918        919        902        901        919        920        903        902        920        921        904        903        921        922        905        904        922        923        906        905        923        924        907        906        924        925        908        907        925        926        909        908        926        927        910        909        927        928        911        910        928        929        912        911        929        930        913        912        930        931        914        913        931        932        915        914        932        933        916        915        933        934        917        916        935        936        919        918        936        937        920        919        937        938        921        920        938        939        922        921        939        940        923        922        940        941        924        923        941        942        925        924        942        943        926        925        943        944        927        926        944        945        928        927        945        946        929        928        946        947        930        929        947        948        931        930        948        949        932        931        949        950        933        932        950        951        934        933        952        953        936        935        953        954        937        936        954        955        938        937        955        956        939        938        956        957        940        939        957        958        941        940        958        959        942        941        959        960        943        942        960        961        944        943        961        962        945        944        962        963        946        945        963        964        947        946        964        965        948        947        965        966        949        948        966        967        950        949        967        968        951        950        969        970        953        952        970        971        954        953        971        972        955        954        972        973        956        955        973        974        957        956        974        975        958        957        975        976        959        958        976        977        960        959        977        978        961        960        978        979        962        961        979        980        963        962        980        981        964        963        981        982        965        964        982        983        966        965        983        984        967        966        984        985        968        967        986        987        970        969        987        988        971        970        988        989        972        971        989        990        973        972        990        991        974        973        991        992        975        974        992        993        976        975        993        994        977        976        994        995        978        977        995        996        979        978        996        997        980        979        997        998        981        980        998        999        982        981        999       1000        983        982       1000       1001        984        983       1001       1002        985        984       1003       1004        987        986       1004       1005        988        987       1005       1006        989        988       1006       1007        990        989       1007       1008        991        990       1008       1009        992        991       1009       1010        993        992       1010       1011        994        993       1011       1012        995        994       1012       1013        996        995       1013       1014        997        996       1014       1015        998        997       1015       1016        999        998       1016       1017       1000        999       1017       1018       1001       1000       1018       1019       1002       1001       1020       1021       1004       1003       1021       1022       1005       1004       1022       1023       1006       1005       1023       1024       1007       1006       1024       1025       1008       1007       1025       1026       1009       1008       1026       1027       1010       1009       1027       1028       1011       1010       1028       1029       1012       1011       1029       1030       1013       1012       1030       1031       1014       1013       1031       1032       1015       1014       1032       1033       1016       1015       1033       1034       1017       1016       1034       1035       1018       1017       1035       1036       1019       1018       1037       1038       1021       1020       1038       1039       1022       1021       1039       1040       1023       1022       1040       1041       1024       1023       1041       1042       1025       1024       1042       1043       1026       1025       1043       1044       1027       1026       1044       1045       1028       1027       1045       1046       1029       1028       1046       1047       1030       1029       1047       1048       1031       1030       1048       1049       1032       1031       1049       1050       1033       1032       1050       1051       1034       1033       1051       1052       1035       1034       1052       1053       1036       1035       1054       1055       1038       1037       1055       1056       1039       1038       1056       1057       1040       1039       1057       1058       1041       1040       1058       1059       1042       1041       1059       1060       1043       1042       1060       1061       1044       1043       1061       1062       1045       1044       1062       1063       1046       1045       1063       1064       1047       1046       1064       1065       1048       1047       1065       1066       1049       1048       1066       1067       1050       1049       1067       1068       1051       1050       1068       1069       1052       1051       1069       1070       1053       1052       1071       1072       1055       1054       1072       1073       1056       1055       1073       1074       1057       1056       1074       1075       1058       1057       1075       1076       1059       1058       1076       1077       1060       1059       1077       1078       1061       1060       1078       1079       1062       1061       1079       1080       1063       1062       1080       1081       1064       1063       1081       1082       1065       1064       1082       1083       1066       1065       1083       1084       1067       1066       1084       1085       1068       1067       1085       1086       1069       1068       1086       1087       1070       1069       1088       1089       1072       1071       1089       1090       1073       1072       1090       1091       1074       1073       1091       1092       1075       1074       1092       1093       1076       1075       1093       1094       1077       1076       1094       1095       1078       1077       1095       1096       1079       1078       1096       1097       1080       1079       1097       1098       1081       1080       1098       1099       1082       1081       1099       1100       1083       1082       1100       1101       1084       1083       1101       1102       1085       1084       1102       1103       1086       1085       1103       1104       1087       1086       1105       1106       1089       1088       1106       1107       1090       1089       1107       1108       1091       1090       1108       1109       1092       1091       1109       1110       1093       1092       1110       1111       1094       1093       1111       1112       1095       1094       1112       1113       1096       1095       1113       1114       1097       1096       1114       1115       1098       1097       1115       1116       1099       1098       1116       1117       1100       1099       1117       1118       1101       1100       1118       1119       1102       1101       1119       1120       1103       1102       1120       1121       1104       1103       1122       1123       1106       1105       1123       1124       1107       1106       1124       1125       1108       1107       1125       1126       1109       1108       1126       1127       1110       1109       1127       1128       1111       1110       1128       1129       1112       1111       1129       1130       1113       1112       1130       1131       1114       1113       1131       1132       1115       1114       1132       1133       1116       1115       1133       1134       1117       1116       1134       1135       1118       1117       1135       1136       1119       1118       1136       1137       1120       1119       1137       1138       1121       1120        272        273       1123       1122        273        274       1124       1123        274        275       1125       1124        275        276       1126       1125        276        277       1127       1126        277        278       1128       1127        278        279       1129       1128        279        280       1130       1129        280        281       1131       1130        281        282       1132       1131        282        283       1133       1132        283        284       1134       1133        284        285       1135       1134        285        286       1136       1135        286        287       1137       1136        287        288       1138       1137 </DataArray>
<DataArray type="Int32"                                    Name="offsets"                                                      NumberOfComponents=" 1" format="ascii">
         4          8         12         16         20         24         28         32         36         40         44         48         52         56         60         64         68         72         76         80         84         88         92         96        100        104        108        112        116        120        124        128        132        136        140        144        148        152        156        160        164        168        172        176        180        184        188        192        196        200        204        208        212        216        220        224        228        232        236        240        244        248        252        256        260        264        268        272        276        280        284        288        292        296        300        304        308        312        316        320        324        328        332        336        340        344        348        352        356        360        364        368        372        376        380        384        388        392        396        400        404        408        412        416        420        424        428        432        436        440        444        448        452        456        460        464        468        472        476        480        484        488        492        496        500        504        508        512        516        520        524        528        532        536        540        544        548        552        556        560        564        568        572        576        580        584        588        592        596        600        604        608        612        616        620        624        628        632        636        640        644        648        652        656        660        664        668        672        676        680        684        688        692        696        700        704        708        712        716        720        724        728        732        736        740        744        748        752        756        760        764        768        772        776        780        784        788        792        796        800        804        808        812        816        820        824        828        832        836        840        844        848        852        856        860        864        868        872        876        880        884        888        892        896        900        904        908        912        916        920        924        928        932        936        940        944        948        952        956        960        964        968        972        976        980        984        988        992        996       1000       1004       1008       1012       1016       1020       1024       1028       1032       1036       1040       1044       1048       1052       1056       1060       1064       1068       1072       1076       1080       1084       1088       1092       1096       1100       1104       1108       1112       1116       1120       1124       1128       1132       1136       1140       1144       1148       1152       1156       1160       1164       1168       1172       1176       1180       1184       1188       1192       1196       1200       1204       1208       1212       1216       1220       1224       1228       1232       1236       1240       1244       1248       1252       1256       1260       1264       1268       1272       1276       1280       1284       1288       1292       1296       1300       1304       1308       1312       1316       1320       1324       1328       1332       1336       1340       1344       1348       1352       1356       1360       1364       1368       1372       1376       1380       1384       1388       1392       1396       1400       1404       1408       1412       1416       1420       1424       1428       1432       1436       1440       1444       1448       1452       1456       1460       1464       1468       1472       1476       1480       1484       1488       1492       1496       1500       1504       1508       1512       1516       1520       1524       1528       1532       1536       1540       1544       1548       1552       1556       1560       1564       1568       1572       1576       1580       1584       1588       1592       1596       1600       1604       1608       1612       1616       1620       1624       1628       1632       1636       1640       1644       1648       1652       1656       1660       1664       1668       1672       1676       1680       1684       1688       1692       1696       1700       1704       1708       1712       1716       1720       1724       1728       1732       1736       1740       1744       1748       1752       1756       1760       1764       1768       1772       1776       1780       1784       1788       1792       1796       1800       1804       1808       1812       1816       1820       1824       1828       1832       1836       1840       1844       1848       1852       1856       1860       1864       1868       1872       1876       1880       1884       1888       1892       1896       1900       1904       1908       1912       1916       1920       1924       1928       1932       1936       1940       1944       1948       1952       1956       1960       1964       1968       1972       1976       1980       1984       1988       1992       1996       2000       2004       2008       2012       2016       2020       2024       2028       2032       2036       2040       2044       2048       2052       2056       2060       2064       2068       2072       2076       2080       2084       2088       2092       2096       2100       2104       2108       2112       2116       2120       2124       2128       2132       2136       2140       2144       2148       2152       2156       2160       2164       2168       2172       2176       2180       2184       2188       2192       2196       2200       2204       2208       2212       2216       2220       2224       2228       2232       2236       2240       2244       2248       2252       2256       2260       2264       2268       2272       2276       2280       2284       2288       2292       2296       2300       2304       2308       2312       2316       2320       2324       2328       2332       2336       2340       2344       2348       2352       2356       2360       2364       2368       2372       2376       2380       2384       2388       2392       2396       2400       2404       2408       2412       2416       2420       2424       2428       2432       2436       2440       2444       2448       2452       2456       2460       2464       2468       2472       2476       2480       2484       2488       2492       2496       2500       2504       2508       2512       2516       2520       2524       2528       2532       2536       2540       2544       2548       2552       2556       2560       2564       2568       2572       2576       2580       2584       2588       2592       2596       2600       2604       2608       2612       2616       2620       2624       2628       2632       2636       2640       2644       2648       2652       2656       2660       2664       2668       2672       2676       2680       2684       2688       2692       2696       2700       2704       2708       2712       2716       2720       2724       2728       2732       2736       2740       2744       2748       2752       2756       2760       2764       2768       2772       2776       2780       2784       2788       2792       2796       2800       2804       2808       2812       2816       2820       2824       2828       2832       2836       2840       2844       2848       2852       2856       2860       2864       2868       2872       2876       2880       2884       2888       2892       2896       2900       2904       2908       2912       2916       2920       2924       2928       2932       2936       2940       2944       2948       2952       2956       2960       2964       2968       2972       2976       2980       2984       2988       2992       2996       3000       3004       3008       3012       3016       3020       3024       3028       3032       3036       3040       3044       3048       3052       3056       3060       3064       3068       3072       3076       3080       3084       3088       3092       3096       3100       3104       3108       3112       3116       3120       3124       3128       3132       3136       3140       3144       3148       3152       3156       3160       3164       3168       3172       3176       3180       3184       3188       3192       3196       3200       3204       3208       3212       3216       3220       3224       3228       3232       3236       3240       3244       3248       3252       3256       3260       3264       3268       3272       3276       3280       3284       3288       3292       3296       3300       3304       3308       3312       3316       3320       3324       3328       3332       3336       3340       3344       3348       3352       3356       3360       3364       3368       3372       3376       3380       3384       3388       3392       3396       3400       3404       3408       3412       3416       3420       3424       3428       3432       3436       3440       3444       3448       3452       3456       3460       3464       3468       3472       3476       3480       3484       3488       3492       3496       3500       3504       3508       3512       3516       3520       3524       3528       3532       3536       3540       3544       3548       3552       3556       3560       3564       3568       3572       3576       3580       3584       3588       3592       3596       3600       3604       3608       3612       3616       3620       3624       3628       3632       3636       3640       3644       3648       3652       3656       3660       3664       3668       3672       3676       3680       3684       3688       3692       3696       3700       3704       3708       3712       3716       3720       3724       3728       3732       3736       3740       3744       3748       3752       3756       3760       3764       3768       3772       3776       3780       3784       3788       3792       3796       3800       3804       3808       3812       3816       3820       3824       3828       3832       3836       3840       3844       3848       3852       3856       3860       3864       3868       3872       3876       3880       3884       3888       3892       3896       3900       3904       3908       3912       3916       3920       3924       3928       3932       3936       3940       3944       3948       3952       3956       3960       3964       3968       3972       3976       3980       3984       3988       3992       3996       4000       4004       4008       4012       4016       4020       4024       4028       4032       4036       4040       4044       4048       4052       4056       4060       4064       4068       4072       4076       4080       4084       4088       4092       4096 </DataArray>
<DataArray type="UInt8"                                    Name="types"                                                      NumberOfComponents=" 1" format="ascii">
         9          9          9          9          9          9          9          9          9          9          9          9          9          9          9          9          9          9          9          9          9          9          9          9          9          9          9          9          9          9          9          9          9          9          9          9          9          9          9          9          9          9          9          9          9          9          9          9          9          9          9          9          9          9          9          9          9          9          9          9          9          9          9          9          9          9          9          9          9          9          9          9          9          9          9          9          9          9          9          9          9          9          9          9          9          9          9          9          9          9          9          9          9          9          9          9          9          9          9          9          9          9          9          9          9          9          9          9          9          9          9          9          9          9          9          9          9          9          9          9          9          9          9          9          9          9          9          9          9          9          9          9          9          9          9          9          9          9          9          9          9          9          9          9          9          9          9          9          9          9          9          9          9          9          9          9          9          9          9          9          9          9          9          9          9          9          9          9          9          9          9          9          9          9          9          9          9          9          9          9          9          9          9          9          9          9          9          9          9          9          9          9          9          9          9          9          9          9          9          9          9          9          9          9          9          9          9          9          9          9          9          9          9          9          9          9          9          9          9          9          9          9          9          9          9          9          9          9          9          9          9          9          9          9          9          9          9          9          9          9          9          9          9          9          9          9          9          9          9          9          9          9          9          9          9          9          9          9          9          9          9          9          9          9          9          9          9          9          9          9          9          9          9          9          9          9          9          9          9          9          9          9          9          9          9          9          9          9          9          9          9          9          9          9          9          9          9          9          9          9          9          9          9          9          9          9          9          9          9          9          9          9          9          9          9          9          9          9          9          9          9          9          9          9          9          9          9          9          9          9          9          9          9          9          9          9          9          9          9          9          9          9          9          9          9          9          9          9          9          9          9          9          9          9          9          9          9          9          9          9          9          9          9          9          9          9          9          9          9          9          9          9          9          9          9          9          9          9          9          9          9          9          9          9          9          9          9          9          9          9          9          9          9          9          9          9          9          9          9          9          9          9          9          9          9          9          9          9          9          9          9          9          9          9          9          9          9          9          9          9          9          9          9          9          9          9          9          9          9          9          9          9          9          9          9          9          9          9          9          9          9          9          9          9          9          9          9          9          9          9          9          9          9          9          9          9          9          9          9          9          9          9          9          9          9          9          9          9          9          9          9          9          9          9          9          9          9          9          9          9          9          9          9          9          9          9          9          9          9          9          9          9          9          9          9          9          9          9          9          9          9          9          9          9          9          9          9          9          9          9          9          9          9          9          9          9          9          9          9          9          9          9          9          9          9          9          9          9          9          9          9          9          9          9          9          9          9          9          9          9          9          9          9          9          9          9          9          9          9          9          9          9          9          9          9          9          9          9          9          9          9          9          9          9          9          9          9          9          9          9          9          9          9          9          9          9          9          9          9          9          9          9          9          9          9          9          9          9          9          9          9          9          9          9          9          9          9          9          9          9          9          9          9          9          9          9          9          9          9          9          9          9          9          9          9          9          9          9          9          9          9          9          9          9          9          9          9          9          9          9          9          9          9          9          9          9          9          9          9          9          9          9          9          9          9          9          9          9          9          9          9          9          9          9          9          9          9          9          9          9          9          9          9          9          9          9          9          9          9          9          9          9          9          9          9          9          9          9          9          9          9          9          9          9          9          9          9          9          9          9          9          9          9          9          9          9          9          9          9          9          9          9          9          9          9          9          9          9          9          9          9          9          9          9          9          9          9          9          9          9          9          9          9          9          9          9          9          9          9          9          9          9          9          9          9          9          9          9          9          9          9          9          9          9          9          9          9          9          9          9          9          9          9          9          9          9          9          9          9          9          9          9          9          9          9          9          9          9          9          9          9          9          9          9          9          9          9          9          9          9          9          9          9          9          9          9          9          9          9          9          9          9          9          9          9          9          9          9          9          9          9          9          9          9          9          9          9          9          9          9          9          9          9          9          9          9          9          9          9          9          9          9          9          9          9          9          9          9          9          9          9          9          9          9          9          9          9          9          9          9          9          9          9          9          9          9          9          9          9          9          9          9          9          9          9          9          9          9          9          9          9          9          9          9          9          9          9          9          9          9          9          9          9          9          9          9          9          9          9          9          9          9          9          9          9          9          9          9          9          9          9          9          9          9          9          9          9          9          9          9          9          9          9          9          9          9          9          9          9          9          9          9          9          9          9          9          9          9          9          9          9          9          9          9          9          9          9          9          9          9          9          9          9          9          9          9          9          9          9          9          9          9          9          9          9          9          9          9          9          9          9          9          9          9          9          9          9          9          9          9          9          9          9          9          9          9          9          9          9          9          9          9          9          9          9          9          9          9          9          9          9          9          9          9          9          9          9          9          9          9          9          9          9          9          9          9          9          9          9          9          9          9          9          9          9          9          9          9          9          9          9          9          9          9          9          9          9          9          9          9          9          9          9          9 </DataArray>
</Cells>
<CellData>
<DataArray type="Int32"                                    Name="material"                                                      NumberOfComponents=" 1" format="ascii">
         1          1          1          1          1          1          1          1          1          1          1          1          1          1          1          1          1          1          1          1          1          1          1          1          1          1          1          1          1          1          1          1          1          1          1          1          1          1          1          1          1          1          1          1          1          1          1          1          1          1          1          1          1          1          1          1          1          1          1          1          1          1          1          1          1          1          1          1          1          1          1          1          1          1          1          1          1          1          1          1          1          1          1          1          1          1          1          1          1          1          1          1          1          1          1          1          1          1          1          1          1          1          1          1          1          1          1          1          1          1          1          1          1          1          1          1          1          1          1          1          1          1          1          1          1          1          1          1          1          1          1          1          1          1          1          1          1          1          1          1          1          1          1          1          1          1          1          1          1          1          1          1          1          1          1          1          1          1          1          1          1          1          1          1          1          1          1          1          1          1          1          1          1          1          1          1          1          1          1          1          1          1          1          1          1          1          1          1          1          1          1          1          1          1          1          1          1          1          1          1          1          1          1          1          1          1          1          1          1          1          1          1          1          1          1          1          1          1          1          1          1          1          1          1          1          1          1          1          1          1          1          1          1          1          1          1          1          1          1          1          1          1          1          1          1          1          1          1          1          1          1          1          1          1          1          1          1          1          1          1          1          1          1          1          1          1          1          1          1          1          1          1          1          1          1          1          1          1          1          1          1          1          1          1          1          1          1          1          1          1          1          1          1          1          1          1          1          1          1          1          1          1          1          1          1          1          1          1          1          1          1          1          1          1          1          1          1          1          1          1          1          1          1          1          1          1          1          1          1          1          1          1          1          1          1          1          1          1          1          1          1          1          1          1          1          1          1          1          1          1          1          1          1          1          1          1          1          1          1          1          1          1          1          1          1          1          1          1          1          1          1          1          1          1          1          1          1          1          1          1          1          1          1          1          1          1          1          1          1          1          1          1          1          1          1          1          1          1          1          1          1          1          1          1          1          1          1          1          1          1          1          1          1          1          1          1          1          1          1          1          1          1          1          1          1          1          1          1          1          1          1          1          1          1          1          1          1          1          1          1          1          1          1          1          1          1          1          1          1          1          1          1          1          1          1          1          1          1          1          1          1          1          1          1          1          1          1          1          1          1          1          1          1          1          1          1          1          1          1          1          1          1          1          1          1          1          1          1          1          1          1          1          1          1          1          1          1          1          1          1          1          1          1          1          1          1          1          1          1          1          1          1          1          1          1          1          1          1          1          1          1          1          1          1          1          1          1          1          1          1          1          1          1          1          1          1          1          1          1          1          1          1          1          1          1          1          1          1          1          1          1          1          1          1          1          1          1          1          1          1          1          1          1          1          1          1          1          1          1          1          1          1          1          1          1          1          1          1          1          1          1          1          1          1          1          1          1          1          1          1          1          1          1          1          1          1          1          1          1          1          1          1          1          1          1          1          1          1          1          1          1          1          1          1          1          1          1          1          1          1          1          1          1          1          1          1          1          1          1          1          1          1          1          1          1          1          1          1          1          1          1          1          1          1          1          1          1          1          1          1          1          1          1          1          1          1          1          1          1          1          1          1          1          1          1          1          1          1          1          1          1          1          1          1          1          1          1          1          1          1          1          1          1          1          1          1          1          1          1          1          1          1          1          1          1          1          1          1          1          1          1          1          1          1          1          1          1          1          1          1          1          1          1          1          1          1          1          1          1          1          1          1          1          1          1          1          1          1          1          1          1          1          1          1          1          1          1          1          1          1          1          1          1          1          1          1          1          1          1          1          1          1          1          1          1          1          1          1          1          1          1          1          1          1          1          1          1          1          1          1          1          1          1          1          1          1          1          1          1          1          1          1          1          1          1          1          1          1          1          1          1          1          1          1          1          1          1          1          1          1          1          1          1          1          1          1          1          1          1          1          1          1          1          1          1          1          1          1          1          1          1          1          1          1          1          1          1          1          1          1          1          1          1          1          1          1          1          1          1          1          1          1          1          1          1          1          1          1          1          1          1          1          1          1          1          1          1          1          1          1          1          1          1          1          1          1          1          1          1          1          1          1          1          1          1          1          1          1          1          1          1          1          1          1          1          1          1          1          1          1          1          1          1          1          1          1          1          1          1          1          1          1          1          1          1          1          1          1          1          1          1          1          1          1          1          1          1          1          1          1          1          1          1          1          1          1          1          1          1          1          1          1          1          1          1          1          1          1          1          1          1          1          1          1          1          1          1          1          1          1          1          1          1          1          1          1          1          1          1          1          1          1          1          1          1          1          1          1          1          1          1          1          1          1          1          1          1          1          1          1          1          1          1          1          1          1          1          1          1          1          1          1          1          1          1          1          1          1          1          1          1          1          1          1          1          1          1          1          1          1          1          1          1          1          1          1          1          1          1          1          1          1          1          1 </DataArray>
</CellData>
<PointData>
<DataArray type="Float64"                                    Name="u"                                                      NumberOfComponents=" 3" format="ascii">
             -0.000428213              -0.000000000               0.999999985              -0.000469502               0.000000000               0.999999985              -0.000488462              -0.000000000               0.999999985              -0.000499714              -0.000000000               0.999999985              -0.000508849              -0.000000000               0.999999985              -0.000517980              -0.000000000               0.999999985              -0.000527901              -0.000000000               0.999999985              -0.000538813              -0.000000000               0.999999985              -0.000550670              -0.000000000               0.999999985              -0.000563480               0.000000000               0.999999985              -0.000577070               0.000000000               0.999999985              -0.000591371               0.000000000               0.999999985              -0.000606199               0.000000000               0.999999985              -0.000621340              -0.000000000               0.999999985              -0.000636584               0.000000000               0.999999985              -0.000651496               0.000000000               0.999999985              -0.000665503               0.000000000               0.999999985              -0.000425627               0.000105264               0.999999985              -0.000464196               0.000087782               0.999999985              -0.000481476               0.000081152               0.999999985              -0.000491689               0.000079873               0.999999985              -0.000500213               0.000081608               0.999999985              -0.000509016               0.000084853               0.999999985              -0.000518680               0.000088916               0.999999985              -0.000529304               0.000093330               0.999999985              -0.000540884               0.000097703               0.999999985              -0.000553360               0.000102066               0.999999985              -0.000566568               0.000106293               0.999999985              -0.000580408               0.000110018               0.999999985              -0.000594614               0.000112855               0.999999985              -0.000608970               0.000114634               0.999999985              -0.000623227               0.000115091               0.999999985              -0.000637017               0.000113474               0.999999985              -0.000649954               0.000109126               0.999999985              -0.000418101               0.000209359               0.999999985              -0.000448740               0.000174961               0.999999985              -0.000461315               0.000162456               0.999999985              -0.000468885               0.000160661               0.999999985              -0.000475889               0.000164592               0.999999985              -0.000483743               0.000171452               0.999999985              -0.000492710               0.000179752               0.999999985              -0.000502699               0.000188619               0.999999985              -0.000513529               0.000197611               0.999999985              -0.000525070               0.000206404               0.999999985              -0.000537077               0.000214810               0.999999985              -0.000549316               0.000222309               0.999999985              -0.000561518               0.000228168               0.999999985              -0.000573415               0.000232107               0.999999985              -0.000584853               0.000233675               0.999999985              -0.000595680               0.000232059               0.999999985              -0.000605829               0.000226204               0.999999985              -0.000405880               0.000311217               0.999999985              -0.000424142               0.000260930               0.999999985              -0.000430093               0.000243945               0.999999985              -0.000434244               0.000242834               0.999999985              -0.000439453               0.000249705               0.999999985              -0.000446260               0.000260660               0.999999985              -0.000454440               0.000273495               0.999999985              -0.000463669               0.000287075               0.999999985              -0.000473553               0.000300637               0.999999985              -0.000483806               0.000313867               0.999999985              -0.000493979               0.000326352               0.999999985              -0.000503749               0.000337460               0.999999985              -0.000512887               0.000346499               0.999999985              -0.000521374               0.000353263               0.999999985              -0.000529265               0.000357357               0.999999985              -0.000536575               0.000358188               0.999999985              -0.000543469               0.000355115               0.999999985              -0.000389280               0.000409814               0.999999985              -0.000391807               0.000345290               0.999999985              -0.000390557               0.000325645               0.999999985              -0.000391532               0.000326374               0.999999985              -0.000395344               0.000336884               0.999999985              -0.000401452               0.000352364               0.999999985              -0.000409106               0.000369973               0.999999985              -0.000417576               0.000388384               0.999999985              -0.000426391               0.000406560               0.999999985              -0.000435079               0.000424006               0.999999985              -0.000443134               0.000440231               0.999999985              -0.000450224               0.000454799               0.999999985              -0.000456420               0.000467235               0.999999985              -0.000461758               0.000477381               0.999999985              -0.000466388               0.000485221               0.999999985              -0.000470481               0.000490391               0.999999985              -0.000474292               0.000493170               0.999999985              -0.000368737               0.000504157               0.999999985              -0.000353518               0.000427827               0.999999985              -0.000345711               0.000407406               0.999999985              -0.000344615               0.000410865               0.999999985              -0.000347983               0.000425541               0.999999985              -0.000354085               0.000445675               0.999999985              -0.000361624               0.000468010               0.999999985              -0.000369592               0.000491011               0.999999985              -0.000377376               0.000513551               0.999999985              -0.000384403               0.000534946               0.999999985              -0.000390361               0.000554843               0.999999985              -0.000395103               0.000572796               0.999999985              -0.000398616               0.000588706               0.999999985              -0.000401132               0.000602681               0.999999985              -0.000402982               0.000614794               0.999999985              -0.000404251               0.000625210               0.999999985              -0.000405207               0.000634420               0.999999985              -0.000344553               0.000593367               0.999999985              -0.000311282               0.000508458               0.999999985              -0.000298678               0.000488740               0.999999985              -0.000297064               0.000495515               0.999999985              -0.000301171               0.000514413               0.999999985              -0.000308034               0.000538992               0.999999985              -0.000315810               0.000565758               0.999999985              -0.000323394               0.000592979               0.999999985              -0.000330164               0.000619506               0.999999985              -0.000335643               0.000644552               0.999999985              -0.000339428               0.000667928               0.999999985              -0.000341579               0.000689404               0.999999985              -0.000342396               0.000709003               0.999999985              -0.000342185               0.000727172               0.999999985              -0.000341009               0.000743958               0.999999985              -0.000339019               0.000759374               0.999999985              -0.000336169               0.000773904               0.999999985              -0.000317390               0.000676424               0.999999985              -0.000267329               0.000586891               0.999999985              -0.000252142               0.000569053               0.999999985              -0.000251822               0.000579182               0.999999985              -0.000257573               0.000602006               0.999999985              -0.000265572               0.000630705               0.999999985              -0.000273731               0.000661550               0.999999985              -0.000280992               0.000692638               0.999999985              -0.000286531               0.000722779               0.999999985              -0.000289964               0.000751277               0.999999985              -0.000291189               0.000778083               0.999999985              -0.000290449               0.000803155               0.999999985              -0.000287966               0.000826835               0.999999985              -0.000283928               0.000849191               0.999999985              -0.000278655               0.000870047               0.999999985              -0.000272330               0.000889776               0.999999985              -0.000264838               0.000908289               0.999999985              -0.000288290               0.000751942               0.999999985              -0.000223146               0.000663068               0.999999985              -0.000208703               0.000647247               0.999999985              -0.000210798               0.000660443               0.999999985              -0.000218634               0.000686861               0.999999985              -0.000227852               0.000719363               0.999999985              -0.000236342               0.000754041               0.999999985              -0.000242795               0.000788731               0.999999985              -0.000246524               0.000822269               0.999999985              -0.000247239               0.000854175               0.999999985              -0.000245110               0.000884505               0.999999985              -0.000240400               0.000913416               0.999999985              -0.000233675               0.000940420               0.999999985              -0.000225454               0.000965554               0.999999985              -0.000216087               0.000989341               0.999999985              -0.000205772               0.001011781               0.999999985              -0.000194791               0.001032989               0.999999985              -0.000258803               0.000822784               0.999999985              -0.000187095               0.000745563               0.999999985              -0.000169539               0.000725053               0.999999985              -0.000170083               0.000732443               0.999999985              -0.000176960               0.000753774               0.999999985              -0.000185654               0.000782394               0.999999985              -0.000193984               0.000814629               0.999999985              -0.000200760               0.000848066               0.999999985              -0.000205124               0.000881417               0.999999985              -0.000206470               0.000913770               0.999999985              -0.000204759               0.000945142               0.999999985              -0.000200324               0.000975320               0.999999985              -0.000193329               0.001003860               0.999999985              -0.000184323               0.001030801               0.999999985              -0.000173774               0.001056161               0.999999985              -0.000162156               0.001080223               0.999999985              -0.000150238               0.001103016               0.999999985              -0.000226508               0.000886827               0.999999985              -0.000153902               0.000824618               0.999999985              -0.000133296               0.000804064               0.999999985              -0.000131594               0.000807458               0.999999985              -0.000136945               0.000824659               0.999999985              -0.000144535               0.000849814               0.999999985              -0.000152298               0.000879563               0.999999985              -0.000158980               0.000911690               0.999999985              -0.000163602               0.000944683               0.999999985              -0.000165475               0.000977427               0.999999985              -0.000164343               0.001009565               0.999999985              -0.000160275               0.001040808               0.999999985              -0.000153334               0.001070620               0.999999985              -0.000143599               0.001098980               0.999999985              -0.000131473               0.001125969               0.999999985              -0.000117581               0.001151640               0.999999985              -0.000102799               0.001176223               0.999999985              -0.000192139               0.000942712               0.999999985              -0.000123388               0.000898094               0.999999985              -0.000101082               0.000880867               0.999999985              -0.000096992               0.000882738               0.999999985              -0.000100329               0.000897207               0.999999985              -0.000106380               0.000919719               0.999999985              -0.000113064               0.000947396               0.999999985              -0.000119164               0.000978289               0.999999985              -0.000123545               0.001010994               0.999999985              -0.000125673               0.001044287               0.999999985              -0.000125208               0.001077406               0.999999985              -0.000121781               0.001109824               0.999999985              -0.000115004               0.001141077               0.999999985              -0.000104939               0.001171021               0.999999985              -0.000091625               0.001199487               0.999999985              -0.000075403               0.001226813               0.999999985              -0.000056953               0.001253019               0.999999985              -0.000156011               0.000989564               0.999999985              -0.000095483               0.000963080               0.999999985              -0.000073382               0.000951776               0.999999985              -0.000067477               0.000954455               0.999999985              -0.000068789               0.000967775               0.999999985              -0.000073138               0.000988710               0.999999985              -0.000078344               0.001015022               0.999999985              -0.000083207               0.001045092               0.999999985              -0.000086993               0.001077669               0.999999985              -0.000089218               0.001111603               0.999999985              -0.000089275               0.001146059               0.999999985              -0.000086534               0.001180231               0.999999985              -0.000080367               0.001213373               0.999999985              -0.000070516               0.001245341               0.999999985              -0.000056782               0.001275887               0.999999985              -0.000038994               0.001305145               0.999999985              -0.000017258               0.001333181               0.999999985              -0.000118371               0.001026775               0.999999985              -0.000069735               0.001016946               0.999999985              -0.000050183               0.001012733               0.999999985              -0.000043734               0.001017898               0.999999985              -0.000043496               0.001031552               0.999999985              -0.000046115               0.001052073               0.999999985              -0.000049754               0.001077885               0.999999985              -0.000053221               0.001107631               0.999999985              -0.000056101               0.001140263               0.999999985              -0.000057987               0.001174898               0.999999985              -0.000058279               0.001210863               0.999999985              -0.000056304               0.001247156               0.999999985              -0.000051191               0.001282860               0.999999985              -0.000042373               0.001317633               0.999999985              -0.000029550               0.001351084               0.999999985              -0.000012110               0.001383062               0.999999985               0.000010900               0.001413522               0.999999985              -0.000079560               0.001053717               0.999999985              -0.000045624               0.001057242               0.999999985              -0.000030962               0.001059736               0.999999985              -0.000025501               0.001067996               0.999999985              -0.000024594               0.001082893               0.999999985              -0.000025866               0.001103789               0.999999985              -0.000027923               0.001129750               0.999999985              -0.000030114               0.001159731               0.999999985              -0.000031985               0.001192816               0.999999985              -0.000033260               0.001228291               0.999999985              -0.000033521               0.001265593               0.999999985              -0.000032195               0.001303897               0.999999985              -0.000028497               0.001342263               0.999999985              -0.000021830               0.001380111               0.999999985              -0.000011886               0.001416841               0.999999985               0.000002411               0.001452155               0.999999985               0.000022467               0.001485699               0.999999985              -0.000039974               0.001070009               0.999999985              -0.000022568               0.001082105               0.999999985              -0.000014706               0.001089344               0.999999985              -0.000011576               0.001100093               0.999999985              -0.000010839               0.001116307               0.999999985              -0.000011306               0.001137930               0.999999985              -0.000012183               0.001164270               0.999999985              -0.000013199               0.001194588               0.999999985              -0.000014078               0.001228170               0.999999985              -0.000014754               0.001264378               0.999999985              -0.000014898               0.001302789               0.999999985              -0.000014156               0.001342577               0.999999985              -0.000012174               0.001382807               0.999999985              -0.000008728               0.001422905               0.999999985              -0.000003183               0.001462242               0.999999985               0.000004916               0.001500388               0.999999985               0.000016703               0.001536637               0.999999985               0.000000000               0.001075476               0.999999985              -0.000000000               0.001090540               0.999999985              -0.000000000               0.001099514               0.999999985               0.000000000               0.001111214               0.999999985              -0.000000000               0.001127937               0.999999985              -0.000000000               0.001149811               0.999999985               0.000000000               0.001176339               0.999999985               0.000000000               0.001206846               0.999999985              -0.000000000               0.001240597               0.999999985               0.000000000               0.001277095               0.999999985               0.000000000               0.001315938               0.999999985              -0.000000000               0.001356301               0.999999985              -0.000000000               0.001397227               0.999999985              -0.000000000               0.001438164               0.999999985               0.000000000               0.001478525               0.999999985              -0.000000000               0.001517775               0.999999985              -0.000000000               0.001555116               0.999999985              -0.000428213              -0.000000000               0.999999985              -0.000469502               0.000000000               0.999999985              -0.000488462              -0.000000000               0.999999985              -0.000499714              -0.000000000               0.999999985              -0.000508849              -0.000000000               0.999999985              -0.000517980              -0.000000000               0.999999985              -0.000527901              -0.000000000               0.999999985              -0.000538813              -0.000000000               0.999999985              -0.000550670              -0.000000000               0.999999985              -0.000563480               0.000000000               0.999999985              -0.000577070               0.000000000               0.999999985              -0.000591371               0.000000000               0.999999985              -0.000606199               0.000000000               0.999999985              -0.000621340              -0.000000000               0.999999985              -0.000636584               0.000000000               0.999999985              -0.000651496               0.000000000               0.999999985              -0.000665503               0.000000000               0.999999985              -0.000425627              -0.000105264               0.999999985              -0.000464196              -0.000087782               0.999999985              -0.000481476              -0.000081152               0.999999985              -0.000491689              -0.000079873               0.999999985              -0.000500213              -0.000081608               0.999999985              -0.000509016              -0.000084853               0.999999985              -0.000518680              -0.000088916               0.999999985              -0.000529304              -0.000093330               0.999999985              -0.000540884              -0.000097703               0.999999985              -0.000553360              -0.000102066               0.999999985              -0.000566568              -0.000106293               0.999999985              -0.000580408              -0.000110018               0.999999985              -0.000594614              -0.000112855               0.999999985              -0.000608970              -0.000114634               0.999999985              -0.000623227              -0.000115091               0.999999985              -0.000637017              -0.000113474               0.999999985              -0.000649954              -0.000109126               0.999999985              -0.000418101              -0.000209359               0.999999985              -0.000448740              -0.000174961               0.999999985              -0.000461315              -0.000162456               0.999999985              -0.000468885              -0.000160661               0.999999985              -0.000475889              -0.000164592               0.999999985              -0.000483743              -0.000171452               0.999999985              -0.000492710              -0.000179752               0.999999985              -0.000502699              -0.000188619               0.999999985              -0.000513529              -0.000197611               0.999999985              -0.000525070              -0.000206404               0.999999985              -0.000537077              -0.000214810               0.999999985              -0.000549316              -0.000222309               0.999999985              -0.000561518              -0.000228168               0.999999985              -0.000573415              -0.000232107               0.999999985              -0.000584853              -0.000233675               0.999999985              -0.000595680              -0.000232059               0.999999985              -0.000605829              -0.000226204               0.999999985              -0.000405880              -0.000311217               0.999999985              -0.000424142              -0.000260930               0.999999985              -0.000430093              -0.000243945               0.999999985              -0.000434244              -0.000242834               0.999999985              -0.000439453              -0.000249705               0.999999985              -0.000446260              -0.000260660               0.999999985              -0.000454440              -0.000273495               0.999999985              -0.000463669              -0.000287075               0.999999985              -0.000473553              -0.000300637               0.999999985              -0.000483806              -0.000313867               0.999999985              -0.000493979              -0.000326352               0.999999985              -0.000503749              -0.000337460               0.999999985              -0.000512887              -0.000346499               0.999999985              -0.000521374              -0.000353263               0.999999985              -0.000529265              -0.000357357               0.999999985              -0.000536575              -0.000358188               0.999999985              -0.000543469              -0.000355115               0.999999985              -0.000389280              -0.000409814               0.999999985              -0.000391807              -0.000345290               0.999999985              -0.000390557              -0.000325645               0.999999985              -0.000391532              -0.000326374               0.999999985              -0.000395344              -0.000336884               0.999999985              -0.000401452              -0.000352364               0.999999985              -0.000409106              -0.000369973               0.999999985              -0.000417576              -0.000388384               0.999999985              -0.000426391              -0.000406560               0.999999985              -0.000435079              -0.000424006               0.999999985              -0.000443134              -0.000440231               0.999999985              -0.000450224              -0.000454799               0.999999985              -0.000456420              -0.000467235               0.999999985              -0.000461758              -0.000477381               0.999999985              -0.000466388              -0.000485221               0.999999985              -0.000470481              -0.000490391               0.999999985              -0.000474292              -0.000493170               0.999999985              -0.000368737              -0.000504157               0.999999985              -0.000353518              -0.000427827               0.999999985              -0.000345711              -0.000407406               0.999999985              -0.000344615              -0.000410865               0.999999985              -0.000347983              -0.000425541               0.999999985              -0.000354085              -0.000445675               0.999999985              -0.000361624              -0.000468010               0.999999985              -0.000369592              -0.000491011               0.999999985              -0.000377376              -0.000513551               0.999999985              -0.000384403              -0.000534946               0.999999985              -0.000390361              -0.000554843               0.999999985              -0.000395103              -0.000572796               0.999999985              -0.000398616              -0.000588706               0.999999985              -0.000401132              -0.000602681               0.999999985              -0.000402982              -0.000614794               0.999999985              -0.000404251              -0.000625210               0.999999985              -0.000405207              -0.000634420               0.999999985              -0.000344553              -0.000593367               0.999999985              -0.000311282              -0.000508458               0.999999985              -0.000298678              -0.000488740               0.999999985              -0.000297064              -0.000495515               0.999999985              -0.000301171              -0.000514413               0.999999985              -0.000308034              -0.000538992               0.999999985              -0.000315810              -0.000565758               0.999999985              -0.000323394              -0.000592979               0.999999985              -0.000330164              -0.000619506               0.999999985              -0.000335643              -0.000644552               0.999999985              -0.000339428              -0.000667928               0.999999985              -0.000341579              -0.000689404               0.999999985              -0.000342396              -0.000709003               0.999999985              -0.000342185              -0.000727172               0.999999985              -0.000341009              -0.000743958               0.999999985              -0.000339019              -0.000759374               0.999999985              -0.000336169              -0.000773904               0.999999985              -0.000317390              -0.000676424               0.999999985              -0.000267329              -0.000586891               0.999999985              -0.000252142              -0.000569053               0.999999985              -0.000251822              -0.000579182               0.999999985              -0.000257573              -0.000602006               0.999999985              -0.000265572              -0.000630705               0.999999985              -0.000273731              -0.000661550               0.999999985              -0.000280992              -0.000692638               0.999999985              -0.000286531              -0.000722779               0.999999985              -0.000289964              -0.000751277               0.999999985              -0.000291189              -0.000778083               0.999999985              -0.000290449              -0.000803155               0.999999985              -0.000287966              -0.000826835               0.999999985              -0.000283928              -0.000849191               0.999999985              -0.000278655              -0.000870047               0.999999985              -0.000272330              -0.000889776               0.999999985              -0.000264838              -0.000908289               0.999999985              -0.000288290              -0.000751942               0.999999985              -0.000223146              -0.000663068               0.999999985              -0.000208703              -0.000647247               0.999999985              -0.000210798              -0.000660443               0.999999985              -0.000218634              -0.000686861               0.999999985              -0.000227852              -0.000719363               0.999999985              -0.000236342              -0.000754041               0.999999985              -0.000242795              -0.000788731               0.999999985              -0.000246524              -0.000822269               0.999999985              -0.000247239              -0.000854175               0.999999985              -0.000245110              -0.000884505               0.999999985              -0.000240400              -0.000913416               0.999999985              -0.000233675              -0.000940420               0.999999985              -0.000225454              -0.000965554               0.999999985              -0.000216087              -0.000989341               0.999999985              -0.000205772              -0.001011781               0.999999985              -0.000194791              -0.001032989               0.999999985              -0.000258803              -0.000822784               0.999999985              -0.000187095              -0.000745563               0.999999985              -0.000169539              -0.000725053               0.999999985              -0.000170083              -0.000732443               0.999999985              -0.000176960              -0.000753774               0.999999985              -0.000185654              -0.000782394               0.999999985              -0.000193984              -0.000814629               0.999999985              -0.000200760              -0.000848066               0.999999985              -0.000205124              -0.000881417               0.999999985              -0.000206470              -0.000913770               0.999999985              -0.000204759              -0.000945142               0.999999985              -0.000200324              -0.000975320               0.999999985              -0.000193329              -0.001003860               0.999999985              -0.000184323              -0.001030801               0.999999985              -0.000173774              -0.001056161               0.999999985              -0.000162156              -0.001080223               0.999999985              -0.000150238              -0.001103016               0.999999985              -0.000226508              -0.000886827               0.999999985              -0.000153902              -0.000824618               0.999999985              -0.000133296              -0.000804064               0.999999985              -0.000131594              -0.000807458               0.999999985              -0.000136945              -0.000824659               0.999999985              -0.000144535              -0.000849814               0.999999985              -0.000152298              -0.000879563               0.999999985              -0.000158980              -0.000911690               0.999999985              -0.000163602              -0.000944683               0.999999985              -0.000165475              -0.000977427               0.999999985              -0.000164343              -0.001009565               0.999999985              -0.000160275              -0.001040808               0.999999985              -0.000153334              -0.001070620               0.999999985              -0.000143599              -0.001098980               0.999999985              -0.000131473              -0.001125969               0.999999985              -0.000117581              -0.001151640               0.999999985              -0.000102799              -0.001176223               0.999999985              -0.000192139              -0.000942712               0.999999985              -0.000123388              -0.000898094               0.999999985              -0.000101082              -0.000880867               0.999999985              -0.000096992              -0.000882738               0.999999985              -0.000100329              -0.000897207               0.999999985              -0.000106380              -0.000919719               0.999999985              -0.000113064              -0.000947396               0.999999985              -0.000119164              -0.000978289               0.999999985              -0.000123545              -0.001010994               0.999999985              -0.000125673              -0.001044287               0.999999985              -0.000125208              -0.001077406               0.999999985              -0.000121781              -0.001109824               0.999999985              -0.000115004              -0.001141077               0.999999985              -0.000104939              -0.001171021               0.999999985              -0.000091625              -0.001199487               0.999999985              -0.000075403              -0.001226813               0.999999985              -0.000056953              -0.001253019               0.999999985              -0.000156011              -0.000989564               0.999999985              -0.000095483              -0.000963080               0.999999985              -0.000073382              -0.000951776               0.999999985              -0.000067477              -0.000954455               0.999999985              -0.000068789              -0.000967775               0.999999985              -0.000073138              -0.000988710               0.999999985              -0.000078344              -0.001015022               0.999999985              -0.000083207              -0.001045092               0.999999985              -0.000086993              -0.001077669               0.999999985              -0.000089218              -0.001111603               0.999999985              -0.000089275              -0.001146059               0.999999985              -0.000086534              -0.001180231               0.999999985              -0.000080367              -0.001213373               0.999999985              -0.000070516              -0.001245341               0.999999985              -0.000056782              -0.001275887               0.999999985              -0.000038994              -0.001305145               0.999999985              -0.000017258              -0.001333181               0.999999985              -0.000118371              -0.001026775               0.999999985              -0.000069735              -0.001016946               0.999999985              -0.000050183              -0.001012733               0.999999985              -0.000043734              -0.001017898               0.999999985              -0.000043496              -0.001031552               0.999999985              -0.000046115              -0.001052073               0.999999985              -0.000049754              -0.001077885               0.999999985              -0.000053221              -0.001107631               0.999999985              -0.000056101              -0.001140263               0.999999985              -0.000057987              -0.001174898               0.999999985              -0.000058279              -0.001210863               0.999999985              -0.000056304              -0.001247156               0.999999985              -0.000051191              -0.001282860               0.999999985              -0.000042373              -0.001317633               0.999999985              -0.000029550              -0.001351084               0.999999985              -0.000012110              -0.001383062               0.999999985               0.000010900              -0.001413522               0.999999985              -0.000079560              -0.001053717               0.999999985              -0.000045624              -0.001057242               0.999999985              -0.000030962              -0.001059736               0.999999985              -0.000025501              -0.001067996               0.999999985              -0.000024594              -0.001082893               0.999999985              -0.000025866              -0.001103789               0.999999985              -0.000027923              -0.001129750               0.999999985              -0.000030114              -0.001159731               0.999999985              -0.000031985              -0.001192816               0.999999985              -0.000033260              -0.001228291               0.999999985              -0.000033521              -0.001265593               0.999999985              -0.000032195              -0.001303897               0.999999985              -0.000028497              -0.001342263               0.999999985              -0.000021830              -0.001380111               0.999999985              -0.000011886              -0.001416841               0.999999985               0.000002411              -0.001452155               0.999999985               0.000022467              -0.001485699               0.999999985              -0.000039974              -0.001070009               0.999999985              -0.000022568              -0.001082105               0.999999985              -0.000014706              -0.001089344               0.999999985              -0.000011576              -0.001100093               0.999999985              -0.000010839              -0.001116307               0.999999985              -0.000011306              -0.001137930               0.999999985              -0.000012183              -0.001164270               0.999999985              -0.000013199              -0.001194588               0.999999985              -0.000014078              -0.001228170               0.999999985              -0.000014754              -0.001264378               0.999999985              -0.000014898              -0.001302789               0.999999985              -0.000014156              -0.001342577               0.999999985              -0.000012174              -0.001382807               0.999999985              -0.000008728              -0.001422905               0.999999985              -0.000003183              -0.001462242               0.999999985               0.000004916              -0.001500388               0.999999985               0.000016703              -0.001536637               0.999999985               0.000000000              -0.001075476               0.999999985               0.000000000              -0.001090540               0.999999985              -0.000000000              -0.001099514               0.999999985              -0.000000000              -0.001111214               0.999999985              -0.000000000              -0.001127937               0.999999985               0.000000000              -0.001149811               0.999999985              -0.000000000              -0.001176339               0.999999985              -0.000000000              -0.001206846               0.999999985               0.000000000              -0.001240597               0.999999985               0.000000000              -0.001277095               0.999999985              -0.000000000              -0.001315938               0.999999985              -0.000000000              -0.001356301               0.999999985               0.000000000              -0.001397227               0.999999985              -0.000000000              -0.001438164               0.999999985              -0.000000000              -0.001478525               0.999999985               0.000000000              -0.001517775               0.999999985               0.000000000              -0.001555116               0.999999985               0.000428213              -0.000000000               0.999999985               0.000469502              -0.000000000               0.999999985               0.000488462              -0.000000000               0.999999985               0.000499714              -0.000000000               0.999999985               0.000508849               0.000000000               0.999999985               0.000517980               0.000000000               0.999999985               0.000527901              -0.000000000               0.999999985               0.000538813              -0.000000000               0.999999985               0.000550670               0.000000000               0.999999985               0.000563480              -0.000000000               0.999999985               0.000577070               0.000000000               0.999999985               0.000591371               0.000000000               0.999999985               0.000606199               0.000000000               0.999999985               0.000621340               0.000000000               0.999999985               0.000636584               0.000000000               0.999999985               0.000651496               0.000000000               0.999999985               0.000665503               0.000000000               0.999999985               0.000425627              -0.000105264               0.999999985               0.000464196              -0.000087782               0.999999985               0.000481476              -0.000081152               0.999999985               0.000491689              -0.000079873               0.999999985               0.000500213              -0.000081608               0.999999985               0.000509016              -0.000084853               0.999999985               0.000518680              -0.000088916               0.999999985               0.000529304              -0.000093330               0.999999985               0.000540884              -0.000097703               0.999999985               0.000553360              -0.000102066               0.999999985               0.000566568              -0.000106293               0.999999985               0.000580408              -0.000110018               0.999999985               0.000594614              -0.000112855               0.999999985               0.000608970              -0.000114634               0.999999985               0.000623227              -0.000115091               0.999999985               0.000637017              -0.000113474               0.999999985               0.000649954              -0.000109126               0.999999985               0.000418101              -0.000209359               0.999999985               0.000448740              -0.000174961               0.999999985               0.000461315              -0.000162456               0.999999985               0.000468885              -0.000160661               0.999999985               0.000475889              -0.000164592               0.999999985               0.000483743              -0.000171452               0.999999985               0.000492710              -0.000179752               0.999999985               0.000502699              -0.000188619               0.999999985               0.000513529              -0.000197611               0.999999985               0.000525070              -0.000206404               0.999999985               0.000537077              -0.000214810               0.999999985               0.000549316              -0.000222309               0.999999985               0.000561518              -0.000228168               0.999999985               0.000573415              -0.000232107               0.999999985               0.000584853              -0.000233675               0.999999985               0.000595680              -0.000232059               0.999999985               0.000605829              -0.000226204               0.999999985               0.000405880              -0.000311217               0.999999985               0.000424142              -0.000260930               0.999999985               0.000430093              -0.000243945               0.999999985               0.000434244              -0.000242834               0.999999985               0.000439453              -0.000249705               0.999999985               0.000446260              -0.000260660               0.999999985               0.000454440              -0.000273495               0.999999985               0.000463669              -0.000287075               0.999999985               0.000473553              -0.000300637               0.999999985               0.000483806              -0.000313867               0.999999985               0.000493979              -0.000326352               0.999999985               0.000503749              -0.000337460               0.999999985               0.000512887              -0.000346499               0.999999985               0.000521374              -0.000353263               0.999999985               0.000529265              -0.000357357               0.999999985               0.000536575              -0.000358188               0.999999985               0.000543469              -0.000355115               0.999999985               0.000389280              -0.000409814               0.999999985               0.000391807              -0.000345290               0.999999985               0.000390557              -0.000325645               0.999999985               0.000391532              -0.000326374               0.999999985               0.000395344              -0.000336884               0.999999985               0.000401452              -0.000352364               0.999999985               0.000409106              -0.000369973               0.999999985               0.000417576              -0.000388384               0.999999985               0.000426391              -0.000406560               0.999999985               0.000435079              -0.000424006               0.999999985               0.000443134              -0.000440231               0.999999985               0.000450224              -0.000454799               0.999999985               0.000456420              -0.000467235               0.999999985               0.000461758              -0.000477381               0.999999985               0.000466388              -0.000485221               0.999999985               0.000470481              -0.000490391               0.999999985               0.000474292              -0.000493170               0.999999985               0.000368737              -0.000504157               0.999999985               0.000353518              -0.000427827               0.999999985               0.000345711              -0.000407406               0.999999985               0.000344615              -0.000410865               0.999999985               0.000347983              -0.000425541               0.999999985               0.000354085              -0.000445675               0.999999985               0.000361624              -0.000468010               0.999999985               0.000369592              -0.000491011               0.999999985               0.000377376              -0.000513551               0.999999985               0.000384403              -0.000534946               0.999999985               0.000390361              -0.000554843               0.999999985               0.000395103              -0.000572796               0.999999985               0.000398616              -0.000588706               0.999999985               0.000401132              -0.000602681               0.999999985               0.000402982              -0.000614794               0.999999985               0.000404251              -0.000625210               0.999999985               0.000405207              -0.000634420               0.999999985               0.000344553              -0.000593367               0.999999985               0.000311282              -0.000508458               0.999999985               0.000298678              -0.000488740               0.999999985               0.000297064              -0.000495515               0.999999985               0.000301171              -0.000514413               0.999999985               0.000308034              -0.000538992               0.999999985               0.000315810              -0.000565758               0.999999985               0.000323394              -0.000592979               0.999999985               0.000330164              -0.000619506               0.999999985               0.000335643              -0.000644552               0.999999985               0.000339428              -0.000667928               0.999999985               0.000341579              -0.000689404               0.999999985               0.000342396              -0.000709003               0.999999985               0.000342185              -0.000727172               0.999999985               0.000341009              -0.000743958               0.999999985               0.000339019              -0.000759374               0.999999985               0.000336169              -0.000773904               0.999999985               0.000317390              -0.000676424               0.999999985               0.000267329              -0.000586891               0.999999985               0.000252142              -0.000569053               0.999999985               0.000251822              -0.000579182               0.999999985               0.000257573              -0.000602006               0.999999985               0.000265572              -0.000630705               0.999999985               0.000273731              -0.000661550               0.999999985               0.000280992              -0.000692638               0.999999985               0.000286531              -0.000722779               0.999999985               0.000289964              -0.000751277               0.999999985               0.000291189              -0.000778083               0.999999985               0.000290449              -0.000803155               0.999999985               0.000287966              -0.000826835               0.999999985               0.000283928              -0.000849191               0.999999985               0.000278655              -0.000870047               0.999999985               0.000272330              -0.000889776               0.999999985               0.000264838              -0.000908289               0.999999985               0.000288290              -0.000751942               0.999999985               0.000223146              -0.000663068               0.999999985               0.000208703              -0.000647247               0.999999985               0.000210798              -0.000660443               0.999999985               0.000218634              -0.000686861               0.999999985               0.000227852              -0.000719363               0.999999985               0.000236342              -0.000754041               0.999999985               0.000242795              -0.000788731               0.999999985               0.000246524              -0.000822269               0.999999985               0.000247239              -0.000854175               0.999999985               0.000245110              -0.000884505               0.999999985               0.000240400              -0.000913416               0.999999985               0.000233675              -0.000940420               0.999999985               0.000225454              -0.000965554               0.999999985               0.000216087              -0.000989341               0.999999985               0.000205772              -0.001011781               0.999999985               0.000194791              -0.001032989               0.999999985               0.000258803              -0.000822784               0.999999985               0.000187095              -0.000745563               0.999999985               0.000169539              -0.000725053               0.999999985               0.000170083              -0.000732443               0.999999985               0.000176960              -0.000753774               0.999999985               0.000185654              -0.000782394               0.999999985               0.000193984              -0.000814629               0.999999985               0.000200760              -0.000848066               0.999999985               0.000205124              -0.000881417               0.999999985               0.000206470              -0.000913770               0.999999985               0.000204759              -0.000945142               0.999999985               0.000200324              -0.000975320               0.999999985               0.000193329              -0.001003860               0.999999985               0.000184323              -0.001030801               0.999999985               0.000173774              -0.001056161               0.999999985               0.000162156              -0.001080223               0.999999985               0.000150238              -0.001103016               0.999999985               0.000226508              -0.000886827               0.999999985               0.000153902              -0.000824618               0.999999985               0.000133296              -0.000804064               0.999999985               0.000131594              -0.000807458               0.999999985               0.000136945              -0.000824659               0.999999985               0.000144535              -0.000849814               0.999999985               0.000152298              -0.000879563               0.999999985               0.000158980              -0.000911690               0.999999985               0.000163602              -0.000944683               0.999999985               0.000165475              -0.000977427               0.999999985               0.000164343              -0.001009565               0.999999985               0.000160275              -0.001040808               0.999999985               0.000153334              -0.001070620               0.999999985               0.000143599              -0.001098980               0.999999985               0.000131473              -0.001125969               0.999999985               0.000117581              -0.001151640               0.999999985               0.000102799              -0.001176223               0.999999985               0.000192139              -0.000942712               0.999999985               0.000123388              -0.000898094               0.999999985               0.000101082              -0.000880867               0.999999985               0.000096992              -0.000882738               0.999999985               0.000100329              -0.000897207               0.999999985               0.000106380              -0.000919719               0.999999985               0.000113064              -0.000947396               0.999999985               0.000119164              -0.000978289               0.999999985               0.000123545              -0.001010994               0.999999985               0.000125673              -0.001044287               0.999999985               0.000125208              -0.001077406               0.999999985               0.000121781              -0.001109824               0.999999985               0.000115004              -0.001141077               0.999999985               0.000104939              -0.001171021               0.999999985               0.000091625              -0.001199487               0.999999985               0.000075403              -0.001226813               0.999999985               0.000056953              -0.001253019               0.999999985               0.000156011              -0.000989564               0.999999985               0.000095483              -0.000963080               0.999999985               0.000073382              -0.000951776               0.999999985               0.000067477              -0.000954455               0.999999985               0.000068789              -0.000967775               0.999999985               0.000073138              -0.000988710               0.999999985               0.000078344              -0.001015022               0.999999985               0.000083207              -0.001045092               0.999999985               0.000086993              -0.001077669               0.999999985               0.000089218              -0.001111603               0.999999985               0.000089275              -0.001146059               0.999999985               0.000086534              -0.001180231               0.999999985               0.000080367              -0.001213373               0.999999985               0.000070516              -0.001245341               0.999999985               0.000056782              -0.001275887               0.999999985               0.000038994              -0.001305145               0.999999985               0.000017258              -0.001333181               0.999999985               0.000118371              -0.001026775               0.999999985               0.000069735              -0.001016946               0.999999985               0.000050183              -0.001012733               0.999999985               0.000043734              -0.001017898               0.999999985               0.000043496              -0.001031552               0.999999985               0.000046115              -0.001052073               0.999999985               0.000049754              -0.001077885               0.999999985               0.000053221              -0.001107631               0.999999985               0.000056101              -0.001140263               0.999999985               0.000057987              -0.001174898               0.999999985               0.000058279              -0.001210863               0.999999985               0.000056304              -0.001247156               0.999999985               0.000051191              -0.001282860               0.999999985               0.000042373              -0.001317633               0.999999985               0.000029550              -0.001351084               0.999999985               0.000012110              -0.001383062               0.999999985              -0.000010900              -0.001413522               0.999999985               0.000079560              -0.001053717               0.999999985               0.000045624              -0.001057242               0.999999985               0.000030962              -0.001059736               0.999999985               0.000025501              -0.001067996               0.999999985               0.000024594              -0.001082893               0.999999985               0.000025866              -0.001103789               0.999999985               0.000027923              -0.001129750               0.999999985               0.000030114              -0.001159731               0.999999985               0.000031985              -0.001192816               0.999999985               0.000033260              -0.001228291               0.999999985               0.000033521              -0.001265593               0.999999985               0.000032195              -0.001303897               0.999999985               0.000028497              -0.001342263               0.999999985               0.000021830              -0.001380111               0.999999985               0.000011886              -0.001416841               0.999999985              -0.000002411              -0.001452155               0.999999985              -0.000022467              -0.001485699               0.999999985               0.000039974              -0.001070009               0.999999985               0.000022568              -0.001082105               0.999999985               0.000014706              -0.001089344               0.999999985               0.000011576              -0.001100093               0.999999985               0.000010839              -0.001116307               0.999999985               0.000011306              -0.001137930               0.999999985               0.000012183              -0.001164270               0.999999985               0.000013199              -0.001194588               0.999999985               0.000014078              -0.001228170               0.999999985               0.000014754              -0.001264378               0.999999985               0.000014898              -0.001302789               0.999999985               0.000014156              -0.001342577               0.999999985               0.000012174              -0.001382807               0.999999985               0.000008728              -0.001422905               0.999999985               0.000003183              -0.001462242               0.999999985              -0.000004916              -0.001500388               0.999999985              -0.000016703              -0.001536637               0.999999985               0.000000000              -0.001075476               0.999999985               0.000000000              -0.001090540               0.999999985              -0.000000000              -0.001099514               0.999999985              -0.000000000              -0.001111214               0.999999985              -0.000000000              -0.001127937               0.999999985               0.000000000              -0.001149811               0.999999985              -0.000000000              -0.001176339               0.999999985              -0.000000000              -0.001206846               0.999999985               0.000000000              -0.001240597               0.999999985               0.000000000              -0.001277095               0.999999985              -0.000000000              -0.001315938               0.999999985              -0.000000000              -0.001356301               0.999999985               0.000000000              -0.001397227               0.999999985              -0.000000000              -0.001438164               0.999999985              -0.000000000              -0.001478525               0.999999985               0.000000000              -0.001517775               0.999999985               0.000000000              -0.001555116               0.999999985               0.000428213              -0.000000000               0.999999985               0.000469502              -0.000000000               0.999999985               0.000488462              -0.000000000               0.999999985               0.000499714              -0.000000000               0.999999985               0.000508849               0.000000000               0.999999985               0.000517980               0.000000000               0.999999985               0.000527901              -0.000000000               0.999999985               0.000538813              -0.000000000               0.999999985               0.000550670               0.000000000               0.999999985               0.000563480              -0.000000000               0.999999985               0.000577070               0.000000000               0.999999985               0.000591371               0.000000000               0.999999985               0.000606199               0.000000000               0.999999985               0.000621340               0.000000000               0.999999985               0.000636584               0.000000000               0.999999985               0.000651496               0.000000000               0.999999985               0.000665503               0.000000000               0.999999985               0.000425627               0.000105264               0.999999985               0.000464196               0.000087782               0.999999985               0.000481476               0.000081152               0.999999985               0.000491689               0.000079873               0.999999985               0.000500213               0.000081608               0.999999985               0.000509016               0.000084853               0.999999985               0.000518680               0.000088916               0.999999985               0.000529304               0.000093330               0.999999985               0.000540884               0.000097703               0.999999985               0.000553360               0.000102066               0.999999985               0.000566568               0.000106293               0.999999985               0.000580408               0.000110018               0.999999985               0.000594614               0.000112855               0.999999985               0.000608970               0.000114634               0.999999985               0.000623227               0.000115091               0.999999985               0.000637017               0.000113474               0.999999985               0.000649954               0.000109126               0.999999985               0.000418101               0.000209359               0.999999985               0.000448740               0.000174961               0.999999985               0.000461315               0.000162456               0.999999985               0.000468885               0.000160661               0.999999985               0.000475889               0.000164592               0.999999985               0.000483743               0.000171452               0.999999985               0.000492710               0.000179752               0.999999985               0.000502699               0.000188619               0.999999985               0.000513529               0.000197611               0.999999985               0.000525070               0.000206404               0.999999985               0.000537077               0.000214810               0.999999985               0.000549316               0.000222309               0.999999985               0.000561518               0.000228168               0.999999985               0.000573415               0.000232107               0.999999985               0.000584853               0.000233675               0.999999985               0.000595680               0.000232059               0.999999985               0.000605829               0.000226204               0.999999985               0.000405880               0.000311217               0.999999985               0.000424142               0.000260930               0.999999985               0.000430093               0.000243945               0.999999985               0.000434244               0.000242834               0.999999985               0.000439453               0.000249705               0.999999985               0.000446260               0.000260660               0.999999985               0.000454440               0.000273495               0.999999985               0.000463669               0.000287075               0.999999985               0.000473553               0.000300637               0.999999985               0.000483806               0.000313867               0.999999985               0.000493979               0.000326352               0.999999985               0.000503749               0.000337460               0.999999985               0.000512887               0.000346499               0.999999985               0.000521374               0.000353263               0.999999985               0.000529265               0.000357357               0.999999985               0.000536575               0.000358188               0.999999985               0.000543469               0.000355115               0.999999985               0.000389280               0.000409814               0.999999985               0.000391807               0.000345290               0.999999985               0.000390557               0.000325645               0.999999985               0.000391532               0.000326374               0.999999985               0.000395344               0.000336884               0.999999985               0.000401452               0.000352364               0.999999985               0.000409106               0.000369973               0.999999985               0.000417576               0.000388384               0.999999985               0.000426391               0.000406560               0.999999985               0.000435079               0.000424006               0.999999985               0.000443134               0.000440231               0.999999985               0.000450224               0.000454799               0.999999985               0.000456420               0.000467235               0.999999985               0.000461758               0.000477381               0.999999985               0.000466388               0.000485221               0.999999985               0.000470481               0.000490391               0.999999985               0.000474292               0.000493170               0.999999985               0.000368737               0.000504157               0.999999985               0.000353518               0.000427827               0.999999985               0.000345711               0.000407406               0.999999985               0.000344615               0.000410865               0.999999985               0.000347983               0.000425541               0.999999985               0.000354085               0.000445675               0.999999985               0.000361624               0.000468010               0.999999985               0.000369592               0.000491011               0.999999985               0.000377376               0.000513551               0.999999985               0.000384403               0.000534946               0.999999985               0.000390361               0.000554843               0.999999985               0.000395103               0.000572796               0.999999985               0.000398616               0.000588706               0.999999985               0.000401132               0.000602681               0.999999985               0.000402982               0.000614794               0.999999985               0.000404251               0.000625210               0.999999985               0.000405207               0.000634420               0.999999985               0.000344553               0.000593367               0.999999985               0.000311282               0.000508458               0.999999985               0.000298678               0.000488740               0.999999985               0.000297064               0.000495515               0.999999985               0.000301171               0.000514413               0.999999985               0.000308034               0.000538992               0.999999985               0.000315810               0.000565758               0.999999985               0.000323394               0.000592979               0.999999985               0.000330164               0.000619506               0.999999985               0.000335643               0.000644552               0.999999985               0.000339428               0.000667928               0.999999985               0.000341579               0.000689404               0.999999985               0.000342396               0.000709003               0.999999985               0.000342185               0.000727172               0.999999985               0.000341009               0.000743958               0.999999985               0.000339019               0.000759374               0.999999985               0.000336169               0.000773904               0.999999985               0.000317390               0.000676424               0.999999985               0.000267329               0.000586891               0.999999985               0.000252142               0.000569053               0.999999985               0.000251822               0.000579182               0.999999985               0.000257573               0.000602006               0.999999985               0.000265572               0.000630705               0.999999985               0.000273731               0.000661550               0.999999985               0.000280992               0.000692638               0.999999985               0.000286531               0.000722779               0.999999985               0.000289964               0.000751277               0.999999985               0.000291189               0.000778083               0.999999985               0.000290449               0.000803155               0.999999985               0.000287966               0.000826835               0.999999985               0.000283928               0.000849191               0.999999985               0.000278655               0.000870047               0.999999985               0.000272330               0.000889776               0.999999985               0.000264838               0.000908289               0.999999985               0.000288290               0.000751942               0.999999985               0.000223146               0.000663068               0.999999985               0.000208703               0.000647247               0.999999985               0.000210798               0.000660443               0.999999985               0.000218634               0.000686861               0.999999985               0.000227852               0.000719363               0.999999985               0.000236342               0.000754041               0.999999985               0.000242795               0.000788731               0.999999985               0.000246524               0.000822269               0.999999985               0.000247239               0.000854175               0.999999985               0.000245110               0.000884505               0.999999985               0.000240400               0.000913416               0.999999985               0.000233675               0.000940420               0.999999985               0.000225454               0.000965554               0.999999985               0.000216087               0.000989341               0.999999985               0.000205772               0.001011781               0.999999985               0.000194791               0.001032989               0.999999985               0.000258803               0.000822784               0.999999985               0.000187095               0.000745563               0.999999985               0.000169539               0.000725053               0.999999985               0.000170083               0.000732443               0.999999985               0.000176960               0.000753774               0.999999985               0.000185654               0.000782394               0.999999985               0.000193984               0.000814629               0.999999985               0.000200760               0.000848066               0.999999985               0.000205124               0.000881417               0.999999985               0.000206470               0.000913770               0.999999985               0.000204759               0.000945142               0.999999985               0.000200324               0.000975320               0.999999985               0.000193329               0.001003860               0.999999985               0.000184323               0.001030801               0.999999985               0.000173774               0.001056161               0.999999985               0.000162156               0.001080223               0.999999985               0.000150238               0.001103016               0.999999985               0.000226508               0.000886827               0.999999985               0.000153902               0.000824618               0.999999985               0.000133296               0.000804064               0.999999985               0.000131594               0.000807458               0.999999985               0.000136945               0.000824659               0.999999985               0.000144535               0.000849814               0.999999985               0.000152298               0.000879563               0.999999985               0.000158980               0.000911690               0.999999985               0.000163602               0.000944683               0.999999985               0.000165475               0.000977427               0.999999985               0.000164343               0.001009565               0.999999985               0.000160275               0.001040808               0.999999985               0.000153334               0.001070620               0.999999985               0.000143599               0.001098980               0.999999985               0.000131473               0.001125969               0.999999985               0.000117581               0.001151640               0.999999985               0.000102799               0.001176223               0.999999985               0.000192139               0.000942712               0.999999985               0.000123388               0.000898094               0.999999985               0.000101082               0.000880867               0.999999985               0.000096992               0.000882738               0.999999985               0.000100329               0.000897207               0.999999985               0.000106380               0.000919719               0.999999985               0.000113064               0.000947396               0.999999985               0.000119164               0.000978289               0.999999985               0.000123545               0.001010994               0.999999985               0.000125673               0.001044287               0.999999985               0.000125208               0.001077406               0.999999985               0.000121781               0.001109824               0.999999985               0.000115004               0.001141077               0.999999985               0.000104939               0.001171021               0.999999985               0.000091625               0.001199487               0.999999985               0.000075403               0.001226813               0.999999985               0.000056953               0.001253019               0.999999985               0.000156011               0.000989564               0.999999985               0.000095483               0.000963080               0.999999985               0.000073382               0.000951776               0.999999985               0.000067477               0.000954455               0.999999985               0.000068789               0.000967775               0.999999985               0.000073138               0.000988710               0.999999985               0.000078344               0.001015022               0.999999985               0.000083207               0.001045092               0.999999985               0.000086993               0.001077669               0.999999985               0.000089218               0.001111603               0.999999985               0.000089275               0.001146059               0.999999985               0.000086534               0.001180231               0.999999985               0.000080367               0.001213373               0.999999985               0.000070516               0.001245341               0.999999985               0.000056782               0.001275887               0.999999985               0.000038994               0.001305145               0.999999985               0.000017258               0.001333181               0.999999985               0.000118371               0.001026775               0.999999985               0.000069735               0.001016946               0.999999985               0.000050183               0.001012733               0.999999985               0.000043734               0.001017898               0.999999985               0.000043496               0.001031552               0.999999985               0.000046115               0.001052073               0.999999985               0.000049754               0.001077885               0.999999985               0.000053221               0.001107631               0.999999985               0.000056101               0.001140263               0.999999985               0.000057987               0.001174898               0.999999985               0.000058279               0.001210863               0.999999985               0.000056304               0.001247156               0.999999985               0.000051191               0.001282860               0.999999985               0.000042373               0.001317633               0.999999985               0.000029550               0.001351084               0.999999985               0.000012110               0.001383062               0.999999985              -0.000010900               0.001413522               0.999999985               0.000079560               0.001053717               0.999999985               0.000045624               0.001057242               0.999999985               0.000030962               0.001059736               0.999999985               0.000025501               0.001067996               0.999999985               0.000024594               0.001082893               0.999999985               0.000025866               0.001103789               0.999999985               0.000027923               0.001129750               0.999999985               0.000030114               0.001159731               0.999999985               0.000031985               0.001192816               0.999999985               0.000033260               0.001228291               0.999999985               0.000033521               0.001265593               0.999999985               0.000032195               0.001303897               0.999999985               0.000028497               0.001342263               0.999999985               0.000021830               0.001380111               0.999999985               0.000011886               0.001416841               0.999999985              -0.000002411               0.001452155               0.999999985              -0.000022467               0.001485699               0.999999985               0.000039974               0.001070009               0.999999985               0.000022568               0.001082105               0.999999985               0.000014706               0.001089344               0.999999985               0.000011576               0.001100093               0.999999985               0.000010839               0.001116307               0.999999985               0.000011306               0.001137930               0.999999985               0.000012183               0.001164270               0.999999985               0.000013199               0.001194588               0.999999985               0.000014078               0.001228170               0.999999985               0.000014754               0.001264378               0.999999985               0.000014898               0.001302789               0.999999985               0.000014156               0.001342577               0.999999985               0.000012174               0.001382807               0.999999985               0.000008728               0.001422905               0.999999985               0.000003183               0.001462242               0.999999985              -0.000004916               0.001500388               0.999999985              -0.000016703               0.001536637               0.999999985               0.000000000               0.001075476               0.999999985              -0.000000000               0.001090540               0.999999985              -0.000000000               0.001099514               0.999999985               0.000000000               0.001111214               0.999999985              -0.000000000               0.001127937               0.999999985              -0.000000000               0.001149811               0.999999985               0.000000000               0.001176339               0.999999985               0.000000000               0.001206846               0.999999985              -0.000000000               0.001240597               0.999999985               0.000000000               0.001277095               0.999999985               0.000000000               0.001315938               0.999999985              -0.000000000               0.001356301               0.999999985              -0.000000000               0.001397227               0.999999985              -0.000000000               0.001438164               0.999999985               0.000000000               0.001478525               0.999999985              -0.000000000               0.001517775               0.999999985              -0.000000000               0.001555116               0.999999985 </DataArray>
<DataArray type="Float64"                                    Name="defo"                                                      NumberOfComponents=" 3" format="ascii">
             -0.000428213              -0.000000000               0.999999985              -0.000469502               0.000000000               0.999999985              -0.000488462              -0.000000000               0.999999985              -0.000499714              -0.000000000               0.999999985              -0.000508849              -0.000000000               0.999999985              -0.000517980              -0.000000000               0.999999985              -0.000527901              -0.000000000               0.999999985              -0.000538813              -0.000000000               0.999999985              -0.000550670              -0.000000000               0.999999985              -0.000563480               0.000000000               0.999999985              -0.000577070               0.000000000               0.999999985              -0.000591371               0.000000000               0.999999985              -0.000606199               0.000000000               0.999999985              -0.000621340              -0.000000000               0.999999985              -0.000636584               0.000000000               0.999999985              -0.000651496               0.000000000               0.999999985              -0.000665503               0.000000000               0.999999985              -0.000425627               0.000105264               0.999999985              -0.000464196               0.000087782               0.999999985              -0.000481476               0.000081152               0.999999985              -0.000491689               0.000079873               0.999999985              -0.000500213               0.000081608               0.999999985              -0.000509016               0.000084853               0.999999985              -0.000518680               0.000088916               0.999999985              -0.000529304               0.000093330               0.999999985              -0.000540884               0.000097703               0.999999985              -0.000553360               0.000102066               0.999999985              -0.000566568               0.000106293               0.999999985              -0.000580408               0.000110018               0.999999985              -0.000594614               0.000112855               0.999999985              -0.000608970               0.000114634               0.999999985              -0.000623227               0.000115091               0.999999985              -0.000637017               0.000113474               0.999999985              -0.000649954               0.000109126               0.999999985              -0.000418101               0.000209359               0.999999985              -0.000448740               0.000174961               0.999999985              -0.000461315               0.000162456               0.999999985              -0.000468885               0.000160661               0.999999985              -0.000475889               0.000164592               0.999999985              -0.000483743               0.000171452               0.999999985              -0.000492710               0.000179752               0.999999985              -0.000502699               0.000188619               0.999999985              -0.000513529               0.000197611               0.999999985              -0.000525070               0.000206404               0.999999985              -0.000537077               0.000214810               0.999999985              -0.000549316               0.000222309               0.999999985              -0.000561518               0.000228168               0.999999985              -0.000573415               0.000232107               0.999999985              -0.000584853               0.000233675               0.999999985              -0.000595680               0.000232059               0.999999985              -0.000605829               0.000226204               0.999999985              -0.000405880               0.000311217               0.999999985              -0.000424142               0.000260930               0.999999985              -0.000430093               0.000243945               0.999999985              -0.000434244               0.000242834               0.999999985              -0.000439453               0.000249705               0.999999985              -0.000446260               0.000260660               0.999999985              -0.000454440               0.000273495               0.999999985              -0.000463669               0.000287075               0.999999985              -0.000473553               0.000300637               0.999999985              -0.000483806               0.000313867               0.999999985              -0.000493979               0.000326352               0.999999985              -0.000503749               0.000337460               0.999999985              -0.000512887               0.000346499               0.999999985              -0.000521374               0.000353263               0.999999985              -0.000529265               0.000357357               0.999999985              -0.000536575               0.000358188               0.999999985              -0.000543469               0.000355115               0.999999985              -0.000389280               0.000409814               0.999999985              -0.000391807               0.000345290               0.999999985              -0.000390557               0.000325645               0.999999985              -0.000391532               0.000326374               0.999999985              -0.000395344               0.000336884               0.999999985              -0.000401452               0.000352364               0.999999985              -0.000409106               0.000369973               0.999999985              -0.000417576               0.000388384               0.999999985              -0.000426391               0.000406560               0.999999985              -0.000435079               0.000424006               0.999999985              -0.000443134               0.000440231               0.999999985              -0.000450224               0.000454799               0.999999985              -0.000456420               0.000467235               0.999999985              -0.000461758               0.000477381               0.999999985              -0.000466388               0.000485221               0.999999985              -0.000470481               0.000490391               0.999999985              -0.000474292               0.000493170               0.999999985              -0.000368737               0.000504157               0.999999985              -0.000353518               0.000427827               0.999999985              -0.000345711               0.000407406               0.999999985              -0.000344615               0.000410865               0.999999985              -0.000347983               0.000425541               0.999999985              -0.000354085               0.000445675               0.999999985              -0.000361624               0.000468010               0.999999985              -0.000369592               0.000491011               0.999999985              -0.000377376               0.000513551               0.999999985              -0.000384403               0.000534946               0.999999985              -0.000390361               0.000554843               0.999999985              -0.000395103               0.000572796               0.999999985              -0.000398616               0.000588706               0.999999985              -0.000401132               0.000602681               0.999999985              -0.000402982               0.000614794               0.999999985              -0.000404251               0.000625210               0.999999985              -0.000405207               0.000634420               0.999999985              -0.000344553               0.000593367               0.999999985              -0.000311282               0.000508458               0.999999985              -0.000298678               0.000488740               0.999999985              -0.000297064               0.000495515               0.999999985              -0.000301171               0.000514413               0.999999985              -0.000308034               0.000538992               0.999999985              -0.000315810               0.000565758               0.999999985              -0.000323394               0.000592979               0.999999985              -0.000330164               0.000619506               0.999999985              -0.000335643               0.000644552               0.999999985              -0.000339428               0.000667928               0.999999985              -0.000341579               0.000689404               0.999999985              -0.000342396               0.000709003               0.999999985              -0.000342185               0.000727172               0.999999985              -0.000341009               0.000743958               0.999999985              -0.000339019               0.000759374               0.999999985              -0.000336169               0.000773904               0.999999985              -0.000317390               0.000676424               0.999999985              -0.000267329               0.000586891               0.999999985              -0.000252142               0.000569053               0.999999985              -0.000251822               0.000579182               0.999999985              -0.000257573               0.000602006               0.999999985              -0.000265572               0.000630705               0.999999985              -0.000273731               0.000661550               0.999999985              -0.000280992               0.000692638               0.999999985              -0.000286531               0.000722779               0.999999985              -0.000289964               0.000751277               0.999999985              -0.000291189               0.000778083               0.999999985              -0.000290449               0.000803155               0.999999985              -0.000287966               0.000826835               0.999999985              -0.000283928               0.000849191               0.999999985              -0.000278655               0.000870047               0.999999985              -0.000272330               0.000889776               0.999999985              -0.000264838               0.000908289               0.999999985              -0.000288290               0.000751942               0.999999985              -0.000223146               0.000663068               0.999999985              -0.000208703               0.000647247               0.999999985              -0.000210798               0.000660443               0.999999985              -0.000218634               0.000686861               0.999999985              -0.000227852               0.000719363               0.999999985              -0.000236342               0.000754041               0.999999985              -0.000242795               0.000788731               0.999999985              -0.000246524               0.000822269               0.999999985              -0.000247239               0.000854175               0.999999985              -0.000245110               0.000884505               0.999999985              -0.000240400               0.000913416               0.999999985              -0.000233675               0.000940420               0.999999985              -0.000225454               0.000965554               0.999999985              -0.000216087               0.000989341               0.999999985              -0.000205772               0.001011781               0.999999985              -0.000194791               0.001032989               0.999999985              -0.000258803               0.000822784               0.999999985              -0.000187095               0.000745563               0.999999985              -0.000169539               0.000725053               0.999999985              -0.000170083               0.000732443               0.999999985              -0.000176960               0.000753774               0.999999985              -0.000185654               0.000782394               0.999999985              -0.000193984               0.000814629               0.999999985              -0.000200760               0.000848066               0.999999985              -0.000205124               0.000881417               0.999999985              -0.000206470               0.000913770               0.999999985              -0.000204759               0.000945142               0.999999985              -0.000200324               0.000975320               0.999999985              -0.000193329               0.001003860               0.999999985              -0.000184323               0.001030801               0.999999985              -0.000173774               0.001056161               0.999999985              -0.000162156               0.001080223               0.999999985              -0.000150238               0.001103016               0.999999985              -0.000226508               0.000886827               0.999999985              -0.000153902               0.000824618               0.999999985              -0.000133296               0.000804064               0.999999985              -0.000131594               0.000807458               0.999999985              -0.000136945               0.000824659               0.999999985              -0.000144535               0.000849814               0.999999985              -0.000152298               0.000879563               0.999999985              -0.000158980               0.000911690               0.999999985              -0.000163602               0.000944683               0.999999985              -0.000165475               0.000977427               0.999999985              -0.000164343               0.001009565               0.999999985              -0.000160275               0.001040808               0.999999985              -0.000153334               0.001070620               0.999999985              -0.000143599               0.001098980               0.999999985              -0.000131473               0.001125969               0.999999985              -0.000117581               0.001151640               0.999999985              -0.000102799               0.001176223               0.999999985              -0.000192139               0.000942712               0.999999985              -0.000123388               0.000898094               0.999999985              -0.000101082               0.000880867               0.999999985              -0.000096992               0.000882738               0.999999985              -0.000100329               0.000897207               0.999999985              -0.000106380               0.000919719               0.999999985              -0.000113064               0.000947396               0.999999985              -0.000119164               0.000978289               0.999999985              -0.000123545               0.001010994               0.999999985              -0.000125673               0.001044287               0.999999985              -0.000125208               0.001077406               0.999999985              -0.000121781               0.001109824               0.999999985              -0.000115004               0.001141077               0.999999985              -0.000104939               0.001171021               0.999999985              -0.000091625               0.001199487               0.999999985              -0.000075403               0.001226813               0.999999985              -0.000056953               0.001253019               0.999999985              -0.000156011               0.000989564               0.999999985              -0.000095483               0.000963080               0.999999985              -0.000073382               0.000951776               0.999999985              -0.000067477               0.000954455               0.999999985              -0.000068789               0.000967775               0.999999985              -0.000073138               0.000988710               0.999999985              -0.000078344               0.001015022               0.999999985              -0.000083207               0.001045092               0.999999985              -0.000086993               0.001077669               0.999999985              -0.000089218               0.001111603               0.999999985              -0.000089275               0.001146059               0.999999985              -0.000086534               0.001180231               0.999999985              -0.000080367               0.001213373               0.999999985              -0.000070516               0.001245341               0.999999985              -0.000056782               0.001275887               0.999999985              -0.000038994               0.001305145               0.999999985              -0.000017258               0.001333181               0.999999985              -0.000118371               0.001026775               0.999999985              -0.000069735               0.001016946               0.999999985              -0.000050183               0.001012733               0.999999985              -0.000043734               0.001017898               0.999999985              -0.000043496               0.001031552               0.999999985              -0.000046115               0.001052073               0.999999985              -0.000049754               0.001077885               0.999999985              -0.000053221               0.001107631               0.999999985              -0.000056101               0.001140263               0.999999985              -0.000057987               0.001174898               0.999999985              -0.000058279               0.001210863               0.999999985              -0.000056304               0.001247156               0.999999985              -0.000051191               0.001282860               0.999999985              -0.000042373               0.001317633               0.999999985              -0.000029550               0.001351084               0.999999985              -0.000012110               0.001383062               0.999999985               0.000010900               0.001413522               0.999999985              -0.000079560               0.001053717               0.999999985              -0.000045624               0.001057242               0.999999985              -0.000030962               0.001059736               0.999999985              -0.000025501               0.001067996               0.999999985              -0.000024594               0.001082893               0.999999985              -0.000025866               0.001103789               0.999999985              -0.000027923               0.001129750               0.999999985              -0.000030114               0.001159731               0.999999985              -0.000031985               0.001192816               0.999999985              -0.000033260               0.001228291               0.999999985              -0.000033521               0.001265593               0.999999985              -0.000032195               0.001303897               0.999999985              -0.000028497               0.001342263               0.999999985              -0.000021830               0.001380111               0.999999985              -0.000011886               0.001416841               0.999999985               0.000002411               0.001452155               0.999999985               0.000022467               0.001485699               0.999999985              -0.000039974               0.001070009               0.999999985              -0.000022568               0.001082105               0.999999985              -0.000014706               0.001089344               0.999999985              -0.000011576               0.001100093               0.999999985              -0.000010839               0.001116307               0.999999985              -0.000011306               0.001137930               0.999999985              -0.000012183               0.001164270               0.999999985              -0.000013199               0.001194588               0.999999985              -0.000014078               0.001228170               0.999999985              -0.000014754               0.001264378               0.999999985              -0.000014898               0.001302789               0.999999985              -0.000014156               0.001342577               0.999999985              -0.000012174               0.001382807               0.999999985              -0.000008728               0.001422905               0.999999985              -0.000003183               0.001462242               0.999999985               0.000004916               0.001500388               0.999999985               0.000016703               0.001536637               0.999999985               0.000000000               0.001075476               0.999999985              -0.000000000               0.001090540               0.999999985              -0.000000000               0.001099514               0.999999985               0.000000000               0.001111214               0.999999985              -0.000000000               0.001127937               0.999999985              -0.000000000               0.001149811               0.999999985               0.000000000               0.001176339               0.999999985               0.000000000               0.001206846               0.999999985              -0.000000000               0.001240597               0.999999985               0.000000000               0.001277095               0.999999985               0.000000000               0.001315938               0.999999985              -0.000000000               0.001356301               0.999999985              -0.000000000               0.001397227               0.999999985              -0.000000000               0.001438164               0.999999985               0.000000000               0.001478525               0.999999985              -0.000000000               0.001517775               0.999999985              -0.000000000               0.001555116               0.999999985              -0.000428213              -0.000000000               0.999999985              -0.000469502               0.000000000               0.999999985              -0.000488462              -0.000000000               0.999999985              -0.000499714              -0.000000000               0.999999985              -0.000508849              -0.000000000               0.999999985              -0.000517980              -0.000000000               0.999999985              -0.000527901              -0.000000000               0.999999985              -0.000538813              -0.000000000               0.999999985              -0.000550670              -0.000000000               0.999999985              -0.000563480               0.000000000               0.999999985              -0.000577070               0.000000000               0.999999985              -0.000591371               0.000000000               0.999999985              -0.000606199               0.000000000               0.999999985              -0.000621340              -0.000000000               0.999999985              -0.000636584               0.000000000               0.999999985              -0.000651496               0.000000000               0.999999985              -0.000665503               0.000000000               0.999999985              -0.000425627              -0.000105264               0.999999985              -0.000464196              -0.000087782               0.999999985              -0.000481476              -0.000081152               0.999999985              -0.000491689              -0.000079873               0.999999985              -0.000500213              -0.000081608               0.999999985              -0.000509016              -0.000084853               0.999999985              -0.000518680              -0.000088916               0.999999985              -0.000529304              -0.000093330               0.999999985              -0.000540884              -0.000097703               0.999999985              -0.000553360              -0.000102066               0.999999985              -0.000566568              -0.000106293               0.999999985              -0.000580408              -0.000110018               0.999999985              -0.000594614              -0.000112855               0.999999985              -0.000608970              -0.000114634               0.999999985              -0.000623227              -0.000115091               0.999999985              -0.000637017              -0.000113474               0.999999985              -0.000649954              -0.000109126               0.999999985              -0.000418101              -0.000209359               0.999999985              -0.000448740              -0.000174961               0.999999985              -0.000461315              -0.000162456               0.999999985              -0.000468885              -0.000160661               0.999999985              -0.000475889              -0.000164592               0.999999985              -0.000483743              -0.000171452               0.999999985              -0.000492710              -0.000179752               0.999999985              -0.000502699              -0.000188619               0.999999985              -0.000513529              -0.000197611               0.999999985              -0.000525070              -0.000206404               0.999999985              -0.000537077              -0.000214810               0.999999985              -0.000549316              -0.000222309               0.999999985              -0.000561518              -0.000228168               0.999999985              -0.000573415              -0.000232107               0.999999985              -0.000584853              -0.000233675               0.999999985              -0.000595680              -0.000232059               0.999999985              -0.000605829              -0.000226204               0.999999985              -0.000405880              -0.000311217               0.999999985              -0.000424142              -0.000260930               0.999999985              -0.000430093              -0.000243945               0.999999985              -0.000434244              -0.000242834               0.999999985              -0.000439453              -0.000249705               0.999999985              -0.000446260              -0.000260660               0.999999985              -0.000454440              -0.000273495               0.999999985              -0.000463669              -0.000287075               0.999999985              -0.000473553              -0.000300637               0.999999985              -0.000483806              -0.000313867               0.999999985              -0.000493979              -0.000326352               0.999999985              -0.000503749              -0.000337460               0.999999985              -0.000512887              -0.000346499               0.999999985              -0.000521374              -0.000353263               0.999999985              -0.000529265              -0.000357357               0.999999985              -0.000536575              -0.000358188               0.999999985              -0.000543469              -0.000355115               0.999999985              -0.000389280              -0.000409814               0.999999985              -0.000391807              -0.000345290               0.999999985              -0.000390557              -0.000325645               0.999999985              -0.000391532              -0.000326374               0.999999985              -0.000395344              -0.000336884               0.999999985              -0.000401452              -0.000352364               0.999999985              -0.000409106              -0.000369973               0.999999985              -0.000417576              -0.000388384               0.999999985              -0.000426391              -0.000406560               0.999999985              -0.000435079              -0.000424006               0.999999985              -0.000443134              -0.000440231               0.999999985              -0.000450224              -0.000454799               0.999999985              -0.000456420              -0.000467235               0.999999985              -0.000461758              -0.000477381               0.999999985              -0.000466388              -0.000485221               0.999999985              -0.000470481              -0.000490391               0.999999985              -0.000474292              -0.000493170               0.999999985              -0.000368737              -0.000504157               0.999999985              -0.000353518              -0.000427827               0.999999985              -0.000345711              -0.000407406               0.999999985              -0.000344615              -0.000410865               0.999999985              -0.000347983              -0.000425541               0.999999985              -0.000354085              -0.000445675               0.999999985              -0.000361624              -0.000468010               0.999999985              -0.000369592              -0.000491011               0.999999985              -0.000377376              -0.000513551               0.999999985              -0.000384403              -0.000534946               0.999999985              -0.000390361              -0.000554843               0.999999985              -0.000395103              -0.000572796               0.999999985              -0.000398616              -0.000588706               0.999999985              -0.000401132              -0.000602681               0.999999985              -0.000402982              -0.000614794               0.999999985              -0.000404251              -0.000625210               0.999999985              -0.000405207              -0.000634420               0.999999985              -0.000344553              -0.000593367               0.999999985              -0.000311282              -0.000508458               0.999999985              -0.000298678              -0.000488740               0.999999985              -0.000297064              -0.000495515               0.999999985              -0.000301171              -0.000514413               0.999999985              -0.000308034              -0.000538992               0.999999985              -0.000315810              -0.000565758               0.999999985              -0.000323394              -0.000592979               0.999999985              -0.000330164              -0.000619506               0.999999985              -0.000335643              -0.000644552               0.999999985              -0.000339428              -0.000667928               0.999999985              -0.000341579              -0.000689404               0.999999985              -0.000342396              -0.000709003               0.999999985              -0.000342185              -0.000727172               0.999999985              -0.000341009              -0.000743958               0.999999985              -0.000339019              -0.000759374               0.999999985              -0.000336169              -0.000773904               0.999999985              -0.000317390              -0.000676424               0.999999985              -0.000267329              -0.000586891               0.999999985              -0.000252142              -0.000569053               0.999999985              -0.000251822              -0.000579182               0.999999985              -0.000257573              -0.000602006               0.999999985              -0.000265572              -0.000630705               0.999999985              -0.000273731              -0.000661550               0.999999985              -0.000280992              -0.000692638               0.999999985              -0.000286531              -0.000722779               0.999999985              -0.000289964              -0.000751277               0.999999985              -0.000291189              -0.000778083               0.999999985              -0.000290449              -0.000803155               0.999999985              -0.000287966              -0.000826835               0.999999985              -0.000283928              -0.000849191               0.999999985              -0.000278655              -0.000870047               0.999999985              -0.000272330              -0.000889776               0.999999985              -0.000264838              -0.000908289               0.999999985              -0.000288290              -0.000751942               0.999999985              -0.000223146              -0.000663068               0.999999985              -0.000208703              -0.000647247               0.999999985              -0.000210798              -0.000660443               0.999999985              -0.000218634              -0.000686861               0.999999985              -0.000227852              -0.000719363               0.999999985              -0.000236342              -0.000754041               0.999999985              -0.000242795              -0.000788731               0.999999985              -0.000246524              -0.000822269               0.999999985              -0.000247239              -0.000854175               0.999999985              -0.000245110              -0.000884505               0.999999985              -0.000240400              -0.000913416               0.999999985              -0.000233675              -0.000940420               0.999999985              -0.000225454              -0.000965554               0.999999985              -0.000216087              -0.000989341               0.999999985              -0.000205772              -0.001011781               0.999999985              -0.000194791              -0.001032989               0.999999985              -0.000258803              -0.000822784               0.999999985              -0.000187095              -0.000745563               0.999999985              -0.000169539              -0.000725053               0.999999985              -0.000170083              -0.000732443               0.999999985              -0.000176960              -0.000753774               0.999999985              -0.000185654              -0.000782394               0.999999985              -0.000193984              -0.000814629               0.999999985              -0.000200760              -0.000848066               0.999999985              -0.000205124              -0.000881417               0.999999985              -0.000206470              -0.000913770               0.999999985              -0.000204759              -0.000945142               0.999999985              -0.000200324              -0.000975320               0.999999985              -0.000193329              -0.001003860               0.999999985              -0.000184323              -0.001030801               0.999999985              -0.000173774              -0.001056161               0.999999985              -0.000162156              -0.001080223               0.999999985              -0.000150238              -0.001103016               0.999999985              -0.000226508              -0.000886827               0.999999985              -0.000153902              -0.000824618               0.999999985              -0.000133296              -0.000804064               0.999999985              -0.000131594              -0.000807458               0.999999985              -0.000136945              -0.000824659               0.999999985              -0.000144535              -0.000849814               0.999999985              -0.000152298              -0.000879563               0.999999985              -0.000158980              -0.000911690               0.999999985              -0.000163602              -0.000944683               0.999999985              -0.000165475              -0.000977427               0.999999985              -0.000164343              -0.001009565               0.999999985              -0.000160275              -0.001040808               0.999999985              -0.000153334              -0.001070620               0.999999985              -0.000143599              -0.001098980               0.999999985              -0.000131473              -0.001125969               0.999999985              -0.000117581              -0.001151640               0.999999985              -0.000102799              -0.001176223               0.999999985              -0.000192139              -0.000942712               0.999999985              -0.000123388              -0.000898094               0.999999985              -0.000101082              -0.000880867               0.999999985              -0.000096992              -0.000882738               0.999999985              -0.000100329              -0.000897207               0.999999985              -0.000106380              -0.000919719               0.999999985              -0.000113064              -0.000947396               0.999999985              -0.000119164              -0.000978289               0.999999985              -0.000123545              -0.001010994               0.999999985              -0.000125673              -0.001044287               0.999999985              -0.000125208              -0.001077406               0.999999985              -0.000121781              -0.001109824               0.999999985              -0.000115004              -0.001141077               0.999999985              -0.000104939              -0.001171021               0.999999985              -0.000091625              -0.001199487               0.999999985              -0.000075403              -0.001226813               0.999999985              -0.000056953              -0.001253019               0.999999985              -0.000156011              -0.000989564               0.999999985              -0.000095483              -0.000963080               0.999999985              -0.000073382              -0.000951776               0.999999985              -0.000067477              -0.000954455               0.999999985              -0.000068789              -0.000967775               0.999999985              -0.000073138              -0.000988710               0.999999985              -0.000078344              -0.001015022               0.999999985              -0.000083207              -0.001045092               0.999999985              -0.000086993              -0.001077669               0.999999985              -0.000089218              -0.001111603               0.999999985              -0.000089275              -0.001146059               0.999999985              -0.000086534              -0.001180231               0.999999985              -0.000080367              -0.001213373               0.999999985              -0.000070516              -0.001245341               0.999999985              -0.000056782              -0.001275887               0.999999985              -0.000038994              -0.001305145               0.999999985              -0.000017258              -0.001333181               0.999999985              -0.000118371              -0.001026775               0.999999985              -0.000069735              -0.001016946               0.999999985              -0.000050183              -0.001012733               0.999999985              -0.000043734              -0.001017898               0.999999985              -0.000043496              -0.001031552               0.999999985              -0.000046115              -0.001052073               0.999999985              -0.000049754              -0.001077885               0.999999985              -0.000053221              -0.001107631               0.999999985              -0.000056101              -0.001140263               0.999999985              -0.000057987              -0.001174898               0.999999985              -0.000058279              -0.001210863               0.999999985              -0.000056304              -0.001247156               0.999999985              -0.000051191              -0.001282860               0.999999985              -0.000042373              -0.001317633               0.999999985              -0.000029550              -0.001351084               0.999999985              -0.000012110              -0.001383062               0.999999985               0.000010900              -0.001413522               0.999999985              -0.000079560              -0.001053717               0.999999985              -0.000045624              -0.001057242               0.999999985              -0.000030962              -0.001059736               0.999999985              -0.000025501              -0.001067996               0.999999985              -0.000024594              -0.001082893               0.999999985              -0.000025866              -0.001103789               0.999999985              -0.000027923              -0.001129750               0.999999985              -0.000030114              -0.001159731               0.999999985              -0.000031985              -0.001192816               0.999999985              -0.000033260              -0.001228291               0.999999985              -0.000033521              -0.001265593               0.999999985              -0.000032195              -0.001303897               0.999999985              -0.000028497              -0.001342263               0.999999985              -0.000021830              -0.001380111               0.999999985              -0.000011886              -0.001416841               0.999999985               0.000002411              -0.001452155               0.999999985               0.000022467              -0.001485699               0.999999985              -0.000039974              -0.001070009               0.999999985              -0.000022568              -0.001082105               0.999999985              -0.000014706              -0.001089344               0.999999985              -0.000011576              -0.001100093               0.999999985              -0.000010839              -0.001116307               0.999999985              -0.000011306              -0.001137930               0.999999985              -0.000012183              -0.001164270               0.999999985              -0.000013199              -0.001194588               0.999999985              -0.000014078              -0.001228170               0.999999985              -0.000014754              -0.001264378               0.999999985              -0.000014898              -0.001302789               0.999999985              -0.000014156              -0.001342577               0.999999985              -0.000012174              -0.001382807               0.999999985              -0.000008728              -0.001422905               0.999999985              -0.000003183              -0.001462242               0.999999985               0.000004916              -0.001500388               0.999999985               0.000016703              -0.001536637               0.999999985               0.000000000              -0.001075476               0.999999985               0.000000000              -0.001090540               0.999999985              -0.000000000              -0.001099514               0.999999985              -0.000000000              -0.001111214               0.999999985              -0.000000000              -0.001127937               0.999999985               0.000000000              -0.001149811               0.999999985              -0.000000000              -0.001176339               0.999999985              -0.000000000              -0.001206846               0.999999985               0.000000000              -0.001240597               0.999999985               0.000000000              -0.001277095               0.999999985              -0.000000000              -0.001315938               0.999999985              -0.000000000              -0.001356301               0.999999985               0.000000000              -0.001397227               0.999999985              -0.000000000              -0.001438164               0.999999985              -0.000000000              -0.001478525               0.999999985               0.000000000              -0.001517775               0.999999985               0.000000000              -0.001555116               0.999999985               0.000428213              -0.000000000               0.999999985               0.000469502              -0.000000000               0.999999985               0.000488462              -0.000000000               0.999999985               0.000499714              -0.000000000               0.999999985               0.000508849               0.000000000               0.999999985               0.000517980               0.000000000               0.999999985               0.000527901              -0.000000000               0.999999985               0.000538813              -0.000000000               0.999999985               0.000550670               0.000000000               0.999999985               0.000563480              -0.000000000               0.999999985               0.000577070               0.000000000               0.999999985               0.000591371               0.000000000               0.999999985               0.000606199               0.000000000               0.999999985               0.000621340               0.000000000               0.999999985               0.000636584               0.000000000               0.999999985               0.000651496               0.000000000               0.999999985               0.000665503               0.000000000               0.999999985               0.000425627              -0.000105264               0.999999985               0.000464196              -0.000087782               0.999999985               0.000481476              -0.000081152               0.999999985               0.000491689              -0.000079873               0.999999985               0.000500213              -0.000081608               0.999999985               0.000509016              -0.000084853               0.999999985               0.000518680              -0.000088916               0.999999985               0.000529304              -0.000093330               0.999999985               0.000540884              -0.000097703               0.999999985               0.000553360              -0.000102066               0.999999985               0.000566568              -0.000106293               0.999999985               0.000580408              -0.000110018               0.999999985               0.000594614              -0.000112855               0.999999985               0.000608970              -0.000114634               0.999999985               0.000623227              -0.000115091               0.999999985               0.000637017              -0.000113474               0.999999985               0.000649954              -0.000109126               0.999999985               0.000418101              -0.000209359               0.999999985               0.000448740              -0.000174961               0.999999985               0.000461315              -0.000162456               0.999999985               0.000468885              -0.000160661               0.999999985               0.000475889              -0.000164592               0.999999985               0.000483743              -0.000171452               0.999999985               0.000492710              -0.000179752               0.999999985               0.000502699              -0.000188619               0.999999985               0.000513529              -0.000197611               0.999999985               0.000525070              -0.000206404               0.999999985               0.000537077              -0.000214810               0.999999985               0.000549316              -0.000222309               0.999999985               0.000561518              -0.000228168               0.999999985               0.000573415              -0.000232107               0.999999985               0.000584853              -0.000233675               0.999999985               0.000595680              -0.000232059               0.999999985               0.000605829              -0.000226204               0.999999985               0.000405880              -0.000311217               0.999999985               0.000424142              -0.000260930               0.999999985               0.000430093              -0.000243945               0.999999985               0.000434244              -0.000242834               0.999999985               0.000439453              -0.000249705               0.999999985               0.000446260              -0.000260660               0.999999985               0.000454440              -0.000273495               0.999999985               0.000463669              -0.000287075               0.999999985               0.000473553              -0.000300637               0.999999985               0.000483806              -0.000313867               0.999999985               0.000493979              -0.000326352               0.999999985               0.000503749              -0.000337460               0.999999985               0.000512887              -0.000346499               0.999999985               0.000521374              -0.000353263               0.999999985               0.000529265              -0.000357357               0.999999985               0.000536575              -0.000358188               0.999999985               0.000543469              -0.000355115               0.999999985               0.000389280              -0.000409814               0.999999985               0.000391807              -0.000345290               0.999999985               0.000390557              -0.000325645               0.999999985               0.000391532              -0.000326374               0.999999985               0.000395344              -0.000336884               0.999999985               0.000401452              -0.000352364               0.999999985               0.000409106              -0.000369973               0.999999985               0.000417576              -0.000388384               0.999999985               0.000426391              -0.000406560               0.999999985               0.000435079              -0.000424006               0.999999985               0.000443134              -0.000440231               0.999999985               0.000450224              -0.000454799               0.999999985               0.000456420              -0.000467235               0.999999985               0.000461758              -0.000477381               0.999999985               0.000466388              -0.000485221               0.999999985               0.000470481              -0.000490391               0.999999985               0.000474292              -0.000493170               0.999999985               0.000368737              -0.000504157               0.999999985               0.000353518              -0.000427827               0.999999985               0.000345711              -0.000407406               0.999999985               0.000344615              -0.000410865               0.999999985               0.000347983              -0.000425541               0.999999985               0.000354085              -0.000445675               0.999999985               0.000361624              -0.000468010               0.999999985               0.000369592              -0.000491011               0.999999985               0.000377376              -0.000513551               0.999999985               0.000384403              -0.000534946               0.999999985               0.000390361              -0.000554843               0.999999985               0.000395103              -0.000572796               0.999999985               0.000398616              -0.000588706               0.999999985               0.000401132              -0.000602681               0.999999985               0.000402982              -0.000614794               0.999999985               0.000404251              -0.000625210               0.999999985               0.000405207              -0.000634420               0.999999985               0.000344553              -0.000593367               0.999999985               0.000311282              -0.000508458               0.999999985               0.000298678              -0.000488740               0.999999985               0.000297064              -0.000495515               0.999999985               0.000301171              -0.000514413               0.999999985               0.000308034              -0.000538992               0.999999985               0.000315810              -0.000565758               0.999999985               0.000323394              -0.000592979               0.999999985               0.000330164              -0.000619506               0.999999985               0.000335643              -0.000644552               0.999999985               0.000339428              -0.000667928               0.999999985               0.000341579              -0.000689404               0.999999985               0.000342396              -0.000709003               0.999999985               0.000342185              -0.000727172               0.999999985               0.000341009              -0.000743958               0.999999985               0.000339019              -0.000759374               0.999999985               0.000336169              -0.000773904               0.999999985               0.000317390              -0.000676424               0.999999985               0.000267329              -0.000586891               0.999999985               0.000252142              -0.000569053               0.999999985               0.000251822              -0.000579182               0.999999985               0.000257573              -0.000602006               0.999999985               0.000265572              -0.000630705               0.999999985               0.000273731              -0.000661550               0.999999985               0.000280992              -0.000692638               0.999999985               0.000286531              -0.000722779               0.999999985               0.000289964              -0.000751277               0.999999985               0.000291189              -0.000778083               0.999999985               0.000290449              -0.000803155               0.999999985               0.000287966              -0.000826835               0.999999985               0.000283928              -0.000849191               0.999999985               0.000278655              -0.000870047               0.999999985               0.000272330              -0.000889776               0.999999985               0.000264838              -0.000908289               0.999999985               0.000288290              -0.000751942               0.999999985               0.000223146              -0.000663068               0.999999985               0.000208703              -0.000647247               0.999999985               0.000210798              -0.000660443               0.999999985               0.000218634              -0.000686861               0.999999985               0.000227852              -0.000719363               0.999999985               0.000236342              -0.000754041               0.999999985               0.000242795              -0.000788731               0.999999985               0.000246524              -0.000822269               0.999999985               0.000247239              -0.000854175               0.999999985               0.000245110              -0.000884505               0.999999985               0.000240400              -0.000913416               0.999999985               0.000233675              -0.000940420               0.999999985               0.000225454              -0.000965554               0.999999985               0.000216087              -0.000989341               0.999999985               0.000205772              -0.001011781               0.999999985               0.000194791              -0.001032989               0.999999985               0.000258803              -0.000822784               0.999999985               0.000187095              -0.000745563               0.999999985               0.000169539              -0.000725053               0.999999985               0.000170083              -0.000732443               0.999999985               0.000176960              -0.000753774               0.999999985               0.000185654              -0.000782394               0.999999985               0.000193984              -0.000814629               0.999999985               0.000200760              -0.000848066               0.999999985               0.000205124              -0.000881417               0.999999985               0.000206470              -0.000913770               0.999999985               0.000204759              -0.000945142               0.999999985               0.000200324              -0.000975320               0.999999985               0.000193329              -0.001003860               0.999999985               0.000184323              -0.001030801               0.999999985               0.000173774              -0.001056161               0.999999985               0.000162156              -0.001080223               0.999999985               0.000150238              -0.001103016               0.999999985               0.000226508              -0.000886827               0.999999985               0.000153902              -0.000824618               0.999999985               0.000133296              -0.000804064               0.999999985               0.000131594              -0.000807458               0.999999985               0.000136945              -0.000824659               0.999999985               0.000144535              -0.000849814               0.999999985               0.000152298              -0.000879563               0.999999985               0.000158980              -0.000911690               0.999999985               0.000163602              -0.000944683               0.999999985               0.000165475              -0.000977427               0.999999985               0.000164343              -0.001009565               0.999999985               0.000160275              -0.001040808               0.999999985               0.000153334              -0.001070620               0.999999985               0.000143599              -0.001098980               0.999999985               0.000131473              -0.001125969               0.999999985               0.000117581              -0.001151640               0.999999985               0.000102799              -0.001176223               0.999999985               0.000192139              -0.000942712               0.999999985               0.000123388              -0.000898094               0.999999985               0.000101082              -0.000880867               0.999999985               0.000096992              -0.000882738               0.999999985               0.000100329              -0.000897207               0.999999985               0.000106380              -0.000919719               0.999999985               0.000113064              -0.000947396               0.999999985               0.000119164              -0.000978289               0.999999985               0.000123545              -0.001010994               0.999999985               0.000125673              -0.001044287               0.999999985               0.000125208              -0.001077406               0.999999985               0.000121781              -0.001109824               0.999999985               0.000115004              -0.001141077               0.999999985               0.000104939              -0.001171021               0.999999985               0.000091625              -0.001199487               0.999999985               0.000075403              -0.001226813               0.999999985               0.000056953              -0.001253019               0.999999985               0.000156011              -0.000989564               0.999999985               0.000095483              -0.000963080               0.999999985               0.000073382              -0.000951776               0.999999985               0.000067477              -0.000954455               0.999999985               0.000068789              -0.000967775               0.999999985               0.000073138              -0.000988710               0.999999985               0.000078344              -0.001015022               0.999999985               0.000083207              -0.001045092               0.999999985               0.000086993              -0.001077669               0.999999985               0.000089218              -0.001111603               0.999999985               0.000089275              -0.001146059               0.999999985               0.000086534              -0.001180231               0.999999985               0.000080367              -0.001213373               0.999999985               0.000070516              -0.001245341               0.999999985               0.000056782              -0.001275887               0.999999985               0.000038994              -0.001305145               0.999999985               0.000017258              -0.001333181               0.999999985               0.000118371              -0.001026775               0.999999985               0.000069735              -0.001016946               0.999999985               0.000050183              -0.001012733               0.999999985               0.000043734              -0.001017898               0.999999985               0.000043496              -0.001031552               0.999999985               0.000046115              -0.001052073               0.999999985               0.000049754              -0.001077885               0.999999985               0.000053221              -0.001107631               0.999999985               0.000056101              -0.001140263               0.999999985               0.000057987              -0.001174898               0.999999985               0.000058279              -0.001210863               0.999999985               0.000056304              -0.001247156               0.999999985               0.000051191              -0.001282860               0.999999985               0.000042373              -0.001317633               0.999999985               0.000029550              -0.001351084               0.999999985               0.000012110              -0.001383062               0.999999985              -0.000010900              -0.001413522               0.999999985               0.000079560              -0.001053717               0.999999985               0.000045624              -0.001057242               0.999999985               0.000030962              -0.001059736               0.999999985               0.000025501              -0.001067996               0.999999985               0.000024594              -0.001082893               0.999999985               0.000025866              -0.001103789               0.999999985               0.000027923              -0.001129750               0.999999985               0.000030114              -0.001159731               0.999999985               0.000031985              -0.001192816               0.999999985               0.000033260              -0.001228291               0.999999985               0.000033521              -0.001265593               0.999999985               0.000032195              -0.001303897               0.999999985               0.000028497              -0.001342263               0.999999985               0.000021830              -0.001380111               0.999999985               0.000011886              -0.001416841               0.999999985              -0.000002411              -0.001452155               0.999999985              -0.000022467              -0.001485699               0.999999985               0.000039974              -0.001070009               0.999999985               0.000022568              -0.001082105               0.999999985               0.000014706              -0.001089344               0.999999985               0.000011576              -0.001100093               0.999999985               0.000010839              -0.001116307               0.999999985               0.000011306              -0.001137930               0.999999985               0.000012183              -0.001164270               0.999999985               0.000013199              -0.001194588               0.999999985               0.000014078              -0.001228170               0.999999985               0.000014754              -0.001264378               0.999999985               0.000014898              -0.001302789               0.999999985               0.000014156              -0.001342577               0.999999985               0.000012174              -0.001382807               0.999999985               0.000008728              -0.001422905               0.999999985               0.000003183              -0.001462242               0.999999985              -0.000004916              -0.001500388               0.999999985              -0.000016703              -0.001536637               0.999999985               0.000000000              -0.001075476               0.999999985               0.000000000              -0.001090540               0.999999985              -0.000000000              -0.001099514               0.999999985              -0.000000000              -0.001111214               0.999999985              -0.000000000              -0.001127937               0.999999985               0.000000000              -0.001149811               0.999999985              -0.000000000              -0.001176339               0.999999985              -0.000000000              -0.001206846               0.999999985               0.000000000              -0.001240597               0.999999985               0.000000000              -0.001277095               0.999999985              -0.000000000              -0.001315938               0.999999985              -0.000000000              -0.001356301               0.999999985               0.000000000              -0.001397227               0.999999985              -0.000000000              -0.001438164               0.999999985              -0.000000000              -0.001478525               0.999999985               0.000000000              -0.001517775               0.999999985               0.000000000              -0.001555116               0.999999985               0.000428213              -0.000000000               0.999999985               0.000469502              -0.000000000               0.999999985               0.000488462              -0.000000000               0.999999985               0.000499714              -0.000000000               0.999999985               0.000508849               0.000000000               0.999999985               0.000517980               0.000000000               0.999999985               0.000527901              -0.000000000               0.999999985               0.000538813              -0.000000000               0.999999985               0.000550670               0.000000000               0.999999985               0.000563480              -0.000000000               0.999999985               0.000577070               0.000000000               0.999999985               0.000591371               0.000000000               0.999999985               0.000606199               0.000000000               0.999999985               0.000621340               0.000000000               0.999999985               0.000636584               0.000000000               0.999999985               0.000651496               0.000000000               0.999999985               0.000665503               0.000000000               0.999999985               0.000425627               0.000105264               0.999999985               0.000464196               0.000087782               0.999999985               0.000481476               0.000081152               0.999999985               0.000491689               0.000079873               0.999999985               0.000500213               0.000081608               0.999999985               0.000509016               0.000084853               0.999999985               0.000518680               0.000088916               0.999999985               0.000529304               0.000093330               0.999999985               0.000540884               0.000097703               0.999999985               0.000553360               0.000102066               0.999999985               0.000566568               0.000106293               0.999999985               0.000580408               0.000110018               0.999999985               0.000594614               0.000112855               0.999999985               0.000608970               0.000114634               0.999999985               0.000623227               0.000115091               0.999999985               0.000637017               0.000113474               0.999999985               0.000649954               0.000109126               0.999999985               0.000418101               0.000209359               0.999999985               0.000448740               0.000174961               0.999999985               0.000461315               0.000162456               0.999999985               0.000468885               0.000160661               0.999999985               0.000475889               0.000164592               0.999999985               0.000483743               0.000171452               0.999999985               0.000492710               0.000179752               0.999999985               0.000502699               0.000188619               0.999999985               0.000513529               0.000197611               0.999999985               0.000525070               0.000206404               0.999999985               0.000537077               0.000214810               0.999999985               0.000549316               0.000222309               0.999999985               0.000561518               0.000228168               0.999999985               0.000573415               0.000232107               0.999999985               0.000584853               0.000233675               0.999999985               0.000595680               0.000232059               0.999999985               0.000605829               0.000226204               0.999999985               0.000405880               0.000311217               0.999999985               0.000424142               0.000260930               0.999999985               0.000430093               0.000243945               0.999999985               0.000434244               0.000242834               0.999999985               0.000439453               0.000249705               0.999999985               0.000446260               0.000260660               0.999999985               0.000454440               0.000273495               0.999999985               0.000463669               0.000287075               0.999999985               0.000473553               0.000300637               0.999999985               0.000483806               0.000313867               0.999999985               0.000493979               0.000326352               0.999999985               0.000503749               0.000337460               0.999999985               0.000512887               0.000346499               0.999999985               0.000521374               0.000353263               0.999999985               0.000529265               0.000357357               0.999999985               0.000536575               0.000358188               0.999999985               0.000543469               0.000355115               0.999999985               0.000389280               0.000409814               0.999999985               0.000391807               0.000345290               0.999999985               0.000390557               0.000325645               0.999999985               0.000391532               0.000326374               0.999999985               0.000395344               0.000336884               0.999999985               0.000401452               0.000352364               0.999999985               0.000409106               0.000369973               0.999999985               0.000417576               0.000388384               0.999999985               0.000426391               0.000406560               0.999999985               0.000435079               0.000424006               0.999999985               0.000443134               0.000440231               0.999999985               0.000450224               0.000454799               0.999999985               0.000456420               0.000467235               0.999999985               0.000461758               0.000477381               0.999999985               0.000466388               0.000485221               0.999999985               0.000470481               0.000490391               0.999999985               0.000474292               0.000493170               0.999999985               0.000368737               0.000504157               0.999999985               0.000353518               0.000427827               0.999999985               0.000345711               0.000407406               0.999999985               0.000344615               0.000410865               0.999999985               0.000347983               0.000425541               0.999999985               0.000354085               0.000445675               0.999999985               0.000361624               0.000468010               0.999999985               0.000369592               0.000491011               0.999999985               0.000377376               0.000513551               0.999999985               0.000384403               0.000534946               0.999999985               0.000390361               0.000554843               0.999999985               0.000395103               0.000572796               0.999999985               0.000398616               0.000588706               0.999999985               0.000401132               0.000602681               0.999999985               0.000402982               0.000614794               0.999999985               0.000404251               0.000625210               0.999999985               0.000405207               0.000634420               0.999999985               0.000344553               0.000593367               0.999999985               0.000311282               0.000508458               0.999999985               0.000298678               0.000488740               0.999999985               0.000297064               0.000495515               0.999999985               0.000301171               0.000514413               0.999999985               0.000308034               0.000538992               0.999999985               0.000315810               0.000565758               0.999999985               0.000323394               0.000592979               0.999999985               0.000330164               0.000619506               0.999999985               0.000335643               0.000644552               0.999999985               0.000339428               0.000667928               0.999999985               0.000341579               0.000689404               0.999999985               0.000342396               0.000709003               0.999999985               0.000342185               0.000727172               0.999999985               0.000341009               0.000743958               0.999999985               0.000339019               0.000759374               0.999999985               0.000336169               0.000773904               0.999999985               0.000317390               0.000676424               0.999999985               0.000267329               0.000586891               0.999999985               0.000252142               0.000569053               0.999999985               0.000251822               0.000579182               0.999999985               0.000257573               0.000602006               0.999999985               0.000265572               0.000630705               0.999999985               0.000273731               0.000661550               0.999999985               0.000280992               0.000692638               0.999999985               0.000286531               0.000722779               0.999999985               0.000289964               0.000751277               0.999999985               0.000291189               0.000778083               0.999999985               0.000290449               0.000803155               0.999999985               0.000287966               0.000826835               0.999999985               0.000283928               0.000849191               0.999999985               0.000278655               0.000870047               0.999999985               0.000272330               0.000889776               0.999999985               0.000264838               0.000908289               0.999999985               0.000288290               0.000751942               0.999999985               0.000223146               0.000663068               0.999999985               0.000208703               0.000647247               0.999999985               0.000210798               0.000660443               0.999999985               0.000218634               0.000686861               0.999999985               0.000227852               0.000719363               0.999999985               0.000236342               0.000754041               0.999999985               0.000242795               0.000788731               0.999999985               0.000246524               0.000822269               0.999999985               0.000247239               0.000854175               0.999999985               0.000245110               0.000884505               0.999999985               0.000240400               0.000913416               0.999999985               0.000233675               0.000940420               0.999999985               0.000225454               0.000965554               0.999999985               0.000216087               0.000989341               0.999999985               0.000205772               0.001011781               0.999999985               0.000194791               0.001032989               0.999999985               0.000258803               0.000822784               0.999999985               0.000187095               0.000745563               0.999999985               0.000169539               0.000725053               0.999999985               0.000170083               0.000732443               0.999999985               0.000176960               0.000753774               0.999999985               0.000185654               0.000782394               0.999999985               0.000193984               0.000814629               0.999999985               0.000200760               0.000848066               0.999999985               0.000205124               0.000881417               0.999999985               0.000206470               0.000913770               0.999999985               0.000204759               0.000945142               0.999999985               0.000200324               0.000975320               0.999999985               0.000193329               0.001003860               0.999999985               0.000184323               0.001030801               0.999999985               0.000173774               0.001056161               0.999999985               0.000162156               0.001080223               0.999999985               0.000150238               0.001103016               0.999999985               0.000226508               0.000886827               0.999999985               0.000153902               0.000824618               0.999999985               0.000133296               0.000804064               0.999999985               0.000131594               0.000807458               0.999999985               0.000136945               0.000824659               0.999999985               0.000144535               0.000849814               0.999999985               0.000152298               0.000879563               0.999999985               0.000158980               0.000911690               0.999999985               0.000163602               0.000944683               0.999999985               0.000165475               0.000977427               0.999999985               0.000164343               0.001009565               0.999999985               0.000160275               0.001040808               0.999999985               0.000153334               0.001070620               0.999999985               0.000143599               0.001098980               0.999999985               0.000131473               0.001125969               0.999999985               0.000117581               0.001151640               0.999999985               0.000102799               0.001176223               0.999999985               0.000192139               0.000942712               0.999999985               0.000123388               0.000898094               0.999999985               0.000101082               0.000880867               0.999999985               0.000096992               0.000882738               0.999999985               0.000100329               0.000897207               0.999999985               0.000106380               0.000919719               0.999999985               0.000113064               0.000947396               0.999999985               0.000119164               0.000978289               0.999999985               0.000123545               0.001010994               0.999999985               0.000125673               0.001044287               0.999999985               0.000125208               0.001077406               0.999999985               0.000121781               0.001109824               0.999999985               0.000115004               0.001141077               0.999999985               0.000104939               0.001171021               0.999999985               0.000091625               0.001199487               0.999999985               0.000075403               0.001226813               0.999999985               0.000056953               0.001253019               0.999999985               0.000156011               0.000989564               0.999999985               0.000095483               0.000963080               0.999999985               0.000073382               0.000951776               0.999999985               0.000067477               0.000954455               0.999999985               0.000068789               0.000967775               0.999999985               0.000073138               0.000988710               0.999999985               0.000078344               0.001015022               0.999999985               0.000083207               0.001045092               0.999999985               0.000086993               0.001077669               0.999999985               0.000089218               0.001111603               0.999999985               0.000089275               0.001146059               0.999999985               0.000086534               0.001180231               0.999999985               0.000080367               0.001213373               0.999999985               0.000070516               0.001245341               0.999999985               0.000056782               0.001275887               0.999999985               0.000038994               0.001305145               0.999999985               0.000017258               0.001333181               0.999999985               0.000118371               0.001026775               0.999999985               0.000069735               0.001016946               0.999999985               0.000050183               0.001012733               0.999999985               0.000043734               0.001017898               0.999999985               0.000043496               0.001031552               0.999999985               0.000046115               0.001052073               0.999999985               0.000049754               0.001077885               0.999999985               0.000053221               0.001107631               0.999999985               0.000056101               0.001140263               0.999999985               0.000057987               0.001174898               0.999999985               0.000058279               0.001210863               0.999999985               0.000056304               0.001247156               0.999999985               0.000051191               0.001282860               0.999999985               0.000042373               0.001317633               0.999999985               0.000029550               0.001351084               0.999999985               0.000012110               0.001383062               0.999999985              -0.000010900               0.001413522               0.999999985               0.000079560               0.001053717               0.999999985               0.000045624               0.001057242               0.999999985               0.000030962               0.001059736               0.999999985               0.000025501               0.001067996               0.999999985               0.000024594               0.001082893               0.999999985               0.000025866               0.001103789               0.999999985               0.000027923               0.001129750               0.999999985               0.000030114               0.001159731               0.999999985               0.000031985               0.001192816               0.999999985               0.000033260               0.001228291               0.999999985               0.000033521               0.001265593               0.999999985               0.000032195               0.001303897               0.999999985               0.000028497               0.001342263               0.999999985               0.000021830               0.001380111               0.999999985               0.000011886               0.001416841               0.999999985              -0.000002411               0.001452155               0.999999985              -0.000022467               0.001485699               0.999999985               0.000039974               0.001070009               0.999999985               0.000022568               0.001082105               0.999999985               0.000014706               0.001089344               0.999999985               0.000011576               0.001100093               0.999999985               0.000010839               0.001116307               0.999999985               0.000011306               0.001137930               0.999999985               0.000012183               0.001164270               0.999999985               0.000013199               0.001194588               0.999999985               0.000014078               0.001228170               0.999999985               0.000014754               0.001264378               0.999999985               0.000014898               0.001302789               0.999999985               0.000014156               0.001342577               0.999999985               0.000012174               0.001382807               0.999999985               0.000008728               0.001422905               0.999999985               0.000003183               0.001462242               0.999999985              -0.000004916               0.001500388               0.999999985              -0.000016703               0.001536637               0.999999985               0.000000000               0.001075476               0.999999985              -0.000000000               0.001090540               0.999999985              -0.000000000               0.001099514               0.999999985               0.000000000               0.001111214               0.999999985              -0.000000000               0.001127937               0.999999985              -0.000000000               0.001149811               0.999999985               0.000000000               0.001176339               0.999999985               0.000000000               0.001206846               0.999999985              -0.000000000               0.001240597               0.999999985               0.000000000               0.001277095               0.999999985               0.000000000               0.001315938               0.999999985              -0.000000000               0.001356301               0.999999985              -0.000000000               0.001397227               0.999999985              -0.000000000               0.001438164               0.999999985               0.000000000               0.001478525               0.999999985              -0.000000000               0.001517775               0.999999985              -0.000000000               0.001555116               0.999999985 </DataArray>
<DataArray type="Float64"                                    Name="stress"                                                      NumberOfComponents="10" format="ascii">
              0.001742151               0.019363545              -0.000000000              -0.001767132               0.007043494               0.005276362               0.000000000               0.000000000               0.000000000               0.000000000               0.001752681               0.015355591               0.000000000              -0.001262190               0.005539209               0.004277019               0.000000000               0.000000000               0.000000000               0.000000000               0.002326869               0.012139893               0.000000000              -0.000644909               0.004261560               0.003616651               0.000000000               0.000000000               0.000000000               0.000000000               0.002261733               0.010350940              -0.000000000              -0.000445717               0.003598851               0.003153134               0.000000000               0.000000000               0.000000000               0.000000000               0.002002423               0.009255520              -0.000000000              -0.000406030               0.003220486               0.002814456               0.000000000               0.000000000               0.000000000               0.000000000               0.001705733               0.008519310              -0.000000000              -0.000425263               0.002981496               0.002556233               0.000000000               0.000000000               0.000000000               0.000000000               0.001425820               0.007985099              -0.000000000              -0.000463454               0.002816158               0.002352704               0.000000000               0.000000000               0.000000000               0.000000000               0.001176797               0.007567416               0.000000000              -0.000504627               0.002690656               0.002186029               0.000000000               0.000000000               0.000000000               0.000000000               0.000951618               0.007214413               0.000000000              -0.000544943               0.002586428               0.002041485               0.000000000               0.000000000               0.000000000               0.000000000               0.000753137               0.006909957               0.000000000              -0.000581317               0.002497068               0.001915752               0.000000000               0.000000000               0.000000000               0.000000000               0.000578937               0.006636378               0.000000000              -0.000612445               0.002416252               0.001803808               0.000000000               0.000000000               0.000000000               0.000000000               0.000423369               0.006368648              -0.000000000              -0.000637316               0.002335300               0.001697984               0.000000000               0.000000000               0.000000000               0.000000000               0.000288037               0.006088960              -0.000000000              -0.000653104               0.002247334               0.001594230               0.000000000               0.000000000               0.000000000               0.000000000               0.000170939               0.005788812               0.000000000              -0.000659498               0.002149417               0.001489919               0.000000000               0.000000000               0.000000000               0.000000000               0.000080980               0.005459965               0.000000000              -0.000652126               0.002037346               0.001385219               0.000000000               0.000000000               0.000000000               0.000000000               0.000028289               0.005082326               0.000000000              -0.000624681               0.001902319               0.001277638               0.000000000               0.000000000               0.000000000               0.000000000              -0.000018673               0.004790701               0.000000000              -0.000605839               0.001798831               0.001192992               0.000000000               0.000000000               0.000000000               0.000000000               0.001811444               0.018976464              -0.001340269              -0.001692763               0.006889679               0.005196916               0.000000000               0.000000000               0.000000000               0.000000000               0.001731835               0.015106435              -0.000704843              -0.001238863               0.005448382               0.004209519               0.000000000               0.000000000               0.000000000               0.000000000               0.002207242               0.012028972              -0.000072153              -0.000675904               0.004234918               0.003559014               0.000000000               0.000000000               0.000000000               0.000000000               0.002103607               0.010313641               0.000195605              -0.000500351               0.003604630               0.003104279               0.000000000               0.000000000               0.000000000               0.000000000               0.001831982               0.009253619               0.000305351              -0.000469708               0.003241078               0.002771370               0.000000000               0.000000000               0.000000000               0.000000000               0.001539368               0.008536229               0.000341473              -0.000489764               0.003008636               0.002518872               0.000000000               0.000000000               0.000000000               0.000000000               0.001273036               0.008010419               0.000346104              -0.000523913               0.002844751               0.002320838               0.000000000               0.000000000               0.000000000               0.000000000               0.001038784               0.007595919               0.000335322              -0.000559944               0.002718596               0.002158651               0.000000000               0.000000000               0.000000000               0.000000000               0.000829876               0.007249254               0.000320936              -0.000594952               0.002614711               0.002019759               0.000000000               0.000000000               0.000000000               0.000000000               0.000646786               0.006947064               0.000308694              -0.000625837               0.002524277               0.001898440               0.000000000               0.000000000               0.000000000               0.000000000               0.000487200               0.006672828               0.000292454              -0.000651402               0.002441388               0.001789986               0.000000000               0.000000000               0.000000000               0.000000000               0.000349348               0.006407847               0.000267479              -0.000669974               0.002359252               0.001689278               0.000000000               0.000000000               0.000000000               0.000000000               0.000233988               0.006135756               0.000238039              -0.000679222               0.002271639               0.001592417               0.000000000               0.000000000               0.000000000               0.000000000               0.000137428               0.005848457               0.000206335              -0.000679520               0.002175973               0.001496453               0.000000000               0.000000000               0.000000000               0.000000000               0.000065366               0.005539992               0.000160593              -0.000667985               0.002069307               0.001401322               0.000000000               0.000000000               0.000000000               0.000000000               0.000023186               0.005199138               0.000090492              -0.000641196               0.001946761               0.001305565               0.000000000               0.000000000               0.000000000               0.000000000              -0.000017143               0.004942981               0.000054216              -0.000624300               0.001855744               0.001231444               0.000000000               0.000000000               0.000000000               0.000000000               0.001991064               0.017871890              -0.002507348              -0.001487335               0.006453015               0.004965680               0.000000000               0.000000000               0.000000000               0.000000000               0.001661086               0.014392327              -0.001328268              -0.001176131               0.005189438               0.004013307               0.000000000               0.000000000               0.000000000               0.000000000               0.001863007               0.011707687              -0.000161217              -0.000764832               0.004157467               0.003392636               0.000000000               0.000000000               0.000000000               0.000000000               0.001660720               0.010194565               0.000317629              -0.000651549               0.003615337               0.002963788               0.000000000               0.000000000               0.000000000               0.000000000               0.001371449               0.009233849               0.000509323              -0.000639936               0.003291231               0.002651295               0.000000000               0.000000000               0.000000000               0.000000000               0.001098373               0.008567024               0.000571945              -0.000658987               0.003075308               0.002416322               0.000000000               0.000000000               0.000000000               0.000000000               0.000866992               0.008065487               0.000577886              -0.000683062               0.002916156               0.002233094               0.000000000               0.000000000               0.000000000               0.000000000               0.000675793               0.007664320               0.000559749              -0.000704616               0.002789620               0.002085004               0.000000000               0.000000000               0.000000000               0.000000000               0.000513706               0.007326369               0.000535066              -0.000723155               0.002683150               0.001959996               0.000000000               0.000000000               0.000000000               0.000000000               0.000377898               0.007028673               0.000511523              -0.000736871               0.002588491               0.001851620               0.000000000               0.000000000               0.000000000               0.000000000               0.000267728               0.006755596               0.000484988              -0.000744050               0.002499859               0.001755810               0.000000000               0.000000000               0.000000000               0.000000000               0.000179867               0.006495097               0.000445897              -0.000744435               0.002413156               0.001668720               0.000000000               0.000000000               0.000000000               0.000000000               0.000113530               0.006240074               0.000397972              -0.000737434               0.002325815               0.001588381               0.000000000               0.000000000               0.000000000               0.000000000               0.000063237               0.005987240               0.000342849              -0.000724689               0.002237290               0.001512601               0.000000000               0.000000000               0.000000000               0.000000000               0.000028262               0.005735446               0.000265447              -0.000706331               0.002147240               0.001440909               0.000000000               0.000000000               0.000000000               0.000000000               0.000009219               0.005487967               0.000150554              -0.000682537               0.002056816               0.001374279               0.000000000               0.000000000               0.000000000               0.000000000              -0.000012804               0.005321489               0.000088244              -0.000669986               0.001997141               0.001327155               0.000000000               0.000000000               0.000000000               0.000000000               0.002194209               0.016195826              -0.003362740              -0.001201649               0.005799104               0.004597455               0.000000000               0.000000000               0.000000000               0.000000000               0.001511484               0.013313050              -0.001803380              -0.001097323               0.004803413               0.003706090               0.000000000               0.000000000               0.000000000               0.000000000               0.001338205               0.011221474              -0.000274787              -0.000900855               0.004040739               0.003139884               0.000000000               0.000000000               0.000000000               0.000000000               0.001023708               0.009990206               0.000327236              -0.000864883               0.003618330               0.002753447               0.000000000               0.000000000               0.000000000               0.000000000               0.000733710               0.009165998               0.000560632              -0.000870606               0.003345504               0.002474898               0.000000000               0.000000000               0.000000000               0.000000000               0.000505264               0.008568922               0.000635152              -0.000881639               0.003150158               0.002268519               0.000000000               0.000000000               0.000000000               0.000000000               0.000334336               0.008104512               0.000641122              -0.000887686               0.002997372               0.002109686               0.000000000               0.000000000               0.000000000               0.000000000               0.000208124               0.007724438               0.000619454              -0.000887506               0.002870622               0.001983116               0.000000000               0.000000000               0.000000000               0.000000000               0.000112967               0.007394470               0.000590106              -0.000881944               0.002758780               0.001876836               0.000000000               0.000000000               0.000000000               0.000000000               0.000048315               0.007099139               0.000561847              -0.000869272               0.002656114               0.001786841               0.000000000               0.000000000               0.000000000               0.000000000               0.000012954               0.006826802               0.000529542              -0.000848490               0.002558408               0.001709918               0.000000000               0.000000000               0.000000000               0.000000000              -0.000004321               0.006573041               0.000483948              -0.000823248               0.002465408               0.001642160               0.000000000               0.000000000               0.000000000               0.000000000              -0.000011483               0.006339749               0.000426852              -0.000796773               0.002378820               0.001582047               0.000000000               0.000000000               0.000000000               0.000000000              -0.000016230               0.006127312               0.000359742              -0.000771998               0.002299750               0.001527751               0.000000000               0.000000000               0.000000000               0.000000000              -0.000016114               0.005942670               0.000269909              -0.000748875               0.002230495               0.001481621               0.000000000               0.000000000               0.000000000               0.000000000              -0.000010988               0.005795732               0.000148462              -0.000728585               0.002174753               0.001446168               0.000000000               0.000000000               0.000000000               0.000000000              -0.000011610               0.005722865               0.000081742              -0.000719710               0.002147506               0.001427796               0.000000000               0.000000000               0.000000000               0.000000000               0.002315889               0.014146393              -0.003839455              -0.000899842               0.005015364               0.004115522               0.000000000               0.000000000               0.000000000               0.000000000               0.001260665               0.012011905              -0.002103312              -0.001028737               0.004346840               0.003318103               0.000000000               0.000000000               0.000000000               0.000000000               0.000695803               0.010632673              -0.000420414              -0.001068155               0.003900240               0.002832085               0.000000000               0.000000000               0.000000000               0.000000000               0.000306287               0.009711157               0.000213141              -0.001099034               0.003603365               0.002504330               0.000000000               0.000000000               0.000000000               0.000000000               0.000055469               0.009035697               0.000453539              -0.001108659               0.003381422               0.002272763               0.000000000               0.000000000               0.000000000               0.000000000              -0.000099838               0.008511007               0.000531427              -0.001101312               0.003204078               0.002102766               0.000000000               0.000000000               0.000000000               0.000000000              -0.000186935               0.008082835               0.000540875              -0.001080453               0.003054402               0.001973950               0.000000000               0.000000000               0.000000000               0.000000000              -0.000231596               0.007719653               0.000523413              -0.001051802               0.002923793               0.001871990               0.000000000               0.000000000               0.000000000               0.000000000              -0.000248904               0.007398042               0.000495817              -0.001018092               0.002805353               0.001787261               0.000000000               0.000000000               0.000000000               0.000000000              -0.000238190               0.007105368               0.000467930              -0.000977490               0.002694262               0.001716772               0.000000000               0.000000000               0.000000000               0.000000000              -0.000200503               0.006838891               0.000434548              -0.000930048               0.002589624               0.001659576               0.000000000               0.000000000               0.000000000               0.000000000              -0.000154959               0.006596541               0.000389234              -0.000882675               0.002493050               0.001610375               0.000000000               0.000000000               0.000000000               0.000000000              -0.000113359               0.006384615               0.000332860              -0.000840584               0.002408379               0.001567794               0.000000000               0.000000000               0.000000000               0.000000000              -0.000078087               0.006207586               0.000268820              -0.000805229               0.002337584               0.001532355               0.000000000               0.000000000               0.000000000               0.000000000              -0.000047049               0.006071956               0.000189196              -0.000776636               0.002282844               0.001506208               0.000000000               0.000000000               0.000000000               0.000000000              -0.000019814               0.005988989               0.000095852              -0.000756052               0.002248327               0.001492275               0.000000000               0.000000000               0.000000000               0.000000000              -0.000006090               0.005965127               0.000047326              -0.000747923               0.002237663               0.001489741               0.000000000               0.000000000               0.000000000               0.000000000               0.002261369               0.011936320              -0.003937741              -0.000644029               0.004193409               0.003549380               0.000000000               0.000000000               0.000000000               0.000000000               0.000907548               0.010632046              -0.002242189              -0.000988674               0.003873538               0.002884863               0.000000000               0.000000000               0.000000000               0.000000000               0.000015790               0.009989947              -0.000608925              -0.001242819               0.003744222               0.002501403               0.000000000               0.000000000               0.000000000               0.000000000              -0.000382093               0.009368155              -0.000013890              -0.001314301               0.003560788               0.002246486               0.000000000               0.000000000               0.000000000               0.000000000              -0.000548727               0.008830591               0.000214895              -0.001309593               0.003380032               0.002070439               0.000000000               0.000000000               0.000000000               0.000000000              -0.000604648               0.008368069               0.000296754              -0.001272749               0.003213578               0.001940829               0.000000000               0.000000000               0.000000000               0.000000000              -0.000598118               0.007967949               0.000318352              -0.001220285               0.003062718               0.001842433               0.000000000               0.000000000               0.000000000               0.000000000              -0.000558214               0.007615757               0.000315449              -0.001161297               0.002925659               0.001764362               0.000000000               0.000000000               0.000000000               0.000000000              -0.000497056               0.007300780               0.000299113              -0.001098991               0.002799899               0.001700908               0.000000000               0.000000000               0.000000000               0.000000000              -0.000416980               0.007016289               0.000279327              -0.001033401               0.002683207               0.001649805               0.000000000               0.000000000               0.000000000               0.000000000              -0.000328150               0.006762004               0.000253525              -0.000968304               0.002576747               0.001608443               0.000000000               0.000000000               0.000000000               0.000000000              -0.000241082               0.006538376               0.000218221              -0.000907700               0.002482004               0.001574303               0.000000000               0.000000000               0.000000000               0.000000000              -0.000165695               0.006350522               0.000177887              -0.000855949               0.002402136               0.001546187               0.000000000               0.000000000               0.000000000               0.000000000              -0.000107034               0.006202884               0.000132305              -0.000815496               0.002339439               0.001523943               0.000000000               0.000000000               0.000000000               0.000000000              -0.000059870               0.006094609               0.000080769              -0.000784276               0.002292941               0.001508666               0.000000000               0.000000000               0.000000000               0.000000000              -0.000022643               0.006026387               0.000032359              -0.000761788               0.002262705               0.001500917               0.000000000               0.000000000               0.000000000               0.000000000              -0.000011595               0.005997518               0.000013185              -0.000754036               0.002250498               0.001496462               0.000000000               0.000000000               0.000000000               0.000000000               0.001976538               0.009741993              -0.003716754              -0.000476550               0.003406148               0.002929597               0.000000000               0.000000000               0.000000000               0.000000000               0.000471848               0.009279517              -0.002260961              -0.000982996               0.003420806               0.002437810               0.000000000               0.000000000               0.000000000               0.000000000              -0.000620731               0.009328325              -0.000844961              -0.001398811               0.003575681               0.002176870               0.000000000               0.000000000               0.000000000               0.000000000              -0.000952080               0.008966613              -0.000325788              -0.001477853               0.003481459               0.002003606               0.000000000               0.000000000               0.000000000               0.000000000              -0.001007006               0.008541088              -0.000105872              -0.001445260               0.003328754               0.001883494               0.000000000               0.000000000               0.000000000               0.000000000              -0.000954281               0.008132796              -0.000007332              -0.001374451               0.003169055               0.001794604               0.000000000               0.000000000               0.000000000               0.000000000              -0.000854851               0.007760801               0.000037973              -0.001290666               0.003017130               0.001726464               0.000000000               0.000000000               0.000000000               0.000000000              -0.000737638               0.007423577               0.000058773              -0.001204558               0.002876021               0.001671462               0.000000000               0.000000000               0.000000000               0.000000000              -0.000615462               0.007117412               0.000064543              -0.001120472               0.002745938               0.001625466               0.000000000               0.000000000               0.000000000               0.000000000              -0.000485095               0.006845671               0.000064923              -0.001037617               0.002627740               0.001590123               0.000000000               0.000000000               0.000000000               0.000000000              -0.000358338               0.006609639               0.000060583              -0.000960579               0.002523384               0.001562805               0.000000000               0.000000000               0.000000000               0.000000000              -0.000252175               0.006409194               0.000048324              -0.000895713               0.002434947               0.001539235               0.000000000               0.000000000               0.000000000               0.000000000              -0.000170979               0.006246304               0.000035222              -0.000844903               0.002363715               0.001518812               0.000000000               0.000000000               0.000000000               0.000000000              -0.000111203               0.006114343               0.000022155              -0.000805992               0.002306758               0.001500766               0.000000000               0.000000000               0.000000000               0.000000000              -0.000067441               0.006005339               0.000007054              -0.000775956               0.002260412               0.001484456               0.000000000               0.000000000               0.000000000               0.000000000              -0.000030555               0.005918302              -0.000001624              -0.000751244               0.002223162               0.001471918               0.000000000               0.000000000               0.000000000               0.000000000              -0.000025745               0.005861128               0.000005162              -0.000742293               0.002201121               0.001458827               0.000000000               0.000000000               0.000000000               0.000000000               0.001485036               0.007701102              -0.003255169              -0.000405752               0.002702258               0.002296506               0.000000000               0.000000000               0.000000000               0.000000000              -0.000013440               0.008033865              -0.002196593              -0.001009272               0.003014352               0.002005079               0.000000000               0.000000000               0.000000000               0.000000000              -0.001145752               0.008658906              -0.001120952              -0.001512017               0.003390279               0.001878262               0.000000000               0.000000000               0.000000000               0.000000000              -0.001351915               0.008504960              -0.000677889              -0.001570084               0.003358320               0.001788235               0.000000000               0.000000000               0.000000000               0.000000000              -0.001285287               0.008178439              -0.000448453              -0.001504284               0.003227547               0.001723263               0.000000000               0.000000000               0.000000000               0.000000000              -0.001136189               0.007825083              -0.000318781              -0.001404203               0.003076403               0.001672200               0.000000000               0.000000000               0.000000000               0.000000000              -0.000961050               0.007486839              -0.000241601              -0.001296245               0.002927670               0.001631424               0.000000000               0.000000000               0.000000000               0.000000000              -0.000783802               0.007171392              -0.000189266              -0.001190347               0.002787222               0.001596876               0.000000000               0.000000000               0.000000000               0.000000000              -0.000613256               0.006883612              -0.000151391              -0.001090420               0.002657988               0.001567568               0.000000000               0.000000000               0.000000000               0.000000000              -0.000456201               0.006631600              -0.000119716              -0.001000023               0.002543852               0.001543829               0.000000000               0.000000000               0.000000000               0.000000000              -0.000320317               0.006417240              -0.000093321              -0.000922272               0.002446482               0.001524211               0.000000000               0.000000000               0.000000000               0.000000000              -0.000215959               0.006235828              -0.000072691              -0.000860461               0.002365409               0.001504948               0.000000000               0.000000000               0.000000000               0.000000000              -0.000142908               0.006071383              -0.000052206              -0.000812511               0.002294611               0.001482100               0.000000000               0.000000000               0.000000000               0.000000000              -0.000098483               0.005913005              -0.000033909              -0.000776055               0.002229667               0.001453612               0.000000000               0.000000000               0.000000000               0.000000000              -0.000071448               0.005767923              -0.000018340              -0.000747782               0.002171882               0.001424101               0.000000000               0.000000000               0.000000000               0.000000000              -0.000041730               0.005640072              -0.000004138              -0.000720656               0.002120224               0.001399568               0.000000000               0.000000000               0.000000000               0.000000000              -0.000035556               0.005555527               0.000010587              -0.000707772               0.002087748               0.001379976               0.000000000               0.000000000               0.000000000               0.000000000               0.000874693               0.005966376              -0.002647838              -0.000417789               0.002128034               0.001710245               0.000000000               0.000000000               0.000000000               0.000000000              -0.000472076               0.006920700              -0.002097848              -0.001042115               0.002654248               0.001612133               0.000000000               0.000000000               0.000000000               0.000000000              -0.001520268               0.008003750              -0.001438349              -0.001570566               0.003191412               0.001620846               0.000000000               0.000000000               0.000000000               0.000000000              -0.001593165               0.008060308              -0.001045257              -0.001604972               0.003221733               0.001616761               0.000000000               0.000000000               0.000000000               0.000000000              -0.001431685               0.007850036              -0.000792934              -0.001518133               0.003122697               0.001604564               0.000000000               0.000000000               0.000000000               0.000000000              -0.001214624               0.007566258              -0.000624519              -0.001401263               0.002989149               0.001587885               0.000000000               0.000000000               0.000000000               0.000000000              -0.000986720               0.007272872              -0.000508971              -0.001279126               0.002850642               0.001571516               0.000000000               0.000000000               0.000000000               0.000000000              -0.000765395               0.006988934              -0.000421369              -0.001160637               0.002716500               0.001555864               0.000000000               0.000000000               0.000000000               0.000000000              -0.000560780               0.006726356              -0.000348506              -0.001051084               0.002592458               0.001541373               0.000000000               0.000000000               0.000000000               0.000000000              -0.000385914               0.006494966              -0.000281741              -0.000956586               0.002483829               0.001527243               0.000000000               0.000000000               0.000000000               0.000000000              -0.000245895               0.006299441              -0.000220719              -0.000879639               0.002393006               0.001513367               0.000000000               0.000000000               0.000000000               0.000000000              -0.000152964               0.006108220              -0.000168986              -0.000820887               0.002309682               0.001488795               0.000000000               0.000000000               0.000000000               0.000000000              -0.000112657               0.005900170              -0.000124192              -0.000779766               0.002226626               0.001446860               0.000000000               0.000000000               0.000000000               0.000000000              -0.000104361               0.005698848              -0.000082638              -0.000751490               0.002150094               0.001398604               0.000000000               0.000000000               0.000000000               0.000000000              -0.000112507               0.005512511              -0.000044294              -0.000731252               0.002081236               0.001349984               0.000000000               0.000000000               0.000000000               0.000000000              -0.000124301               0.005336972              -0.000015061              -0.000713733               0.002016884               0.001303151               0.000000000               0.000000000               0.000000000               0.000000000              -0.000129164               0.005238263              -0.000000129              -0.000703218               0.001980476               0.001277259               0.000000000               0.000000000               0.000000000               0.000000000               0.000129610               0.004340111              -0.001990298              -0.000493911               0.001611325               0.001117415               0.000000000               0.000000000               0.000000000               0.000000000              -0.000828816               0.005635120              -0.001980563              -0.001015195               0.002216752               0.001201558               0.000000000               0.000000000               0.000000000               0.000000000              -0.001692091               0.007046613              -0.001779011              -0.001515358               0.002853966               0.001338609               0.000000000               0.000000000               0.000000000               0.000000000              -0.001702160               0.007393732              -0.001447487              -0.001562523               0.002985393               0.001422870               0.000000000               0.000000000               0.000000000               0.000000000              -0.001505504               0.007380735              -0.001174051              -0.001487152               0.002955938               0.001468785               0.000000000               0.000000000               0.000000000               0.000000000              -0.001267918               0.007239757              -0.000964735              -0.001380435               0.002873373               0.001492938               0.000000000               0.000000000               0.000000000               0.000000000              -0.001028516               0.007049545              -0.000807469              -0.001266883               0.002772119               0.001505236               0.000000000               0.000000000               0.000000000               0.000000000              -0.000796593               0.006844464              -0.000684333              -0.001154278               0.002666224               0.001511947               0.000000000               0.000000000               0.000000000               0.000000000              -0.000584523               0.006635016              -0.000576583              -0.001048570               0.002561173               0.001512603               0.000000000               0.000000000               0.000000000               0.000000000              -0.000401168               0.006439016              -0.000475617              -0.000955313               0.002464755               0.001509442               0.000000000               0.000000000               0.000000000               0.000000000              -0.000253848               0.006262184              -0.000383069              -0.000877964               0.002380028               0.001502064               0.000000000               0.000000000               0.000000000               0.000000000              -0.000158125               0.006060237              -0.000297054              -0.000816824               0.002292333               0.001475509               0.000000000               0.000000000               0.000000000               0.000000000              -0.000117211               0.005835186              -0.000216725              -0.000773350               0.002202826               0.001429476               0.000000000               0.000000000               0.000000000               0.000000000              -0.000123341               0.005613341              -0.000143336              -0.000747919               0.002120401               0.001372482               0.000000000               0.000000000               0.000000000               0.000000000              -0.000165689               0.005399217              -0.000076510              -0.000737034               0.002045399               0.001308365               0.000000000               0.000000000               0.000000000               0.000000000              -0.000227766               0.005196013              -0.000026736              -0.000734912               0.001976958               0.001242046               0.000000000               0.000000000               0.000000000               0.000000000              -0.000264183               0.005090375              -0.000005596              -0.000735364               0.001941896               0.001206532               0.000000000               0.000000000               0.000000000               0.000000000              -0.000870465               0.002859084              -0.001321142              -0.000683809               0.001180954               0.000497145               0.000000000               0.000000000               0.000000000               0.000000000              -0.001237561               0.004350797              -0.001797593              -0.001007934               0.001786228               0.000778295               0.000000000               0.000000000               0.000000000               0.000000000              -0.001775158               0.005949927              -0.002042149              -0.001409423               0.002453096               0.001043673               0.000000000               0.000000000               0.000000000               0.000000000              -0.001729528               0.006570966              -0.001827713              -0.001469941               0.002680280               0.001210339               0.000000000               0.000000000               0.000000000               0.000000000              -0.001521972               0.006783027              -0.001560743              -0.001418615               0.002733858               0.001315243               0.000000000               0.000000000               0.000000000               0.000000000              -0.001283817               0.006812994              -0.001326562              -0.001333053               0.002715326               0.001382273               0.000000000               0.000000000               0.000000000               0.000000000              -0.001046169               0.006757948              -0.001136835              -0.001237054               0.002664978               0.001427924               0.000000000               0.000000000               0.000000000               0.000000000              -0.000817030               0.006659837              -0.000979984              -0.001138863               0.002599544               0.001460681               0.000000000               0.000000000               0.000000000               0.000000000              -0.000607501               0.006528370              -0.000841735              -0.001043857               0.002524054               0.001480197               0.000000000               0.000000000               0.000000000               0.000000000              -0.000415925               0.006385795              -0.000717113              -0.000954194               0.002446641               0.001492448               0.000000000               0.000000000               0.000000000               0.000000000              -0.000250043               0.006239147              -0.000601569              -0.000873657               0.002370914               0.001497257               0.000000000               0.000000000               0.000000000               0.000000000              -0.000133872               0.006056825              -0.000488611              -0.000807303               0.002288022               0.001480719               0.000000000               0.000000000               0.000000000               0.000000000              -0.000073693               0.005845417              -0.000374595              -0.000758310               0.002201223               0.001442913               0.000000000               0.000000000               0.000000000               0.000000000              -0.000066836               0.005627605              -0.000261700              -0.000728513               0.002118687               0.001390175               0.000000000               0.000000000               0.000000000               0.000000000              -0.000112594               0.005408593              -0.000155692              -0.000718295               0.002042278               0.001323983               0.000000000               0.000000000               0.000000000               0.000000000              -0.000203406               0.005197080              -0.000067382              -0.000725910               0.001974313               0.001248402               0.000000000               0.000000000               0.000000000               0.000000000              -0.000276057               0.005082411              -0.000022442              -0.000738821               0.001940394               0.001201573               0.000000000               0.000000000               0.000000000               0.000000000              -0.002055700               0.001626796              -0.000685588              -0.000974235               0.000867004              -0.000107231               0.000000000               0.000000000               0.000000000               0.000000000              -0.001750858               0.003138043              -0.001524398              -0.001048825               0.001395611               0.000346786               0.000000000               0.000000000               0.000000000               0.000000000              -0.001818114               0.004726413              -0.002132372              -0.001272592               0.001999652               0.000727060               0.000000000               0.000000000               0.000000000               0.000000000              -0.001656567               0.005543190              -0.002068298              -0.001314109               0.002285747               0.000971638               0.000000000               0.000000000               0.000000000               0.000000000              -0.001427342               0.005963829              -0.001848905              -0.001280729               0.002414832               0.001134103               0.000000000               0.000000000               0.000000000               0.000000000              -0.001188121               0.006174925              -0.001620302              -0.001217409               0.002464090               0.001246681               0.000000000               0.000000000               0.000000000               0.000000000              -0.000962203               0.006272394              -0.001417709              -0.001144873               0.002472401               0.001327528               0.000000000               0.000000000               0.000000000               0.000000000              -0.000749704               0.006302402              -0.001239601              -0.001068937               0.002457092               0.001388155               0.000000000               0.000000000               0.000000000               0.000000000              -0.000547460               0.006279372              -0.001083934              -0.000990217               0.002423175               0.001432958               0.000000000               0.000000000               0.000000000               0.000000000              -0.000353524               0.006217209              -0.000949481              -0.000909721               0.002375622               0.001465902               0.000000000               0.000000000               0.000000000               0.000000000              -0.000177516               0.006124046              -0.000823561              -0.000832072               0.002318686               0.001486613               0.000000000               0.000000000               0.000000000               0.000000000              -0.000041944               0.005984589              -0.000691984              -0.000763801               0.002249443               0.001485642               0.000000000               0.000000000               0.000000000               0.000000000               0.000042859               0.005809014              -0.000553126              -0.000710053               0.002173003               0.001462950               0.000000000               0.000000000               0.000000000               0.000000000               0.000076151               0.005611477              -0.000410572              -0.000672876               0.002094766               0.001421889               0.000000000               0.000000000               0.000000000               0.000000000               0.000055944               0.005407390              -0.000265642              -0.000654943               0.002020760               0.001365816               0.000000000               0.000000000               0.000000000               0.000000000              -0.000024350               0.005204520              -0.000127248              -0.000659695               0.001954721               0.001295026               0.000000000               0.000000000               0.000000000               0.000000000              -0.000104826               0.005085922              -0.000052981              -0.000675048               0.001920306               0.001245258               0.000000000               0.000000000               0.000000000               0.000000000              -0.003339270               0.000702923              -0.000165627              -0.001340090               0.000681000              -0.000659090               0.000000000               0.000000000               0.000000000               0.000000000              -0.002335482               0.002062336              -0.001193707              -0.001133596               0.001065303              -0.000068293               0.000000000               0.000000000               0.000000000               0.000000000              -0.001846733               0.003479438              -0.002026375              -0.001127453               0.001535618               0.000408165               0.000000000               0.000000000               0.000000000               0.000000000              -0.001506442               0.004394332              -0.002105225              -0.001114206               0.001836164               0.000721958               0.000000000               0.000000000               0.000000000               0.000000000              -0.001229377               0.004979837              -0.001961480              -0.001083494               0.002021093               0.000937599               0.000000000               0.000000000               0.000000000               0.000000000              -0.000985242               0.005361517              -0.001766433              -0.001039654               0.002133705               0.001094051               0.000000000               0.000000000               0.000000000               0.000000000              -0.000768934               0.005614363              -0.001572970              -0.000990144               0.002201483               0.001211339               0.000000000               0.000000000               0.000000000               0.000000000              -0.000575202               0.005778762              -0.001396230              -0.000938044               0.002238916               0.001300872               0.000000000               0.000000000               0.000000000               0.000000000              -0.000387092               0.005873975              -0.001243239              -0.000879405               0.002251107               0.001371702               0.000000000               0.000000000               0.000000000               0.000000000              -0.000200353               0.005915274              -0.001109565              -0.000814540               0.002243251               0.001428711               0.000000000               0.000000000               0.000000000               0.000000000              -0.000024600               0.005905068              -0.000982221              -0.000747357               0.002217455               0.001470098               0.000000000               0.000000000               0.000000000               0.000000000               0.000123233               0.005827004              -0.000847169              -0.000682162               0.002169703               0.001487541               0.000000000               0.000000000               0.000000000               0.000000000               0.000236910               0.005702456              -0.000700675              -0.000623964               0.002108788               0.001484823               0.000000000               0.000000000               0.000000000               0.000000000               0.000310068               0.005548571              -0.000545162              -0.000577295               0.002041937               0.001464642               0.000000000               0.000000000               0.000000000               0.000000000               0.000339348               0.005376606              -0.000377671              -0.000544819               0.001973790               0.001428971               0.000000000               0.000000000               0.000000000               0.000000000               0.000310741               0.005193269              -0.000195729              -0.000532630               0.001908616               0.001375986               0.000000000               0.000000000               0.000000000               0.000000000               0.000260345               0.005085979              -0.000096018              -0.000538117               0.001874681               0.001336565               0.000000000               0.000000000               0.000000000               0.000000000              -0.004591562               0.000081796               0.000167438              -0.001732059               0.000604614              -0.001127445               0.000000000               0.000000000               0.000000000               0.000000000              -0.002935732               0.001183201              -0.000849302              -0.001248798               0.000810661              -0.000438137               0.000000000               0.000000000               0.000000000               0.000000000              -0.001876341               0.002325991              -0.001724596              -0.000994375               0.001106780               0.000112405               0.000000000               0.000000000               0.000000000               0.000000000              -0.001316489               0.003251683              -0.001896866              -0.000900143               0.001383930               0.000483787               0.000000000               0.000000000               0.000000000               0.000000000              -0.000963845               0.003947270              -0.001829529              -0.000854850               0.001600693               0.000745843               0.000000000               0.000000000               0.000000000               0.000000000              -0.000706633               0.004467026              -0.001686196              -0.000823365               0.001763448               0.000940083               0.000000000               0.000000000               0.000000000               0.000000000              -0.000498216               0.004854500              -0.001526396              -0.000793642               0.001882697               0.001089055               0.000000000               0.000000000               0.000000000               0.000000000              -0.000314118               0.005142099              -0.001375987              -0.000760556               0.001967534               0.001206979               0.000000000               0.000000000               0.000000000               0.000000000              -0.000141811               0.005352523              -0.001244317              -0.000722243               0.002024904               0.001302661               0.000000000               0.000000000               0.000000000               0.000000000               0.000028835               0.005506406              -0.001125557              -0.000677487               0.002061279               0.001383792               0.000000000               0.000000000               0.000000000               0.000000000               0.000196266               0.005595593              -0.001010363              -0.000625848               0.002073795               0.001447947               0.000000000               0.000000000               0.000000000               0.000000000               0.000350283               0.005598641              -0.000887311              -0.000568473               0.002055686               0.001487213               0.000000000               0.000000000               0.000000000               0.000000000               0.000491951               0.005542958              -0.000751355              -0.000508387               0.002017096               0.001508709               0.000000000               0.000000000               0.000000000               0.000000000               0.000618231               0.005447780              -0.000605793              -0.000449135               0.001965620               0.001516485               0.000000000               0.000000000               0.000000000               0.000000000               0.000724354               0.005319259              -0.000442394              -0.000393274               0.001904160               0.001510886               0.000000000               0.000000000               0.000000000               0.000000000               0.000794513               0.005165962              -0.000242093              -0.000347802               0.001837904               0.001490102               0.000000000               0.000000000               0.000000000               0.000000000               0.000823023               0.005083178              -0.000131001              -0.000326763               0.001803297               0.001476534               0.000000000               0.000000000               0.000000000               0.000000000              -0.005648542              -0.000285092               0.000282695              -0.002082565               0.000599154              -0.001483412               0.000000000               0.000000000               0.000000000               0.000000000              -0.003463880               0.000539172              -0.000526394              -0.001366350               0.000635169              -0.000731181               0.000000000               0.000000000               0.000000000               0.000000000              -0.001909319               0.001389344              -0.001250503              -0.000889661               0.000759662              -0.000129999               0.000000000               0.000000000               0.000000000               0.000000000              -0.001138865               0.002269608              -0.001437076              -0.000710774               0.000993453               0.000282678               0.000000000               0.000000000               0.000000000               0.000000000              -0.000701834               0.003021046              -0.001423670              -0.000640818               0.001220611               0.000579793               0.000000000               0.000000000               0.000000000               0.000000000              -0.000417618               0.003634626              -0.001335692              -0.000610934               0.001415174               0.000804240               0.000000000               0.000000000               0.000000000               0.000000000              -0.000208223               0.004125052              -0.001226149              -0.000593714               0.001572908               0.000979194               0.000000000               0.000000000               0.000000000               0.000000000              -0.000030930               0.004513032              -0.001120172              -0.000575727               0.001696238               0.001120511               0.000000000               0.000000000               0.000000000               0.000000000               0.000129761               0.004819799              -0.001024922              -0.000553813               0.001791188               0.001237374               0.000000000               0.000000000               0.000000000               0.000000000               0.000288123               0.005067821              -0.000937635              -0.000525431               0.001864400               0.001338969               0.000000000               0.000000000               0.000000000               0.000000000               0.000446377               0.005248360              -0.000850571              -0.000488653               0.001912320               0.001423667               0.000000000               0.000000000               0.000000000               0.000000000               0.000601567               0.005337427              -0.000755518              -0.000441590               0.001926321               0.001484731               0.000000000               0.000000000               0.000000000               0.000000000               0.000766778               0.005355257              -0.000649863              -0.000381865               0.001912356               0.001530491               0.000000000               0.000000000               0.000000000               0.000000000               0.000948082               0.005320802              -0.000536876              -0.000309569               0.001876772               0.001567203               0.000000000               0.000000000               0.000000000               0.000000000               0.001139484               0.005243533              -0.000403693              -0.000228135               0.001823872               0.001595737               0.000000000               0.000000000               0.000000000               0.000000000               0.001340110               0.005132171              -0.000225976              -0.000138980               0.001757033               0.001618053               0.000000000               0.000000000               0.000000000               0.000000000               0.001488696               0.005083535              -0.000128963              -0.000077181               0.001720222               0.001643041               0.000000000               0.000000000               0.000000000               0.000000000              -0.006357185              -0.000464424               0.000199447              -0.002325890               0.000620485              -0.001705405               0.000000000               0.000000000               0.000000000               0.000000000              -0.003830342               0.000150609              -0.000247205              -0.001455203               0.000535267              -0.000919936               0.000000000               0.000000000               0.000000000               0.000000000              -0.001938783               0.000779410              -0.000656071              -0.000824469               0.000534622              -0.000289846               0.000000000               0.000000000               0.000000000               0.000000000              -0.001015064               0.001605744              -0.000774837              -0.000581366               0.000729031               0.000147665               0.000000000               0.000000000               0.000000000               0.000000000              -0.000511873               0.002378089              -0.000780410              -0.000489213               0.000955759               0.000466546               0.000000000               0.000000000               0.000000000               0.000000000              -0.000202711               0.003038987              -0.000740354              -0.000455889               0.001164948               0.000709059               0.000000000               0.000000000               0.000000000               0.000000000               0.000016214               0.003588767              -0.000685795              -0.000442515               0.001343749               0.000901234               0.000000000               0.000000000               0.000000000               0.000000000               0.000190700               0.004040662              -0.000631338              -0.000433570               0.001491397               0.001057827               0.000000000               0.000000000               0.000000000               0.000000000               0.000344907               0.004411471              -0.000581831              -0.000422093               0.001611173               0.001189080               0.000000000               0.000000000               0.000000000               0.000000000               0.000495640               0.004724371              -0.000536372              -0.000404681               0.001709668               0.001304987               0.000000000               0.000000000               0.000000000               0.000000000               0.000648699               0.004968484              -0.000489308              -0.000377798               0.001782077               0.001404280               0.000000000               0.000000000               0.000000000               0.000000000               0.000805959               0.005115297              -0.000437573              -0.000337177               0.001817474               0.001480297               0.000000000               0.000000000               0.000000000               0.000000000               0.000986464               0.005185726              -0.000381789              -0.000278291               0.001821322               0.001543031               0.000000000               0.000000000               0.000000000               0.000000000               0.001203453               0.005201745              -0.000318520              -0.000198923               0.001800205               0.001601282               0.000000000               0.000000000               0.000000000               0.000000000               0.001462581               0.005173392              -0.000241425              -0.000098206               0.001757182               0.001658976               0.000000000               0.000000000               0.000000000               0.000000000               0.001777360               0.005100935              -0.000137034               0.000028893               0.001690664               0.001719557               0.000000000               0.000000000               0.000000000               0.000000000               0.002036650               0.005081813              -0.000080520               0.000128516               0.001651082               0.001779598               0.000000000               0.000000000               0.000000000               0.000000000              -0.006606899              -0.000515379              -0.000000000              -0.002413163               0.000632590              -0.001780573               0.000000000               0.000000000               0.000000000               0.000000000              -0.003962046               0.000022506               0.000000000              -0.001488579               0.000503692              -0.000984888               0.000000000               0.000000000               0.000000000               0.000000000              -0.001951195               0.000568883               0.000000000              -0.000802807               0.000457227              -0.000345580               0.000000000               0.000000000               0.000000000               0.000000000              -0.000971152               0.001370651              -0.000000000              -0.000535512               0.000635383               0.000099871               0.000000000               0.000000000               0.000000000               0.000000000              -0.000442813               0.002145036               0.000000000              -0.000434183               0.000859732               0.000425549               0.000000000               0.000000000               0.000000000               0.000000000              -0.000124218               0.002819758              -0.000000000              -0.000399051               0.001072927               0.000673876               0.000000000               0.000000000               0.000000000               0.000000000               0.000099895               0.003390873               0.000000000              -0.000386398               0.001259079               0.000872681               0.000000000               0.000000000               0.000000000               0.000000000               0.000274832               0.003863968              -0.000000000              -0.000379933               0.001414621               0.001034688               0.000000000               0.000000000               0.000000000               0.000000000               0.000427497               0.004256939              -0.000000000              -0.000371805               0.001542901               0.001171095               0.000000000               0.000000000               0.000000000               0.000000000               0.000574339               0.004593793               0.000000000              -0.000358846               0.001650864               0.001292018               0.000000000               0.000000000               0.000000000               0.000000000               0.000725536               0.004860641              -0.000000000              -0.000335503               0.001732032               0.001396529               0.000000000               0.000000000               0.000000000               0.000000000               0.000885589               0.005027885              -0.000000000              -0.000296389               0.001774741               0.001478352               0.000000000               0.000000000               0.000000000               0.000000000               0.001071556               0.005117136              -0.000000000              -0.000237808               0.001784964               0.001547156               0.000000000               0.000000000               0.000000000               0.000000000               0.001298313               0.005152956               0.000000000              -0.000157252               0.001770052               0.001612800               0.000000000               0.000000000               0.000000000               0.000000000               0.001584924               0.005145314              -0.000000000              -0.000048818               0.001731360               0.001682542               0.000000000               0.000000000               0.000000000               0.000000000               0.001944582               0.005088239              -0.000000000               0.000093187               0.001665000               0.001758188               0.000000000               0.000000000               0.000000000               0.000000000               0.002247885               0.005080869               0.000000000               0.000207846               0.001624324               0.001832170               0.000000000               0.000000000               0.000000000               0.000000000               0.000000000               0.000000000               0.000000000               0.000000000               0.000000000               0.000000000               0.000000000               0.000000000               0.000000000               0.000000000               0.000000000               0.000000000               0.000000000               0.000000000               0.000000000               0.000000000               0.000000000               0.000000000               0.000000000               0.000000000               0.000000000               0.000000000               0.000000000               0.000000000               0.000000000               0.000000000               0.000000000               0.000000000               0.000000000               0.000000000               0.000000000               0.000000000               0.000000000               0.000000000               0.000000000               0.000000000               0.000000000               0.000000000               0.000000000               0.000000000               0.000000000               0.000000000               0.000000000               0.000000000               0.000000000               0.000000000               0.000000000               0.000000000               0.000000000               0.000000000               0.000000000               0.000000000               0.000000000               0.000000000               0.000000000               0.000000000               0.000000000               0.000000000               0.000000000               0.000000000               0.000000000               0.000000000               0.000000000               0.000000000               0.000000000               0.000000000               0.000000000               0.000000000               0.000000000               0.000000000               0.000000000               0.000000000               0.000000000               0.000000000               0.000000000               0.000000000               0.000000000               0.000000000               0.000000000               0.000000000               0.000000000               0.000000000               0.000000000               0.000000000               0.000000000               0.000000000               0.000000000               0.000000000               0.000000000               0.000000000               0.000000000               0.000000000               0.000000000               0.000000000               0.000000000               0.000000000               0.000000000               0.000000000               0.000000000               0.000000000               0.000000000               0.000000000               0.000000000               0.000000000               0.000000000               0.000000000               0.000000000               0.000000000               0.000000000               0.000000000               0.000000000               0.000000000               0.000000000               0.000000000               0.000000000               0.000000000               0.000000000               0.000000000               0.000000000               0.000000000               0.000000000               0.000000000               0.000000000               0.000000000               0.000000000               0.000000000               0.000000000               0.000000000               0.000000000               0.000000000               0.000000000               0.000000000               0.000000000               0.000000000               0.000000000               0.000000000               0.000000000               0.000000000               0.000000000               0.000000000               0.000000000               0.000000000               0.000000000               0.000000000               0.000000000               0.000000000               0.000000000               0.000000000               0.000000000               0.000000000               0.000000000               0.000000000               0.000000000               0.000000000               0.000000000               0.000000000               0.000000000               0.000000000               0.000000000               0.000000000               0.000000000               0.000000000               0.000000000               0.000000000               0.000000000               0.000000000               0.000000000               0.000000000               0.000000000               0.000000000               0.001811444               0.018976464               0.001340269              -0.001692763               0.006889679               0.005196916               0.000000000               0.000000000               0.000000000               0.000000000               0.001731835               0.015106435               0.000704843              -0.001238863               0.005448382               0.004209519               0.000000000               0.000000000               0.000000000               0.000000000               0.002207242               0.012028972               0.000072153              -0.000675904               0.004234918               0.003559014               0.000000000               0.000000000               0.000000000               0.000000000               0.002103607               0.010313641              -0.000195605              -0.000500351               0.003604630               0.003104279               0.000000000               0.000000000               0.000000000               0.000000000               0.001831982               0.009253619              -0.000305351              -0.000469708               0.003241078               0.002771370               0.000000000               0.000000000               0.000000000               0.000000000               0.001539368               0.008536229              -0.000341473              -0.000489764               0.003008636               0.002518872               0.000000000               0.000000000               0.000000000               0.000000000               0.001273036               0.008010419              -0.000346104              -0.000523913               0.002844751               0.002320838               0.000000000               0.000000000               0.000000000               0.000000000               0.001038784               0.007595919              -0.000335322              -0.000559944               0.002718596               0.002158651               0.000000000               0.000000000               0.000000000               0.000000000               0.000829876               0.007249254              -0.000320936              -0.000594952               0.002614711               0.002019759               0.000000000               0.000000000               0.000000000               0.000000000               0.000646786               0.006947064              -0.000308694              -0.000625837               0.002524277               0.001898440               0.000000000               0.000000000               0.000000000               0.000000000               0.000487200               0.006672828              -0.000292454              -0.000651402               0.002441388               0.001789986               0.000000000               0.000000000               0.000000000               0.000000000               0.000349348               0.006407847              -0.000267479              -0.000669974               0.002359252               0.001689278               0.000000000               0.000000000               0.000000000               0.000000000               0.000233988               0.006135756              -0.000238039              -0.000679222               0.002271639               0.001592417               0.000000000               0.000000000               0.000000000               0.000000000               0.000137428               0.005848457              -0.000206335              -0.000679520               0.002175973               0.001496453               0.000000000               0.000000000               0.000000000               0.000000000               0.000065366               0.005539992              -0.000160593              -0.000667985               0.002069307               0.001401322               0.000000000               0.000000000               0.000000000               0.000000000               0.000023186               0.005199138              -0.000090492              -0.000641196               0.001946761               0.001305565               0.000000000               0.000000000               0.000000000               0.000000000              -0.000017143               0.004942981              -0.000054216              -0.000624300               0.001855744               0.001231444               0.000000000               0.000000000               0.000000000               0.000000000               0.001991064               0.017871890               0.002507348              -0.001487335               0.006453015               0.004965680               0.000000000               0.000000000               0.000000000               0.000000000               0.001661086               0.014392327               0.001328268              -0.001176131               0.005189438               0.004013307               0.000000000               0.000000000               0.000000000               0.000000000               0.001863007               0.011707687               0.000161217              -0.000764832               0.004157467               0.003392636               0.000000000               0.000000000               0.000000000               0.000000000               0.001660720               0.010194565              -0.000317629              -0.000651549               0.003615337               0.002963788               0.000000000               0.000000000               0.000000000               0.000000000               0.001371449               0.009233849              -0.000509323              -0.000639936               0.003291231               0.002651295               0.000000000               0.000000000               0.000000000               0.000000000               0.001098373               0.008567024              -0.000571945              -0.000658987               0.003075308               0.002416322               0.000000000               0.000000000               0.000000000               0.000000000               0.000866992               0.008065487              -0.000577886              -0.000683062               0.002916156               0.002233094               0.000000000               0.000000000               0.000000000               0.000000000               0.000675793               0.007664320              -0.000559749              -0.000704616               0.002789620               0.002085004               0.000000000               0.000000000               0.000000000               0.000000000               0.000513706               0.007326369              -0.000535066              -0.000723155               0.002683150               0.001959996               0.000000000               0.000000000               0.000000000               0.000000000               0.000377898               0.007028673              -0.000511523              -0.000736871               0.002588491               0.001851620               0.000000000               0.000000000               0.000000000               0.000000000               0.000267728               0.006755596              -0.000484988              -0.000744050               0.002499859               0.001755810               0.000000000               0.000000000               0.000000000               0.000000000               0.000179867               0.006495097              -0.000445897              -0.000744435               0.002413156               0.001668720               0.000000000               0.000000000               0.000000000               0.000000000               0.000113530               0.006240074              -0.000397972              -0.000737434               0.002325815               0.001588381               0.000000000               0.000000000               0.000000000               0.000000000               0.000063237               0.005987240              -0.000342849              -0.000724689               0.002237290               0.001512601               0.000000000               0.000000000               0.000000000               0.000000000               0.000028262               0.005735446              -0.000265447              -0.000706331               0.002147240               0.001440909               0.000000000               0.000000000               0.000000000               0.000000000               0.000009219               0.005487967              -0.000150554              -0.000682537               0.002056816               0.001374279               0.000000000               0.000000000               0.000000000               0.000000000              -0.000012804               0.005321489              -0.000088244              -0.000669986               0.001997141               0.001327155               0.000000000               0.000000000               0.000000000               0.000000000               0.002194209               0.016195826               0.003362740              -0.001201649               0.005799104               0.004597455               0.000000000               0.000000000               0.000000000               0.000000000               0.001511484               0.013313050               0.001803380              -0.001097323               0.004803413               0.003706090               0.000000000               0.000000000               0.000000000               0.000000000               0.001338205               0.011221474               0.000274787              -0.000900855               0.004040739               0.003139884               0.000000000               0.000000000               0.000000000               0.000000000               0.001023708               0.009990206              -0.000327236              -0.000864883               0.003618330               0.002753447               0.000000000               0.000000000               0.000000000               0.000000000               0.000733710               0.009165998              -0.000560632              -0.000870606               0.003345504               0.002474898               0.000000000               0.000000000               0.000000000               0.000000000               0.000505264               0.008568922              -0.000635152              -0.000881639               0.003150158               0.002268519               0.000000000               0.000000000               0.000000000               0.000000000               0.000334336               0.008104512              -0.000641122              -0.000887686               0.002997372               0.002109686               0.000000000               0.000000000               0.000000000               0.000000000               0.000208124               0.007724438              -0.000619454              -0.000887506               0.002870622               0.001983116               0.000000000               0.000000000               0.000000000               0.000000000               0.000112967               0.007394470              -0.000590106              -0.000881944               0.002758780               0.001876836               0.000000000               0.000000000               0.000000000               0.000000000               0.000048315               0.007099139              -0.000561847              -0.000869272               0.002656114               0.001786841               0.000000000               0.000000000               0.000000000               0.000000000               0.000012954               0.006826802              -0.000529542              -0.000848490               0.002558408               0.001709918               0.000000000               0.000000000               0.000000000               0.000000000              -0.000004321               0.006573041              -0.000483948              -0.000823248               0.002465408               0.001642160               0.000000000               0.000000000               0.000000000               0.000000000              -0.000011483               0.006339749              -0.000426852              -0.000796773               0.002378820               0.001582047               0.000000000               0.000000000               0.000000000               0.000000000              -0.000016230               0.006127312              -0.000359742              -0.000771998               0.002299750               0.001527751               0.000000000               0.000000000               0.000000000               0.000000000              -0.000016114               0.005942670              -0.000269909              -0.000748875               0.002230495               0.001481621               0.000000000               0.000000000               0.000000000               0.000000000              -0.000010988               0.005795732              -0.000148462              -0.000728585               0.002174753               0.001446168               0.000000000               0.000000000               0.000000000               0.000000000              -0.000011610               0.005722865              -0.000081742              -0.000719710               0.002147506               0.001427796               0.000000000               0.000000000               0.000000000               0.000000000               0.002315889               0.014146393               0.003839455              -0.000899842               0.005015364               0.004115522               0.000000000               0.000000000               0.000000000               0.000000000               0.001260665               0.012011905               0.002103312              -0.001028737               0.004346840               0.003318103               0.000000000               0.000000000               0.000000000               0.000000000               0.000695803               0.010632673               0.000420414              -0.001068155               0.003900240               0.002832085               0.000000000               0.000000000               0.000000000               0.000000000               0.000306287               0.009711157              -0.000213141              -0.001099034               0.003603365               0.002504330               0.000000000               0.000000000               0.000000000               0.000000000               0.000055469               0.009035697              -0.000453539              -0.001108659               0.003381422               0.002272763               0.000000000               0.000000000               0.000000000               0.000000000              -0.000099838               0.008511007              -0.000531427              -0.001101312               0.003204078               0.002102766               0.000000000               0.000000000               0.000000000               0.000000000              -0.000186935               0.008082835              -0.000540875              -0.001080453               0.003054402               0.001973950               0.000000000               0.000000000               0.000000000               0.000000000              -0.000231596               0.007719653              -0.000523413              -0.001051802               0.002923793               0.001871990               0.000000000               0.000000000               0.000000000               0.000000000              -0.000248904               0.007398042              -0.000495817              -0.001018092               0.002805353               0.001787261               0.000000000               0.000000000               0.000000000               0.000000000              -0.000238190               0.007105368              -0.000467930              -0.000977490               0.002694262               0.001716772               0.000000000               0.000000000               0.000000000               0.000000000              -0.000200503               0.006838891              -0.000434548              -0.000930048               0.002589624               0.001659576               0.000000000               0.000000000               0.000000000               0.000000000              -0.000154959               0.006596541              -0.000389234              -0.000882675               0.002493050               0.001610375               0.000000000               0.000000000               0.000000000               0.000000000              -0.000113359               0.006384615              -0.000332860              -0.000840584               0.002408379               0.001567794               0.000000000               0.000000000               0.000000000               0.000000000              -0.000078087               0.006207586              -0.000268820              -0.000805229               0.002337584               0.001532355               0.000000000               0.000000000               0.000000000               0.000000000              -0.000047049               0.006071956              -0.000189196              -0.000776636               0.002282844               0.001506208               0.000000000               0.000000000               0.000000000               0.000000000              -0.000019814               0.005988989              -0.000095852              -0.000756052               0.002248327               0.001492275               0.000000000               0.000000000               0.000000000               0.000000000              -0.000006090               0.005965127              -0.000047326              -0.000747923               0.002237663               0.001489741               0.000000000               0.000000000               0.000000000               0.000000000               0.002261369               0.011936320               0.003937741              -0.000644029               0.004193409               0.003549380               0.000000000               0.000000000               0.000000000               0.000000000               0.000907548               0.010632046               0.002242189              -0.000988674               0.003873538               0.002884863               0.000000000               0.000000000               0.000000000               0.000000000               0.000015790               0.009989947               0.000608925              -0.001242819               0.003744222               0.002501403               0.000000000               0.000000000               0.000000000               0.000000000              -0.000382093               0.009368155               0.000013890              -0.001314301               0.003560788               0.002246486               0.000000000               0.000000000               0.000000000               0.000000000              -0.000548727               0.008830591              -0.000214895              -0.001309593               0.003380032               0.002070439               0.000000000               0.000000000               0.000000000               0.000000000              -0.000604648               0.008368069              -0.000296754              -0.001272749               0.003213578               0.001940829               0.000000000               0.000000000               0.000000000               0.000000000              -0.000598118               0.007967949              -0.000318352              -0.001220285               0.003062718               0.001842433               0.000000000               0.000000000               0.000000000               0.000000000              -0.000558214               0.007615757              -0.000315449              -0.001161297               0.002925659               0.001764362               0.000000000               0.000000000               0.000000000               0.000000000              -0.000497056               0.007300780              -0.000299113              -0.001098991               0.002799899               0.001700908               0.000000000               0.000000000               0.000000000               0.000000000              -0.000416980               0.007016289              -0.000279327              -0.001033401               0.002683207               0.001649805               0.000000000               0.000000000               0.000000000               0.000000000              -0.000328150               0.006762004              -0.000253525              -0.000968304               0.002576747               0.001608443               0.000000000               0.000000000               0.000000000               0.000000000              -0.000241082               0.006538376              -0.000218221              -0.000907700               0.002482004               0.001574303               0.000000000               0.000000000               0.000000000               0.000000000              -0.000165695               0.006350522              -0.000177887              -0.000855949               0.002402136               0.001546187               0.000000000               0.000000000               0.000000000               0.000000000              -0.000107034               0.006202884              -0.000132305              -0.000815496               0.002339439               0.001523943               0.000000000               0.000000000               0.000000000               0.000000000              -0.000059870               0.006094609              -0.000080769              -0.000784276               0.002292941               0.001508666               0.000000000               0.000000000               0.000000000               0.000000000              -0.000022643               0.006026387              -0.000032359              -0.000761788               0.002262705               0.001500917               0.000000000               0.000000000               0.000000000               0.000000000              -0.000011595               0.005997518              -0.000013185              -0.000754036               0.002250498               0.001496462               0.000000000               0.000000000               0.000000000               0.000000000               0.001976538               0.009741993               0.003716754              -0.000476550               0.003406148               0.002929597               0.000000000               0.000000000               0.000000000               0.000000000               0.000471848               0.009279517               0.002260961              -0.000982996               0.003420806               0.002437810               0.000000000               0.000000000               0.000000000               0.000000000              -0.000620731               0.009328325               0.000844961              -0.001398811               0.003575681               0.002176870               0.000000000               0.000000000               0.000000000               0.000000000              -0.000952080               0.008966613               0.000325788              -0.001477853               0.003481459               0.002003606               0.000000000               0.000000000               0.000000000               0.000000000              -0.001007006               0.008541088               0.000105872              -0.001445260               0.003328754               0.001883494               0.000000000               0.000000000               0.000000000               0.000000000              -0.000954281               0.008132796               0.000007332              -0.001374451               0.003169055               0.001794604               0.000000000               0.000000000               0.000000000               0.000000000              -0.000854851               0.007760801              -0.000037973              -0.001290666               0.003017130               0.001726464               0.000000000               0.000000000               0.000000000               0.000000000              -0.000737638               0.007423577              -0.000058773              -0.001204558               0.002876021               0.001671462               0.000000000               0.000000000               0.000000000               0.000000000              -0.000615462               0.007117412              -0.000064543              -0.001120472               0.002745938               0.001625466               0.000000000               0.000000000               0.000000000               0.000000000              -0.000485095               0.006845671              -0.000064923              -0.001037617               0.002627740               0.001590123               0.000000000               0.000000000               0.000000000               0.000000000              -0.000358338               0.006609639              -0.000060583              -0.000960579               0.002523384               0.001562805               0.000000000               0.000000000               0.000000000               0.000000000              -0.000252175               0.006409194              -0.000048324              -0.000895713               0.002434947               0.001539235               0.000000000               0.000000000               0.000000000               0.000000000              -0.000170979               0.006246304              -0.000035222              -0.000844903               0.002363715               0.001518812               0.000000000               0.000000000               0.000000000               0.000000000              -0.000111203               0.006114343              -0.000022155              -0.000805992               0.002306758               0.001500766               0.000000000               0.000000000               0.000000000               0.000000000              -0.000067441               0.006005339              -0.000007054              -0.000775956               0.002260412               0.001484456               0.000000000               0.000000000               0.000000000               0.000000000              -0.000030555               0.005918302               0.000001624              -0.000751244               0.002223162               0.001471918               0.000000000               0.000000000               0.000000000               0.000000000              -0.000025745               0.005861128              -0.000005162              -0.000742293               0.002201121               0.001458827               0.000000000               0.000000000               0.000000000               0.000000000               0.001485036               0.007701102               0.003255169              -0.000405752               0.002702258               0.002296506               0.000000000               0.000000000               0.000000000               0.000000000              -0.000013440               0.008033865               0.002196593              -0.001009272               0.003014352               0.002005079               0.000000000               0.000000000               0.000000000               0.000000000              -0.001145752               0.008658906               0.001120952              -0.001512017               0.003390279               0.001878262               0.000000000               0.000000000               0.000000000               0.000000000              -0.001351915               0.008504960               0.000677889              -0.001570084               0.003358320               0.001788235               0.000000000               0.000000000               0.000000000               0.000000000              -0.001285287               0.008178439               0.000448453              -0.001504284               0.003227547               0.001723263               0.000000000               0.000000000               0.000000000               0.000000000              -0.001136189               0.007825083               0.000318781              -0.001404203               0.003076403               0.001672200               0.000000000               0.000000000               0.000000000               0.000000000              -0.000961050               0.007486839               0.000241601              -0.001296245               0.002927670               0.001631424               0.000000000               0.000000000               0.000000000               0.000000000              -0.000783802               0.007171392               0.000189266              -0.001190347               0.002787222               0.001596876               0.000000000               0.000000000               0.000000000               0.000000000              -0.000613256               0.006883612               0.000151391              -0.001090420               0.002657988               0.001567568               0.000000000               0.000000000               0.000000000               0.000000000              -0.000456201               0.006631600               0.000119716              -0.001000023               0.002543852               0.001543829               0.000000000               0.000000000               0.000000000               0.000000000              -0.000320317               0.006417240               0.000093321              -0.000922272               0.002446482               0.001524211               0.000000000               0.000000000               0.000000000               0.000000000              -0.000215959               0.006235828               0.000072691              -0.000860461               0.002365409               0.001504948               0.000000000               0.000000000               0.000000000               0.000000000              -0.000142908               0.006071383               0.000052206              -0.000812511               0.002294611               0.001482100               0.000000000               0.000000000               0.000000000               0.000000000              -0.000098483               0.005913005               0.000033909              -0.000776055               0.002229667               0.001453612               0.000000000               0.000000000               0.000000000               0.000000000              -0.000071448               0.005767923               0.000018340              -0.000747782               0.002171882               0.001424101               0.000000000               0.000000000               0.000000000               0.000000000              -0.000041730               0.005640072               0.000004138              -0.000720656               0.002120224               0.001399568               0.000000000               0.000000000               0.000000000               0.000000000              -0.000035556               0.005555527              -0.000010587              -0.000707772               0.002087748               0.001379976               0.000000000               0.000000000               0.000000000               0.000000000               0.000874693               0.005966376               0.002647838              -0.000417789               0.002128034               0.001710245               0.000000000               0.000000000               0.000000000               0.000000000              -0.000472076               0.006920700               0.002097848              -0.001042115               0.002654248               0.001612133               0.000000000               0.000000000               0.000000000               0.000000000              -0.001520268               0.008003750               0.001438349              -0.001570566               0.003191412               0.001620846               0.000000000               0.000000000               0.000000000               0.000000000              -0.001593165               0.008060308               0.001045257              -0.001604972               0.003221733               0.001616761               0.000000000               0.000000000               0.000000000               0.000000000              -0.001431685               0.007850036               0.000792934              -0.001518133               0.003122697               0.001604564               0.000000000               0.000000000               0.000000000               0.000000000              -0.001214624               0.007566258               0.000624519              -0.001401263               0.002989149               0.001587885               0.000000000               0.000000000               0.000000000               0.000000000              -0.000986720               0.007272872               0.000508971              -0.001279126               0.002850642               0.001571516               0.000000000               0.000000000               0.000000000               0.000000000              -0.000765395               0.006988934               0.000421369              -0.001160637               0.002716500               0.001555864               0.000000000               0.000000000               0.000000000               0.000000000              -0.000560780               0.006726356               0.000348506              -0.001051084               0.002592458               0.001541373               0.000000000               0.000000000               0.000000000               0.000000000              -0.000385914               0.006494966               0.000281741              -0.000956586               0.002483829               0.001527243               0.000000000               0.000000000               0.000000000               0.000000000              -0.000245895               0.006299441               0.000220719              -0.000879639               0.002393006               0.001513367               0.000000000               0.000000000               0.000000000               0.000000000              -0.000152964               0.006108220               0.000168986              -0.000820887               0.002309682               0.001488795               0.000000000               0.000000000               0.000000000               0.000000000              -0.000112657               0.005900170               0.000124192              -0.000779766               0.002226626               0.001446860               0.000000000               0.000000000               0.000000000               0.000000000              -0.000104361               0.005698848               0.000082638              -0.000751490               0.002150094               0.001398604               0.000000000               0.000000000               0.000000000               0.000000000              -0.000112507               0.005512511               0.000044294              -0.000731252               0.002081236               0.001349984               0.000000000               0.000000000               0.000000000               0.000000000              -0.000124301               0.005336972               0.000015061              -0.000713733               0.002016884               0.001303151               0.000000000               0.000000000               0.000000000               0.000000000              -0.000129164               0.005238263               0.000000129              -0.000703218               0.001980476               0.001277259               0.000000000               0.000000000               0.000000000               0.000000000               0.000129610               0.004340111               0.001990298              -0.000493911               0.001611325               0.001117415               0.000000000               0.000000000               0.000000000               0.000000000              -0.000828816               0.005635120               0.001980563              -0.001015195               0.002216752               0.001201558               0.000000000               0.000000000               0.000000000               0.000000000              -0.001692091               0.007046613               0.001779011              -0.001515358               0.002853966               0.001338609               0.000000000               0.000000000               0.000000000               0.000000000              -0.001702160               0.007393732               0.001447487              -0.001562523               0.002985393               0.001422870               0.000000000               0.000000000               0.000000000               0.000000000              -0.001505504               0.007380735               0.001174051              -0.001487152               0.002955938               0.001468785               0.000000000               0.000000000               0.000000000               0.000000000              -0.001267918               0.007239757               0.000964735              -0.001380435               0.002873373               0.001492938               0.000000000               0.000000000               0.000000000               0.000000000              -0.001028516               0.007049545               0.000807469              -0.001266883               0.002772119               0.001505236               0.000000000               0.000000000               0.000000000               0.000000000              -0.000796593               0.006844464               0.000684333              -0.001154278               0.002666224               0.001511947               0.000000000               0.000000000               0.000000000               0.000000000              -0.000584523               0.006635016               0.000576583              -0.001048570               0.002561173               0.001512603               0.000000000               0.000000000               0.000000000               0.000000000              -0.000401168               0.006439016               0.000475617              -0.000955313               0.002464755               0.001509442               0.000000000               0.000000000               0.000000000               0.000000000              -0.000253848               0.006262184               0.000383069              -0.000877964               0.002380028               0.001502064               0.000000000               0.000000000               0.000000000               0.000000000              -0.000158125               0.006060237               0.000297054              -0.000816824               0.002292333               0.001475509               0.000000000               0.000000000               0.000000000               0.000000000              -0.000117211               0.005835186               0.000216725              -0.000773350               0.002202826               0.001429476               0.000000000               0.000000000               0.000000000               0.000000000              -0.000123341               0.005613341               0.000143336              -0.000747919               0.002120401               0.001372482               0.000000000               0.000000000               0.000000000               0.000000000              -0.000165689               0.005399217               0.000076510              -0.000737034               0.002045399               0.001308365               0.000000000               0.000000000               0.000000000               0.000000000              -0.000227766               0.005196013               0.000026736              -0.000734912               0.001976958               0.001242046               0.000000000               0.000000000               0.000000000               0.000000000              -0.000264183               0.005090375               0.000005596              -0.000735364               0.001941896               0.001206532               0.000000000               0.000000000               0.000000000               0.000000000              -0.000870465               0.002859084               0.001321142              -0.000683809               0.001180954               0.000497145               0.000000000               0.000000000               0.000000000               0.000000000              -0.001237561               0.004350797               0.001797593              -0.001007934               0.001786228               0.000778295               0.000000000               0.000000000               0.000000000               0.000000000              -0.001775158               0.005949927               0.002042149              -0.001409423               0.002453096               0.001043673               0.000000000               0.000000000               0.000000000               0.000000000              -0.001729528               0.006570966               0.001827713              -0.001469941               0.002680280               0.001210339               0.000000000               0.000000000               0.000000000               0.000000000              -0.001521972               0.006783027               0.001560743              -0.001418615               0.002733858               0.001315243               0.000000000               0.000000000               0.000000000               0.000000000              -0.001283817               0.006812994               0.001326562              -0.001333053               0.002715326               0.001382273               0.000000000               0.000000000               0.000000000               0.000000000              -0.001046169               0.006757948               0.001136835              -0.001237054               0.002664978               0.001427924               0.000000000               0.000000000               0.000000000               0.000000000              -0.000817030               0.006659837               0.000979984              -0.001138863               0.002599544               0.001460681               0.000000000               0.000000000               0.000000000               0.000000000              -0.000607501               0.006528370               0.000841735              -0.001043857               0.002524054               0.001480197               0.000000000               0.000000000               0.000000000               0.000000000              -0.000415925               0.006385795               0.000717113              -0.000954194               0.002446641               0.001492448               0.000000000               0.000000000               0.000000000               0.000000000              -0.000250043               0.006239147               0.000601569              -0.000873657               0.002370914               0.001497257               0.000000000               0.000000000               0.000000000               0.000000000              -0.000133872               0.006056825               0.000488611              -0.000807303               0.002288022               0.001480719               0.000000000               0.000000000               0.000000000               0.000000000              -0.000073693               0.005845417               0.000374595              -0.000758310               0.002201223               0.001442913               0.000000000               0.000000000               0.000000000               0.000000000              -0.000066836               0.005627605               0.000261700              -0.000728513               0.002118687               0.001390175               0.000000000               0.000000000               0.000000000               0.000000000              -0.000112594               0.005408593               0.000155692              -0.000718295               0.002042278               0.001323983               0.000000000               0.000000000               0.000000000               0.000000000              -0.000203406               0.005197080               0.000067382              -0.000725910               0.001974313               0.001248402               0.000000000               0.000000000               0.000000000               0.000000000              -0.000276057               0.005082411               0.000022442              -0.000738821               0.001940394               0.001201573               0.000000000               0.000000000               0.000000000               0.000000000              -0.002055700               0.001626796               0.000685588              -0.000974235               0.000867004              -0.000107231               0.000000000               0.000000000               0.000000000               0.000000000              -0.001750858               0.003138043               0.001524398              -0.001048825               0.001395611               0.000346786               0.000000000               0.000000000               0.000000000               0.000000000              -0.001818114               0.004726413               0.002132372              -0.001272592               0.001999652               0.000727060               0.000000000               0.000000000               0.000000000               0.000000000              -0.001656567               0.005543190               0.002068298              -0.001314109               0.002285747               0.000971638               0.000000000               0.000000000               0.000000000               0.000000000              -0.001427342               0.005963829               0.001848905              -0.001280729               0.002414832               0.001134103               0.000000000               0.000000000               0.000000000               0.000000000              -0.001188121               0.006174925               0.001620302              -0.001217409               0.002464090               0.001246681               0.000000000               0.000000000               0.000000000               0.000000000              -0.000962203               0.006272394               0.001417709              -0.001144873               0.002472401               0.001327528               0.000000000               0.000000000               0.000000000               0.000000000              -0.000749704               0.006302402               0.001239601              -0.001068937               0.002457092               0.001388155               0.000000000               0.000000000               0.000000000               0.000000000              -0.000547460               0.006279372               0.001083934              -0.000990217               0.002423175               0.001432958               0.000000000               0.000000000               0.000000000               0.000000000              -0.000353524               0.006217209               0.000949481              -0.000909721               0.002375622               0.001465902               0.000000000               0.000000000               0.000000000               0.000000000              -0.000177516               0.006124046               0.000823561              -0.000832072               0.002318686               0.001486613               0.000000000               0.000000000               0.000000000               0.000000000              -0.000041944               0.005984589               0.000691984              -0.000763801               0.002249443               0.001485642               0.000000000               0.000000000               0.000000000               0.000000000               0.000042859               0.005809014               0.000553126              -0.000710053               0.002173003               0.001462950               0.000000000               0.000000000               0.000000000               0.000000000               0.000076151               0.005611477               0.000410572              -0.000672876               0.002094766               0.001421889               0.000000000               0.000000000               0.000000000               0.000000000               0.000055944               0.005407390               0.000265642              -0.000654943               0.002020760               0.001365816               0.000000000               0.000000000               0.000000000               0.000000000              -0.000024350               0.005204520               0.000127248              -0.000659695               0.001954721               0.001295026               0.000000000               0.000000000               0.000000000               0.000000000              -0.000104826               0.005085922               0.000052981              -0.000675048               0.001920306               0.001245258               0.000000000               0.000000000               0.000000000               0.000000000              -0.003339270               0.000702923               0.000165627              -0.001340090               0.000681000              -0.000659090               0.000000000               0.000000000               0.000000000               0.000000000              -0.002335482               0.002062336               0.001193707              -0.001133596               0.001065303              -0.000068293               0.000000000               0.000000000               0.000000000               0.000000000              -0.001846733               0.003479438               0.002026375              -0.001127453               0.001535618               0.000408165               0.000000000               0.000000000               0.000000000               0.000000000              -0.001506442               0.004394332               0.002105225              -0.001114206               0.001836164               0.000721958               0.000000000               0.000000000               0.000000000               0.000000000              -0.001229377               0.004979837               0.001961480              -0.001083494               0.002021093               0.000937599               0.000000000               0.000000000               0.000000000               0.000000000              -0.000985242               0.005361517               0.001766433              -0.001039654               0.002133705               0.001094051               0.000000000               0.000000000               0.000000000               0.000000000              -0.000768934               0.005614363               0.001572970              -0.000990144               0.002201483               0.001211339               0.000000000               0.000000000               0.000000000               0.000000000              -0.000575202               0.005778762               0.001396230              -0.000938044               0.002238916               0.001300872               0.000000000               0.000000000               0.000000000               0.000000000              -0.000387092               0.005873975               0.001243239              -0.000879405               0.002251107               0.001371702               0.000000000               0.000000000               0.000000000               0.000000000              -0.000200353               0.005915274               0.001109565              -0.000814540               0.002243251               0.001428711               0.000000000               0.000000000               0.000000000               0.000000000              -0.000024600               0.005905068               0.000982221              -0.000747357               0.002217455               0.001470098               0.000000000               0.000000000               0.000000000               0.000000000               0.000123233               0.005827004               0.000847169              -0.000682162               0.002169703               0.001487541               0.000000000               0.000000000               0.000000000               0.000000000               0.000236910               0.005702456               0.000700675              -0.000623964               0.002108788               0.001484823               0.000000000               0.000000000               0.000000000               0.000000000               0.000310068               0.005548571               0.000545162              -0.000577295               0.002041937               0.001464642               0.000000000               0.000000000               0.000000000               0.000000000               0.000339348               0.005376606               0.000377671              -0.000544819               0.001973790               0.001428971               0.000000000               0.000000000               0.000000000               0.000000000               0.000310741               0.005193269               0.000195729              -0.000532630               0.001908616               0.001375986               0.000000000               0.000000000               0.000000000               0.000000000               0.000260345               0.005085979               0.000096018              -0.000538117               0.001874681               0.001336565               0.000000000               0.000000000               0.000000000               0.000000000              -0.004591562               0.000081796              -0.000167438              -0.001732059               0.000604614              -0.001127445               0.000000000               0.000000000               0.000000000               0.000000000              -0.002935732               0.001183201               0.000849302              -0.001248798               0.000810661              -0.000438137               0.000000000               0.000000000               0.000000000               0.000000000              -0.001876341               0.002325991               0.001724596              -0.000994375               0.001106780               0.000112405               0.000000000               0.000000000               0.000000000               0.000000000              -0.001316489               0.003251683               0.001896866              -0.000900143               0.001383930               0.000483787               0.000000000               0.000000000               0.000000000               0.000000000              -0.000963845               0.003947270               0.001829529              -0.000854850               0.001600693               0.000745843               0.000000000               0.000000000               0.000000000               0.000000000              -0.000706633               0.004467026               0.001686196              -0.000823365               0.001763448               0.000940083               0.000000000               0.000000000               0.000000000               0.000000000              -0.000498216               0.004854500               0.001526396              -0.000793642               0.001882697               0.001089055               0.000000000               0.000000000               0.000000000               0.000000000              -0.000314118               0.005142099               0.001375987              -0.000760556               0.001967534               0.001206979               0.000000000               0.000000000               0.000000000               0.000000000              -0.000141811               0.005352523               0.001244317              -0.000722243               0.002024904               0.001302661               0.000000000               0.000000000               0.000000000               0.000000000               0.000028835               0.005506406               0.001125557              -0.000677487               0.002061279               0.001383792               0.000000000               0.000000000               0.000000000               0.000000000               0.000196266               0.005595593               0.001010363              -0.000625848               0.002073795               0.001447947               0.000000000               0.000000000               0.000000000               0.000000000               0.000350283               0.005598641               0.000887311              -0.000568473               0.002055686               0.001487213               0.000000000               0.000000000               0.000000000               0.000000000               0.000491951               0.005542958               0.000751355              -0.000508387               0.002017096               0.001508709               0.000000000               0.000000000               0.000000000               0.000000000               0.000618231               0.005447780               0.000605793              -0.000449135               0.001965620               0.001516485               0.000000000               0.000000000               0.000000000               0.000000000               0.000724354               0.005319259               0.000442394              -0.000393274               0.001904160               0.001510886               0.000000000               0.000000000               0.000000000               0.000000000               0.000794513               0.005165962               0.000242093              -0.000347802               0.001837904               0.001490102               0.000000000               0.000000000               0.000000000               0.000000000               0.000823023               0.005083178               0.000131001              -0.000326763               0.001803297               0.001476534               0.000000000               0.000000000               0.000000000               0.000000000              -0.005648542              -0.000285092              -0.000282695              -0.002082565               0.000599154              -0.001483412               0.000000000               0.000000000               0.000000000               0.000000000              -0.003463880               0.000539172               0.000526394              -0.001366350               0.000635169              -0.000731181               0.000000000               0.000000000               0.000000000               0.000000000              -0.001909319               0.001389344               0.001250503              -0.000889661               0.000759662              -0.000129999               0.000000000               0.000000000               0.000000000               0.000000000              -0.001138865               0.002269608               0.001437076              -0.000710774               0.000993453               0.000282678               0.000000000               0.000000000               0.000000000               0.000000000              -0.000701834               0.003021046               0.001423670              -0.000640818               0.001220611               0.000579793               0.000000000               0.000000000               0.000000000               0.000000000              -0.000417618               0.003634626               0.001335692              -0.000610934               0.001415174               0.000804240               0.000000000               0.000000000               0.000000000               0.000000000              -0.000208223               0.004125052               0.001226149              -0.000593714               0.001572908               0.000979194               0.000000000               0.000000000               0.000000000               0.000000000              -0.000030930               0.004513032               0.001120172              -0.000575727               0.001696238               0.001120511               0.000000000               0.000000000               0.000000000               0.000000000               0.000129761               0.004819799               0.001024922              -0.000553813               0.001791188               0.001237374               0.000000000               0.000000000               0.000000000               0.000000000               0.000288123               0.005067821               0.000937635              -0.000525431               0.001864400               0.001338969               0.000000000               0.000000000               0.000000000               0.000000000               0.000446377               0.005248360               0.000850571              -0.000488653               0.001912320               0.001423667               0.000000000               0.000000000               0.000000000               0.000000000               0.000601567               0.005337427               0.000755518              -0.000441590               0.001926321               0.001484731               0.000000000               0.000000000               0.000000000               0.000000000               0.000766778               0.005355257               0.000649863              -0.000381865               0.001912356               0.001530491               0.000000000               0.000000000               0.000000000               0.000000000               0.000948082               0.005320802               0.000536876              -0.000309569               0.001876772               0.001567203               0.000000000               0.000000000               0.000000000               0.000000000               0.001139484               0.005243533               0.000403693              -0.000228135               0.001823872               0.001595737               0.000000000               0.000000000               0.000000000               0.000000000               0.001340110               0.005132171               0.000225976              -0.000138980               0.001757033               0.001618053               0.000000000               0.000000000               0.000000000               0.000000000               0.001488696               0.005083535               0.000128963              -0.000077181               0.001720222               0.001643041               0.000000000               0.000000000               0.000000000               0.000000000              -0.006357185              -0.000464424              -0.000199447              -0.002325890               0.000620485              -0.001705405               0.000000000               0.000000000               0.000000000               0.000000000              -0.003830342               0.000150609               0.000247205              -0.001455203               0.000535267              -0.000919936               0.000000000               0.000000000               0.000000000               0.000000000              -0.001938783               0.000779410               0.000656071              -0.000824469               0.000534622              -0.000289846               0.000000000               0.000000000               0.000000000               0.000000000              -0.001015064               0.001605744               0.000774837              -0.000581366               0.000729031               0.000147665               0.000000000               0.000000000               0.000000000               0.000000000              -0.000511873               0.002378089               0.000780410              -0.000489213               0.000955759               0.000466546               0.000000000               0.000000000               0.000000000               0.000000000              -0.000202711               0.003038987               0.000740354              -0.000455889               0.001164948               0.000709059               0.000000000               0.000000000               0.000000000               0.000000000               0.000016214               0.003588767               0.000685795              -0.000442515               0.001343749               0.000901234               0.000000000               0.000000000               0.000000000               0.000000000               0.000190700               0.004040662               0.000631338              -0.000433570               0.001491397               0.001057827               0.000000000               0.000000000               0.000000000               0.000000000               0.000344907               0.004411471               0.000581831              -0.000422093               0.001611173               0.001189080               0.000000000               0.000000000               0.000000000               0.000000000               0.000495640               0.004724371               0.000536372              -0.000404681               0.001709668               0.001304987               0.000000000               0.000000000               0.000000000               0.000000000               0.000648699               0.004968484               0.000489308              -0.000377798               0.001782077               0.001404280               0.000000000               0.000000000               0.000000000               0.000000000               0.000805959               0.005115297               0.000437573              -0.000337177               0.001817474               0.001480297               0.000000000               0.000000000               0.000000000               0.000000000               0.000986464               0.005185726               0.000381789              -0.000278291               0.001821322               0.001543031               0.000000000               0.000000000               0.000000000               0.000000000               0.001203453               0.005201745               0.000318520              -0.000198923               0.001800205               0.001601282               0.000000000               0.000000000               0.000000000               0.000000000               0.001462581               0.005173392               0.000241425              -0.000098206               0.001757182               0.001658976               0.000000000               0.000000000               0.000000000               0.000000000               0.001777360               0.005100935               0.000137034               0.000028893               0.001690664               0.001719557               0.000000000               0.000000000               0.000000000               0.000000000               0.002036650               0.005081813               0.000080520               0.000128516               0.001651082               0.001779598               0.000000000               0.000000000               0.000000000               0.000000000              -0.006606899              -0.000515379              -0.000000000              -0.002413163               0.000632590              -0.001780573               0.000000000               0.000000000               0.000000000               0.000000000              -0.003962046               0.000022506              -0.000000000              -0.001488579               0.000503692              -0.000984888               0.000000000               0.000000000               0.000000000               0.000000000              -0.001951195               0.000568883               0.000000000              -0.000802807               0.000457227              -0.000345580               0.000000000               0.000000000               0.000000000               0.000000000              -0.000971152               0.001370651               0.000000000              -0.000535512               0.000635383               0.000099871               0.000000000               0.000000000               0.000000000               0.000000000              -0.000442813               0.002145036              -0.000000000              -0.000434183               0.000859732               0.000425549               0.000000000               0.000000000               0.000000000               0.000000000              -0.000124218               0.002819758               0.000000000              -0.000399051               0.001072927               0.000673876               0.000000000               0.000000000               0.000000000               0.000000000               0.000099895               0.003390873               0.000000000              -0.000386398               0.001259079               0.000872681               0.000000000               0.000000000               0.000000000               0.000000000               0.000274832               0.003863968              -0.000000000              -0.000379933               0.001414621               0.001034688               0.000000000               0.000000000               0.000000000               0.000000000               0.000427497               0.004256939               0.000000000              -0.000371805               0.001542901               0.001171095               0.000000000               0.000000000               0.000000000               0.000000000               0.000574339               0.004593793               0.000000000              -0.000358846               0.001650864               0.001292018               0.000000000               0.000000000               0.000000000               0.000000000               0.000725536               0.004860641               0.000000000              -0.000335503               0.001732032               0.001396529               0.000000000               0.000000000               0.000000000               0.000000000               0.000885589               0.005027885              -0.000000000              -0.000296389               0.001774741               0.001478352               0.000000000               0.000000000               0.000000000               0.000000000               0.001071556               0.005117136              -0.000000000              -0.000237808               0.001784964               0.001547156               0.000000000               0.000000000               0.000000000               0.000000000               0.001298313               0.005152956               0.000000000              -0.000157252               0.001770052               0.001612800               0.000000000               0.000000000               0.000000000               0.000000000               0.001584924               0.005145314              -0.000000000              -0.000048818               0.001731360               0.001682542               0.000000000               0.000000000               0.000000000               0.000000000               0.001944582               0.005088239              -0.000000000               0.000093187               0.001665000               0.001758188               0.000000000               0.000000000               0.000000000               0.000000000               0.002247885               0.005080869               0.000000000               0.000207846               0.001624324               0.001832170               0.000000000               0.000000000               0.000000000               0.000000000               0.001742151               0.019363545              -0.000000000              -0.001767132               0.007043494               0.005276362               0.000000000               0.000000000               0.000000000               0.000000000               0.001752681               0.015355591              -0.000000000              -0.001262190               0.005539209               0.004277019               0.000000000               0.000000000               0.000000000               0.000000000               0.002326869               0.012139893              -0.000000000              -0.000644909               0.004261560               0.003616651               0.000000000               0.000000000               0.000000000               0.000000000               0.002261733               0.010350940              -0.000000000              -0.000445717               0.003598851               0.003153134               0.000000000               0.000000000               0.000000000               0.000000000               0.002002423               0.009255520              -0.000000000              -0.000406030               0.003220486               0.002814456               0.000000000               0.000000000               0.000000000               0.000000000               0.001705733               0.008519310               0.000000000              -0.000425263               0.002981496               0.002556233               0.000000000               0.000000000               0.000000000               0.000000000               0.001425820               0.007985099               0.000000000              -0.000463454               0.002816158               0.002352704               0.000000000               0.000000000               0.000000000               0.000000000               0.001176797               0.007567416              -0.000000000              -0.000504627               0.002690656               0.002186029               0.000000000               0.000000000               0.000000000               0.000000000               0.000951618               0.007214413              -0.000000000              -0.000544943               0.002586428               0.002041485               0.000000000               0.000000000               0.000000000               0.000000000               0.000753137               0.006909957              -0.000000000              -0.000581317               0.002497068               0.001915752               0.000000000               0.000000000               0.000000000               0.000000000               0.000578937               0.006636378              -0.000000000              -0.000612445               0.002416252               0.001803808               0.000000000               0.000000000               0.000000000               0.000000000               0.000423369               0.006368648              -0.000000000              -0.000637316               0.002335300               0.001697984               0.000000000               0.000000000               0.000000000               0.000000000               0.000288037               0.006088960              -0.000000000              -0.000653104               0.002247334               0.001594230               0.000000000               0.000000000               0.000000000               0.000000000               0.000170939               0.005788812              -0.000000000              -0.000659498               0.002149417               0.001489919               0.000000000               0.000000000               0.000000000               0.000000000               0.000080980               0.005459965              -0.000000000              -0.000652126               0.002037346               0.001385219               0.000000000               0.000000000               0.000000000               0.000000000               0.000028289               0.005082326               0.000000000              -0.000624681               0.001902319               0.001277638               0.000000000               0.000000000               0.000000000               0.000000000              -0.000018673               0.004790701               0.000000000              -0.000605839               0.001798831               0.001192992               0.000000000               0.000000000               0.000000000               0.000000000               0.001811444               0.018976464              -0.001340269              -0.001692763               0.006889679               0.005196916               0.000000000               0.000000000               0.000000000               0.000000000               0.001731835               0.015106435              -0.000704843              -0.001238863               0.005448382               0.004209519               0.000000000               0.000000000               0.000000000               0.000000000               0.002207242               0.012028972              -0.000072153              -0.000675904               0.004234918               0.003559014               0.000000000               0.000000000               0.000000000               0.000000000               0.002103607               0.010313641               0.000195605              -0.000500351               0.003604630               0.003104279               0.000000000               0.000000000               0.000000000               0.000000000               0.001831982               0.009253619               0.000305351              -0.000469708               0.003241078               0.002771370               0.000000000               0.000000000               0.000000000               0.000000000               0.001539368               0.008536229               0.000341473              -0.000489764               0.003008636               0.002518872               0.000000000               0.000000000               0.000000000               0.000000000               0.001273036               0.008010419               0.000346104              -0.000523913               0.002844751               0.002320838               0.000000000               0.000000000               0.000000000               0.000000000               0.001038784               0.007595919               0.000335322              -0.000559944               0.002718596               0.002158651               0.000000000               0.000000000               0.000000000               0.000000000               0.000829876               0.007249254               0.000320936              -0.000594952               0.002614711               0.002019759               0.000000000               0.000000000               0.000000000               0.000000000               0.000646786               0.006947064               0.000308694              -0.000625837               0.002524277               0.001898440               0.000000000               0.000000000               0.000000000               0.000000000               0.000487200               0.006672828               0.000292454              -0.000651402               0.002441388               0.001789986               0.000000000               0.000000000               0.000000000               0.000000000               0.000349348               0.006407847               0.000267479              -0.000669974               0.002359252               0.001689278               0.000000000               0.000000000               0.000000000               0.000000000               0.000233988               0.006135756               0.000238039              -0.000679222               0.002271639               0.001592417               0.000000000               0.000000000               0.000000000               0.000000000               0.000137428               0.005848457               0.000206335              -0.000679520               0.002175973               0.001496453               0.000000000               0.000000000               0.000000000               0.000000000               0.000065366               0.005539992               0.000160593              -0.000667985               0.002069307               0.001401322               0.000000000               0.000000000               0.000000000               0.000000000               0.000023186               0.005199138               0.000090492              -0.000641196               0.001946761               0.001305565               0.000000000               0.000000000               0.000000000               0.000000000              -0.000017143               0.004942981               0.000054216              -0.000624300               0.001855744               0.001231444               0.000000000               0.000000000               0.000000000               0.000000000               0.001991064               0.017871890              -0.002507348              -0.001487335               0.006453015               0.004965680               0.000000000               0.000000000               0.000000000               0.000000000               0.001661086               0.014392327              -0.001328268              -0.001176131               0.005189438               0.004013307               0.000000000               0.000000000               0.000000000               0.000000000               0.001863007               0.011707687              -0.000161217              -0.000764832               0.004157467               0.003392636               0.000000000               0.000000000               0.000000000               0.000000000               0.001660720               0.010194565               0.000317629              -0.000651549               0.003615337               0.002963788               0.000000000               0.000000000               0.000000000               0.000000000               0.001371449               0.009233849               0.000509323              -0.000639936               0.003291231               0.002651295               0.000000000               0.000000000               0.000000000               0.000000000               0.001098373               0.008567024               0.000571945              -0.000658987               0.003075308               0.002416322               0.000000000               0.000000000               0.000000000               0.000000000               0.000866992               0.008065487               0.000577886              -0.000683062               0.002916156               0.002233094               0.000000000               0.000000000               0.000000000               0.000000000               0.000675793               0.007664320               0.000559749              -0.000704616               0.002789620               0.002085004               0.000000000               0.000000000               0.000000000               0.000000000               0.000513706               0.007326369               0.000535066              -0.000723155               0.002683150               0.001959996               0.000000000               0.000000000               0.000000000               0.000000000               0.000377898               0.007028673               0.000511523              -0.000736871               0.002588491               0.001851620               0.000000000               0.000000000               0.000000000               0.000000000               0.000267728               0.006755596               0.000484988              -0.000744050               0.002499859               0.001755810               0.000000000               0.000000000               0.000000000               0.000000000               0.000179867               0.006495097               0.000445897              -0.000744435               0.002413156               0.001668720               0.000000000               0.000000000               0.000000000               0.000000000               0.000113530               0.006240074               0.000397972              -0.000737434               0.002325815               0.001588381               0.000000000               0.000000000               0.000000000               0.000000000               0.000063237               0.005987240               0.000342849              -0.000724689               0.002237290               0.001512601               0.000000000               0.000000000               0.000000000               0.000000000               0.000028262               0.005735446               0.000265447              -0.000706331               0.002147240               0.001440909               0.000000000               0.000000000               0.000000000               0.000000000               0.000009219               0.005487967               0.000150554              -0.000682537               0.002056816               0.001374279               0.000000000               0.000000000               0.000000000               0.000000000              -0.000012804               0.005321489               0.000088244              -0.000669986               0.001997141               0.001327155               0.000000000               0.000000000               0.000000000               0.000000000               0.002194209               0.016195826              -0.003362740              -0.001201649               0.005799104               0.004597455               0.000000000               0.000000000               0.000000000               0.000000000               0.001511484               0.013313050              -0.001803380              -0.001097323               0.004803413               0.003706090               0.000000000               0.000000000               0.000000000               0.000000000               0.001338205               0.011221474              -0.000274787              -0.000900855               0.004040739               0.003139884               0.000000000               0.000000000               0.000000000               0.000000000               0.001023708               0.009990206               0.000327236              -0.000864883               0.003618330               0.002753447               0.000000000               0.000000000               0.000000000               0.000000000               0.000733710               0.009165998               0.000560632              -0.000870606               0.003345504               0.002474898               0.000000000               0.000000000               0.000000000               0.000000000               0.000505264               0.008568922               0.000635152              -0.000881639               0.003150158               0.002268519               0.000000000               0.000000000               0.000000000               0.000000000               0.000334336               0.008104512               0.000641122              -0.000887686               0.002997372               0.002109686               0.000000000               0.000000000               0.000000000               0.000000000               0.000208124               0.007724438               0.000619454              -0.000887506               0.002870622               0.001983116               0.000000000               0.000000000               0.000000000               0.000000000               0.000112967               0.007394470               0.000590106              -0.000881944               0.002758780               0.001876836               0.000000000               0.000000000               0.000000000               0.000000000               0.000048315               0.007099139               0.000561847              -0.000869272               0.002656114               0.001786841               0.000000000               0.000000000               0.000000000               0.000000000               0.000012954               0.006826802               0.000529542              -0.000848490               0.002558408               0.001709918               0.000000000               0.000000000               0.000000000               0.000000000              -0.000004321               0.006573041               0.000483948              -0.000823248               0.002465408               0.001642160               0.000000000               0.000000000               0.000000000               0.000000000              -0.000011483               0.006339749               0.000426852              -0.000796773               0.002378820               0.001582047               0.000000000               0.000000000               0.000000000               0.000000000              -0.000016230               0.006127312               0.000359742              -0.000771998               0.002299750               0.001527751               0.000000000               0.000000000               0.000000000               0.000000000              -0.000016114               0.005942670               0.000269909              -0.000748875               0.002230495               0.001481621               0.000000000               0.000000000               0.000000000               0.000000000              -0.000010988               0.005795732               0.000148462              -0.000728585               0.002174753               0.001446168               0.000000000               0.000000000               0.000000000               0.000000000              -0.000011610               0.005722865               0.000081742              -0.000719710               0.002147506               0.001427796               0.000000000               0.000000000               0.000000000               0.000000000               0.002315889               0.014146393              -0.003839455              -0.000899842               0.005015364               0.004115522               0.000000000               0.000000000               0.000000000               0.000000000               0.001260665               0.012011905              -0.002103312              -0.001028737               0.004346840               0.003318103               0.000000000               0.000000000               0.000000000               0.000000000               0.000695803               0.010632673              -0.000420414              -0.001068155               0.003900240               0.002832085               0.000000000               0.000000000               0.000000000               0.000000000               0.000306287               0.009711157               0.000213141              -0.001099034               0.003603365               0.002504330               0.000000000               0.000000000               0.000000000               0.000000000               0.000055469               0.009035697               0.000453539              -0.001108659               0.003381422               0.002272763               0.000000000               0.000000000               0.000000000               0.000000000              -0.000099838               0.008511007               0.000531427              -0.001101312               0.003204078               0.002102766               0.000000000               0.000000000               0.000000000               0.000000000              -0.000186935               0.008082835               0.000540875              -0.001080453               0.003054402               0.001973950               0.000000000               0.000000000               0.000000000               0.000000000              -0.000231596               0.007719653               0.000523413              -0.001051802               0.002923793               0.001871990               0.000000000               0.000000000               0.000000000               0.000000000              -0.000248904               0.007398042               0.000495817              -0.001018092               0.002805353               0.001787261               0.000000000               0.000000000               0.000000000               0.000000000              -0.000238190               0.007105368               0.000467930              -0.000977490               0.002694262               0.001716772               0.000000000               0.000000000               0.000000000               0.000000000              -0.000200503               0.006838891               0.000434548              -0.000930048               0.002589624               0.001659576               0.000000000               0.000000000               0.000000000               0.000000000              -0.000154959               0.006596541               0.000389234              -0.000882675               0.002493050               0.001610375               0.000000000               0.000000000               0.000000000               0.000000000              -0.000113359               0.006384615               0.000332860              -0.000840584               0.002408379               0.001567794               0.000000000               0.000000000               0.000000000               0.000000000              -0.000078087               0.006207586               0.000268820              -0.000805229               0.002337584               0.001532355               0.000000000               0.000000000               0.000000000               0.000000000              -0.000047049               0.006071956               0.000189196              -0.000776636               0.002282844               0.001506208               0.000000000               0.000000000               0.000000000               0.000000000              -0.000019814               0.005988989               0.000095852              -0.000756052               0.002248327               0.001492275               0.000000000               0.000000000               0.000000000               0.000000000              -0.000006090               0.005965127               0.000047326              -0.000747923               0.002237663               0.001489741               0.000000000               0.000000000               0.000000000               0.000000000               0.002261369               0.011936320              -0.003937741              -0.000644029               0.004193409               0.003549380               0.000000000               0.000000000               0.000000000               0.000000000               0.000907548               0.010632046              -0.002242189              -0.000988674               0.003873538               0.002884863               0.000000000               0.000000000               0.000000000               0.000000000               0.000015790               0.009989947              -0.000608925              -0.001242819               0.003744222               0.002501403               0.000000000               0.000000000               0.000000000               0.000000000              -0.000382093               0.009368155              -0.000013890              -0.001314301               0.003560788               0.002246486               0.000000000               0.000000000               0.000000000               0.000000000              -0.000548727               0.008830591               0.000214895              -0.001309593               0.003380032               0.002070439               0.000000000               0.000000000               0.000000000               0.000000000              -0.000604648               0.008368069               0.000296754              -0.001272749               0.003213578               0.001940829               0.000000000               0.000000000               0.000000000               0.000000000              -0.000598118               0.007967949               0.000318352              -0.001220285               0.003062718               0.001842433               0.000000000               0.000000000               0.000000000               0.000000000              -0.000558214               0.007615757               0.000315449              -0.001161297               0.002925659               0.001764362               0.000000000               0.000000000               0.000000000               0.000000000              -0.000497056               0.007300780               0.000299113              -0.001098991               0.002799899               0.001700908               0.000000000               0.000000000               0.000000000               0.000000000              -0.000416980               0.007016289               0.000279327              -0.001033401               0.002683207               0.001649805               0.000000000               0.000000000               0.000000000               0.000000000              -0.000328150               0.006762004               0.000253525              -0.000968304               0.002576747               0.001608443               0.000000000               0.000000000               0.000000000               0.000000000              -0.000241082               0.006538376               0.000218221              -0.000907700               0.002482004               0.001574303               0.000000000               0.000000000               0.000000000               0.000000000              -0.000165695               0.006350522               0.000177887              -0.000855949               0.002402136               0.001546187               0.000000000               0.000000000               0.000000000               0.000000000              -0.000107034               0.006202884               0.000132305              -0.000815496               0.002339439               0.001523943               0.000000000               0.000000000               0.000000000               0.000000000              -0.000059870               0.006094609               0.000080769              -0.000784276               0.002292941               0.001508666               0.000000000               0.000000000               0.000000000               0.000000000              -0.000022643               0.006026387               0.000032359              -0.000761788               0.002262705               0.001500917               0.000000000               0.000000000               0.000000000               0.000000000              -0.000011595               0.005997518               0.000013185              -0.000754036               0.002250498               0.001496462               0.000000000               0.000000000               0.000000000               0.000000000               0.001976538               0.009741993              -0.003716754              -0.000476550               0.003406148               0.002929597               0.000000000               0.000000000               0.000000000               0.000000000               0.000471848               0.009279517              -0.002260961              -0.000982996               0.003420806               0.002437810               0.000000000               0.000000000               0.000000000               0.000000000              -0.000620731               0.009328325              -0.000844961              -0.001398811               0.003575681               0.002176870               0.000000000               0.000000000               0.000000000               0.000000000              -0.000952080               0.008966613              -0.000325788              -0.001477853               0.003481459               0.002003606               0.000000000               0.000000000               0.000000000               0.000000000              -0.001007006               0.008541088              -0.000105872              -0.001445260               0.003328754               0.001883494               0.000000000               0.000000000               0.000000000               0.000000000              -0.000954281               0.008132796              -0.000007332              -0.001374451               0.003169055               0.001794604               0.000000000               0.000000000               0.000000000               0.000000000              -0.000854851               0.007760801               0.000037973              -0.001290666               0.003017130               0.001726464               0.000000000               0.000000000               0.000000000               0.000000000              -0.000737638               0.007423577               0.000058773              -0.001204558               0.002876021               0.001671462               0.000000000               0.000000000               0.000000000               0.000000000              -0.000615462               0.007117412               0.000064543              -0.001120472               0.002745938               0.001625466               0.000000000               0.000000000               0.000000000               0.000000000              -0.000485095               0.006845671               0.000064923              -0.001037617               0.002627740               0.001590123               0.000000000               0.000000000               0.000000000               0.000000000              -0.000358338               0.006609639               0.000060583              -0.000960579               0.002523384               0.001562805               0.000000000               0.000000000               0.000000000               0.000000000              -0.000252175               0.006409194               0.000048324              -0.000895713               0.002434947               0.001539235               0.000000000               0.000000000               0.000000000               0.000000000              -0.000170979               0.006246304               0.000035222              -0.000844903               0.002363715               0.001518812               0.000000000               0.000000000               0.000000000               0.000000000              -0.000111203               0.006114343               0.000022155              -0.000805992               0.002306758               0.001500766               0.000000000               0.000000000               0.000000000               0.000000000              -0.000067441               0.006005339               0.000007054              -0.000775956               0.002260412               0.001484456               0.000000000               0.000000000               0.000000000               0.000000000              -0.000030555               0.005918302              -0.000001624              -0.000751244               0.002223162               0.001471918               0.000000000               0.000000000               0.000000000               0.000000000              -0.000025745               0.005861128               0.000005162              -0.000742293               0.002201121               0.001458827               0.000000000               0.000000000               0.000000000               0.000000000               0.001485036               0.007701102              -0.003255169              -0.000405752               0.002702258               0.002296506               0.000000000               0.000000000               0.000000000               0.000000000              -0.000013440               0.008033865              -0.002196593              -0.001009272               0.003014352               0.002005079               0.000000000               0.000000000               0.000000000               0.000000000              -0.001145752               0.008658906              -0.001120952              -0.001512017               0.003390279               0.001878262               0.000000000               0.000000000               0.000000000               0.000000000              -0.001351915               0.008504960              -0.000677889              -0.001570084               0.003358320               0.001788235               0.000000000               0.000000000               0.000000000               0.000000000              -0.001285287               0.008178439              -0.000448453              -0.001504284               0.003227547               0.001723263               0.000000000               0.000000000               0.000000000               0.000000000              -0.001136189               0.007825083              -0.000318781              -0.001404203               0.003076403               0.001672200               0.000000000               0.000000000               0.000000000               0.000000000              -0.000961050               0.007486839              -0.000241601              -0.001296245               0.002927670               0.001631424               0.000000000               0.000000000               0.000000000               0.000000000              -0.000783802               0.007171392              -0.000189266              -0.001190347               0.002787222               0.001596876               0.000000000               0.000000000               0.000000000               0.000000000              -0.000613256               0.006883612              -0.000151391              -0.001090420               0.002657988               0.001567568               0.000000000               0.000000000               0.000000000               0.000000000              -0.000456201               0.006631600              -0.000119716              -0.001000023               0.002543852               0.001543829               0.000000000               0.000000000               0.000000000               0.000000000              -0.000320317               0.006417240              -0.000093321              -0.000922272               0.002446482               0.001524211               0.000000000               0.000000000               0.000000000               0.000000000              -0.000215959               0.006235828              -0.000072691              -0.000860461               0.002365409               0.001504948               0.000000000               0.000000000               0.000000000               0.000000000              -0.000142908               0.006071383              -0.000052206              -0.000812511               0.002294611               0.001482100               0.000000000               0.000000000               0.000000000               0.000000000              -0.000098483               0.005913005              -0.000033909              -0.000776055               0.002229667               0.001453612               0.000000000               0.000000000               0.000000000               0.000000000              -0.000071448               0.005767923              -0.000018340              -0.000747782               0.002171882               0.001424101               0.000000000               0.000000000               0.000000000               0.000000000              -0.000041730               0.005640072              -0.000004138              -0.000720656               0.002120224               0.001399568               0.000000000               0.000000000               0.000000000               0.000000000              -0.000035556               0.005555527               0.000010587              -0.000707772               0.002087748               0.001379976               0.000000000               0.000000000               0.000000000               0.000000000               0.000874693               0.005966376              -0.002647838              -0.000417789               0.002128034               0.001710245               0.000000000               0.000000000               0.000000000               0.000000000              -0.000472076               0.006920700              -0.002097848              -0.001042115               0.002654248               0.001612133               0.000000000               0.000000000               0.000000000               0.000000000              -0.001520268               0.008003750              -0.001438349              -0.001570566               0.003191412               0.001620846               0.000000000               0.000000000               0.000000000               0.000000000              -0.001593165               0.008060308              -0.001045257              -0.001604972               0.003221733               0.001616761               0.000000000               0.000000000               0.000000000               0.000000000              -0.001431685               0.007850036              -0.000792934              -0.001518133               0.003122697               0.001604564               0.000000000               0.000000000               0.000000000               0.000000000              -0.001214624               0.007566258              -0.000624519              -0.001401263               0.002989149               0.001587885               0.000000000               0.000000000               0.000000000               0.000000000              -0.000986720               0.007272872              -0.000508971              -0.001279126               0.002850642               0.001571516               0.000000000               0.000000000               0.000000000               0.000000000              -0.000765395               0.006988934              -0.000421369              -0.001160637               0.002716500               0.001555864               0.000000000               0.000000000               0.000000000               0.000000000              -0.000560780               0.006726356              -0.000348506              -0.001051084               0.002592458               0.001541373               0.000000000               0.000000000               0.000000000               0.000000000              -0.000385914               0.006494966              -0.000281741              -0.000956586               0.002483829               0.001527243               0.000000000               0.000000000               0.000000000               0.000000000              -0.000245895               0.006299441              -0.000220719              -0.000879639               0.002393006               0.001513367               0.000000000               0.000000000               0.000000000               0.000000000              -0.000152964               0.006108220              -0.000168986              -0.000820887               0.002309682               0.001488795               0.000000000               0.000000000               0.000000000               0.000000000              -0.000112657               0.005900170              -0.000124192              -0.000779766               0.002226626               0.001446860               0.000000000               0.000000000               0.000000000               0.000000000              -0.000104361               0.005698848              -0.000082638              -0.000751490               0.002150094               0.001398604               0.000000000               0.000000000               0.000000000               0.000000000              -0.000112507               0.005512511              -0.000044294              -0.000731252               0.002081236               0.001349984               0.000000000               0.000000000               0.000000000               0.000000000              -0.000124301               0.005336972              -0.000015061              -0.000713733               0.002016884               0.001303151               0.000000000               0.000000000               0.000000000               0.000000000              -0.000129164               0.005238263              -0.000000129              -0.000703218               0.001980476               0.001277259               0.000000000               0.000000000               0.000000000               0.000000000               0.000129610               0.004340111              -0.001990298              -0.000493911               0.001611325               0.001117415               0.000000000               0.000000000               0.000000000               0.000000000              -0.000828816               0.005635120              -0.001980563              -0.001015195               0.002216752               0.001201558               0.000000000               0.000000000               0.000000000               0.000000000              -0.001692091               0.007046613              -0.001779011              -0.001515358               0.002853966               0.001338609               0.000000000               0.000000000               0.000000000               0.000000000              -0.001702160               0.007393732              -0.001447487              -0.001562523               0.002985393               0.001422870               0.000000000               0.000000000               0.000000000               0.000000000              -0.001505504               0.007380735              -0.001174051              -0.001487152               0.002955938               0.001468785               0.000000000               0.000000000               0.000000000               0.000000000              -0.001267918               0.007239757              -0.000964735              -0.001380435               0.002873373               0.001492938               0.000000000               0.000000000               0.000000000               0.000000000              -0.001028516               0.007049545              -0.000807469              -0.001266883               0.002772119               0.001505236               0.000000000               0.000000000               0.000000000               0.000000000              -0.000796593               0.006844464              -0.000684333              -0.001154278               0.002666224               0.001511947               0.000000000               0.000000000               0.000000000               0.000000000              -0.000584523               0.006635016              -0.000576583              -0.001048570               0.002561173               0.001512603               0.000000000               0.000000000               0.000000000               0.000000000              -0.000401168               0.006439016              -0.000475617              -0.000955313               0.002464755               0.001509442               0.000000000               0.000000000               0.000000000               0.000000000              -0.000253848               0.006262184              -0.000383069              -0.000877964               0.002380028               0.001502064               0.000000000               0.000000000               0.000000000               0.000000000              -0.000158125               0.006060237              -0.000297054              -0.000816824               0.002292333               0.001475509               0.000000000               0.000000000               0.000000000               0.000000000              -0.000117211               0.005835186              -0.000216725              -0.000773350               0.002202826               0.001429476               0.000000000               0.000000000               0.000000000               0.000000000              -0.000123341               0.005613341              -0.000143336              -0.000747919               0.002120401               0.001372482               0.000000000               0.000000000               0.000000000               0.000000000              -0.000165689               0.005399217              -0.000076510              -0.000737034               0.002045399               0.001308365               0.000000000               0.000000000               0.000000000               0.000000000              -0.000227766               0.005196013              -0.000026736              -0.000734912               0.001976958               0.001242046               0.000000000               0.000000000               0.000000000               0.000000000              -0.000264183               0.005090375              -0.000005596              -0.000735364               0.001941896               0.001206532               0.000000000               0.000000000               0.000000000               0.000000000              -0.000870465               0.002859084              -0.001321142              -0.000683809               0.001180954               0.000497145               0.000000000               0.000000000               0.000000000               0.000000000              -0.001237561               0.004350797              -0.001797593              -0.001007934               0.001786228               0.000778295               0.000000000               0.000000000               0.000000000               0.000000000              -0.001775158               0.005949927              -0.002042149              -0.001409423               0.002453096               0.001043673               0.000000000               0.000000000               0.000000000               0.000000000              -0.001729528               0.006570966              -0.001827713              -0.001469941               0.002680280               0.001210339               0.000000000               0.000000000               0.000000000               0.000000000              -0.001521972               0.006783027              -0.001560743              -0.001418615               0.002733858               0.001315243               0.000000000               0.000000000               0.000000000               0.000000000              -0.001283817               0.006812994              -0.001326562              -0.001333053               0.002715326               0.001382273               0.000000000               0.000000000               0.000000000               0.000000000              -0.001046169               0.006757948              -0.001136835              -0.001237054               0.002664978               0.001427924               0.000000000               0.000000000               0.000000000               0.000000000              -0.000817030               0.006659837              -0.000979984              -0.001138863               0.002599544               0.001460681               0.000000000               0.000000000               0.000000000               0.000000000              -0.000607501               0.006528370              -0.000841735              -0.001043857               0.002524054               0.001480197               0.000000000               0.000000000               0.000000000               0.000000000              -0.000415925               0.006385795              -0.000717113              -0.000954194               0.002446641               0.001492448               0.000000000               0.000000000               0.000000000               0.000000000              -0.000250043               0.006239147              -0.000601569              -0.000873657               0.002370914               0.001497257               0.000000000               0.000000000               0.000000000               0.000000000              -0.000133872               0.006056825              -0.000488611              -0.000807303               0.002288022               0.001480719               0.000000000               0.000000000               0.000000000               0.000000000              -0.000073693               0.005845417              -0.000374595              -0.000758310               0.002201223               0.001442913               0.000000000               0.000000000               0.000000000               0.000000000              -0.000066836               0.005627605              -0.000261700              -0.000728513               0.002118687               0.001390175               0.000000000               0.000000000               0.000000000               0.000000000              -0.000112594               0.005408593              -0.000155692              -0.000718295               0.002042278               0.001323983               0.000000000               0.000000000               0.000000000               0.000000000              -0.000203406               0.005197080              -0.000067382              -0.000725910               0.001974313               0.001248402               0.000000000               0.000000000               0.000000000               0.000000000              -0.000276057               0.005082411              -0.000022442              -0.000738821               0.001940394               0.001201573               0.000000000               0.000000000               0.000000000               0.000000000              -0.002055700               0.001626796              -0.000685588              -0.000974235               0.000867004              -0.000107231               0.000000000               0.000000000               0.000000000               0.000000000              -0.001750858               0.003138043              -0.001524398              -0.001048825               0.001395611               0.000346786               0.000000000               0.000000000               0.000000000               0.000000000              -0.001818114               0.004726413              -0.002132372              -0.001272592               0.001999652               0.000727060               0.000000000               0.000000000               0.000000000               0.000000000              -0.001656567               0.005543190              -0.002068298              -0.001314109               0.002285747               0.000971638               0.000000000               0.000000000               0.000000000               0.000000000              -0.001427342               0.005963829              -0.001848905              -0.001280729               0.002414832               0.001134103               0.000000000               0.000000000               0.000000000               0.000000000              -0.001188121               0.006174925              -0.001620302              -0.001217409               0.002464090               0.001246681               0.000000000               0.000000000               0.000000000               0.000000000              -0.000962203               0.006272394              -0.001417709              -0.001144873               0.002472401               0.001327528               0.000000000               0.000000000               0.000000000               0.000000000              -0.000749704               0.006302402              -0.001239601              -0.001068937               0.002457092               0.001388155               0.000000000               0.000000000               0.000000000               0.000000000              -0.000547460               0.006279372              -0.001083934              -0.000990217               0.002423175               0.001432958               0.000000000               0.000000000               0.000000000               0.000000000              -0.000353524               0.006217209              -0.000949481              -0.000909721               0.002375622               0.001465902               0.000000000               0.000000000               0.000000000               0.000000000              -0.000177516               0.006124046              -0.000823561              -0.000832072               0.002318686               0.001486613               0.000000000               0.000000000               0.000000000               0.000000000              -0.000041944               0.005984589              -0.000691984              -0.000763801               0.002249443               0.001485642               0.000000000               0.000000000               0.000000000               0.000000000               0.000042859               0.005809014              -0.000553126              -0.000710053               0.002173003               0.001462950               0.000000000               0.000000000               0.000000000               0.000000000               0.000076151               0.005611477              -0.000410572              -0.000672876               0.002094766               0.001421889               0.000000000               0.000000000               0.000000000               0.000000000               0.000055944               0.005407390              -0.000265642              -0.000654943               0.002020760               0.001365816               0.000000000               0.000000000               0.000000000               0.000000000              -0.000024350               0.005204520              -0.000127248              -0.000659695               0.001954721               0.001295026               0.000000000               0.000000000               0.000000000               0.000000000              -0.000104826               0.005085922              -0.000052981              -0.000675048               0.001920306               0.001245258               0.000000000               0.000000000               0.000000000               0.000000000              -0.003339270               0.000702923              -0.000165627              -0.001340090               0.000681000              -0.000659090               0.000000000               0.000000000               0.000000000               0.000000000              -0.002335482               0.002062336              -0.001193707              -0.001133596               0.001065303              -0.000068293               0.000000000               0.000000000               0.000000000               0.000000000              -0.001846733               0.003479438              -0.002026375              -0.001127453               0.001535618               0.000408165               0.000000000               0.000000000               0.000000000               0.000000000              -0.001506442               0.004394332              -0.002105225              -0.001114206               0.001836164               0.000721958               0.000000000               0.000000000               0.000000000               0.000000000              -0.001229377               0.004979837              -0.001961480              -0.001083494               0.002021093               0.000937599               0.000000000               0.000000000               0.000000000               0.000000000              -0.000985242               0.005361517              -0.001766433              -0.001039654               0.002133705               0.001094051               0.000000000               0.000000000               0.000000000               0.000000000              -0.000768934               0.005614363              -0.001572970              -0.000990144               0.002201483               0.001211339               0.000000000               0.000000000               0.000000000               0.000000000              -0.000575202               0.005778762              -0.001396230              -0.000938044               0.002238916               0.001300872               0.000000000               0.000000000               0.000000000               0.000000000              -0.000387092               0.005873975              -0.001243239              -0.000879405               0.002251107               0.001371702               0.000000000               0.000000000               0.000000000               0.000000000              -0.000200353               0.005915274              -0.001109565              -0.000814540               0.002243251               0.001428711               0.000000000               0.000000000               0.000000000               0.000000000              -0.000024600               0.005905068              -0.000982221              -0.000747357               0.002217455               0.001470098               0.000000000               0.000000000               0.000000000               0.000000000               0.000123233               0.005827004              -0.000847169              -0.000682162               0.002169703               0.001487541               0.000000000               0.000000000               0.000000000               0.000000000               0.000236910               0.005702456              -0.000700675              -0.000623964               0.002108788               0.001484823               0.000000000               0.000000000               0.000000000               0.000000000               0.000310068               0.005548571              -0.000545162              -0.000577295               0.002041937               0.001464642               0.000000000               0.000000000               0.000000000               0.000000000               0.000339348               0.005376606              -0.000377671              -0.000544819               0.001973790               0.001428971               0.000000000               0.000000000               0.000000000               0.000000000               0.000310741               0.005193269              -0.000195729              -0.000532630               0.001908616               0.001375986               0.000000000               0.000000000               0.000000000               0.000000000               0.000260345               0.005085979              -0.000096018              -0.000538117               0.001874681               0.001336565               0.000000000               0.000000000               0.000000000               0.000000000              -0.004591562               0.000081796               0.000167438              -0.001732059               0.000604614              -0.001127445               0.000000000               0.000000000               0.000000000               0.000000000              -0.002935732               0.001183201              -0.000849302              -0.001248798               0.000810661              -0.000438137               0.000000000               0.000000000               0.000000000               0.000000000              -0.001876341               0.002325991              -0.001724596              -0.000994375               0.001106780               0.000112405               0.000000000               0.000000000               0.000000000               0.000000000              -0.001316489               0.003251683              -0.001896866              -0.000900143               0.001383930               0.000483787               0.000000000               0.000000000               0.000000000               0.000000000              -0.000963845               0.003947270              -0.001829529              -0.000854850               0.001600693               0.000745843               0.000000000               0.000000000               0.000000000               0.000000000              -0.000706633               0.004467026              -0.001686196              -0.000823365               0.001763448               0.000940083               0.000000000               0.000000000               0.000000000               0.000000000              -0.000498216               0.004854500              -0.001526396              -0.000793642               0.001882697               0.001089055               0.000000000               0.000000000               0.000000000               0.000000000              -0.000314118               0.005142099              -0.001375987              -0.000760556               0.001967534               0.001206979               0.000000000               0.000000000               0.000000000               0.000000000              -0.000141811               0.005352523              -0.001244317              -0.000722243               0.002024904               0.001302661               0.000000000               0.000000000               0.000000000               0.000000000               0.000028835               0.005506406              -0.001125557              -0.000677487               0.002061279               0.001383792               0.000000000               0.000000000               0.000000000               0.000000000               0.000196266               0.005595593              -0.001010363              -0.000625848               0.002073795               0.001447947               0.000000000               0.000000000               0.000000000               0.000000000               0.000350283               0.005598641              -0.000887311              -0.000568473               0.002055686               0.001487213               0.000000000               0.000000000               0.000000000               0.000000000               0.000491951               0.005542958              -0.000751355              -0.000508387               0.002017096               0.001508709               0.000000000               0.000000000               0.000000000               0.000000000               0.000618231               0.005447780              -0.000605793              -0.000449135               0.001965620               0.001516485               0.000000000               0.000000000               0.000000000               0.000000000               0.000724354               0.005319259              -0.000442394              -0.000393274               0.001904160               0.001510886               0.000000000               0.000000000               0.000000000               0.000000000               0.000794513               0.005165962              -0.000242093              -0.000347802               0.001837904               0.001490102               0.000000000               0.000000000               0.000000000               0.000000000               0.000823023               0.005083178              -0.000131001              -0.000326763               0.001803297               0.001476534               0.000000000               0.000000000               0.000000000               0.000000000              -0.005648542              -0.000285092               0.000282695              -0.002082565               0.000599154              -0.001483412               0.000000000               0.000000000               0.000000000               0.000000000              -0.003463880               0.000539172              -0.000526394              -0.001366350               0.000635169              -0.000731181               0.000000000               0.000000000               0.000000000               0.000000000              -0.001909319               0.001389344              -0.001250503              -0.000889661               0.000759662              -0.000129999               0.000000000               0.000000000               0.000000000               0.000000000              -0.001138865               0.002269608              -0.001437076              -0.000710774               0.000993453               0.000282678               0.000000000               0.000000000               0.000000000               0.000000000              -0.000701834               0.003021046              -0.001423670              -0.000640818               0.001220611               0.000579793               0.000000000               0.000000000               0.000000000               0.000000000              -0.000417618               0.003634626              -0.001335692              -0.000610934               0.001415174               0.000804240               0.000000000               0.000000000               0.000000000               0.000000000              -0.000208223               0.004125052              -0.001226149              -0.000593714               0.001572908               0.000979194               0.000000000               0.000000000               0.000000000               0.000000000              -0.000030930               0.004513032              -0.001120172              -0.000575727               0.001696238               0.001120511               0.000000000               0.000000000               0.000000000               0.000000000               0.000129761               0.004819799              -0.001024922              -0.000553813               0.001791188               0.001237374               0.000000000               0.000000000               0.000000000               0.000000000               0.000288123               0.005067821              -0.000937635              -0.000525431               0.001864400               0.001338969               0.000000000               0.000000000               0.000000000               0.000000000               0.000446377               0.005248360              -0.000850571              -0.000488653               0.001912320               0.001423667               0.000000000               0.000000000               0.000000000               0.000000000               0.000601567               0.005337427              -0.000755518              -0.000441590               0.001926321               0.001484731               0.000000000               0.000000000               0.000000000               0.000000000               0.000766778               0.005355257              -0.000649863              -0.000381865               0.001912356               0.001530491               0.000000000               0.000000000               0.000000000               0.000000000               0.000948082               0.005320802              -0.000536876              -0.000309569               0.001876772               0.001567203               0.000000000               0.000000000               0.000000000               0.000000000               0.001139484               0.005243533              -0.000403693              -0.000228135               0.001823872               0.001595737               0.000000000               0.000000000               0.000000000               0.000000000               0.001340110               0.005132171              -0.000225976              -0.000138980               0.001757033               0.001618053               0.000000000               0.000000000               0.000000000               0.000000000               0.001488696               0.005083535              -0.000128963              -0.000077181               0.001720222               0.001643041               0.000000000               0.000000000               0.000000000               0.000000000              -0.006357185              -0.000464424               0.000199447              -0.002325890               0.000620485              -0.001705405               0.000000000               0.000000000               0.000000000               0.000000000              -0.003830342               0.000150609              -0.000247205              -0.001455203               0.000535267              -0.000919936               0.000000000               0.000000000               0.000000000               0.000000000              -0.001938783               0.000779410              -0.000656071              -0.000824469               0.000534622              -0.000289846               0.000000000               0.000000000               0.000000000               0.000000000              -0.001015064               0.001605744              -0.000774837              -0.000581366               0.000729031               0.000147665               0.000000000               0.000000000               0.000000000               0.000000000              -0.000511873               0.002378089              -0.000780410              -0.000489213               0.000955759               0.000466546               0.000000000               0.000000000               0.000000000               0.000000000              -0.000202711               0.003038987              -0.000740354              -0.000455889               0.001164948               0.000709059               0.000000000               0.000000000               0.000000000               0.000000000               0.000016214               0.003588767              -0.000685795              -0.000442515               0.001343749               0.000901234               0.000000000               0.000000000               0.000000000               0.000000000               0.000190700               0.004040662              -0.000631338              -0.000433570               0.001491397               0.001057827               0.000000000               0.000000000               0.000000000               0.000000000               0.000344907               0.004411471              -0.000581831              -0.000422093               0.001611173               0.001189080               0.000000000               0.000000000               0.000000000               0.000000000               0.000495640               0.004724371              -0.000536372              -0.000404681               0.001709668               0.001304987               0.000000000               0.000000000               0.000000000               0.000000000               0.000648699               0.004968484              -0.000489308              -0.000377798               0.001782077               0.001404280               0.000000000               0.000000000               0.000000000               0.000000000               0.000805959               0.005115297              -0.000437573              -0.000337177               0.001817474               0.001480297               0.000000000               0.000000000               0.000000000               0.000000000               0.000986464               0.005185726              -0.000381789              -0.000278291               0.001821322               0.001543031               0.000000000               0.000000000               0.000000000               0.000000000               0.001203453               0.005201745              -0.000318520              -0.000198923               0.001800205               0.001601282               0.000000000               0.000000000               0.000000000               0.000000000               0.001462581               0.005173392              -0.000241425              -0.000098206               0.001757182               0.001658976               0.000000000               0.000000000               0.000000000               0.000000000               0.001777360               0.005100935              -0.000137034               0.000028893               0.001690664               0.001719557               0.000000000               0.000000000               0.000000000               0.000000000               0.002036650               0.005081813              -0.000080520               0.000128516               0.001651082               0.001779598               0.000000000               0.000000000               0.000000000               0.000000000               0.000000000               0.000000000               0.000000000               0.000000000               0.000000000               0.000000000               0.000000000               0.000000000               0.000000000               0.000000000               0.000000000               0.000000000               0.000000000               0.000000000               0.000000000               0.000000000               0.000000000               0.000000000               0.000000000               0.000000000               0.000000000               0.000000000               0.000000000               0.000000000               0.000000000               0.000000000               0.000000000               0.000000000               0.000000000               0.000000000               0.000000000               0.000000000               0.000000000               0.000000000               0.000000000               0.000000000               0.000000000               0.000000000               0.000000000               0.000000000               0.000000000               0.000000000               0.000000000               0.000000000               0.000000000               0.000000000               0.000000000               0.000000000               0.000000000               0.000000000               0.000000000               0.000000000               0.000000000               0.000000000               0.000000000               0.000000000               0.000000000               0.000000000               0.000000000               0.000000000               0.000000000               0.000000000               0.000000000               0.000000000               0.000000000               0.000000000               0.000000000               0.000000000               0.000000000               0.000000000               0.000000000               0.000000000               0.000000000               0.000000000               0.000000000               0.000000000               0.000000000               0.000000000               0.000000000               0.000000000               0.000000000               0.000000000               0.000000000               0.000000000               0.000000000               0.000000000               0.000000000               0.000000000               0.000000000               0.000000000               0.000000000               0.000000000               0.000000000               0.000000000               0.000000000               0.000000000               0.000000000               0.000000000               0.000000000               0.000000000               0.000000000               0.000000000               0.000000000               0.000000000               0.000000000               0.000000000               0.000000000               0.000000000               0.000000000               0.000000000               0.000000000               0.000000000               0.000000000               0.000000000               0.000000000               0.000000000               0.000000000               0.000000000               0.000000000               0.000000000               0.000000000               0.000000000               0.000000000               0.000000000               0.000000000               0.000000000               0.000000000               0.000000000               0.000000000               0.000000000               0.000000000               0.000000000               0.000000000               0.000000000               0.000000000               0.000000000               0.000000000               0.000000000               0.000000000               0.000000000               0.000000000               0.000000000               0.000000000               0.000000000               0.000000000               0.000000000               0.000000000               0.000000000               0.000000000               0.000000000               0.000000000               0.000000000               0.000000000               0.000000000               0.000000000               0.000000000               0.000000000               0.000000000               0.000000000               0.000000000               0.000000000               0.000000000               0.000000000               0.000000000               0.000000000               0.000000000               0.000000000               0.000000000               0.000000000               0.000000000               0.000000000               0.000000000               0.000000000               0.000000000               0.000000000               0.000000000               0.000000000               0.000000000               0.000000000               0.000000000               0.000000000               0.000000000               0.000000000               0.000000000               0.000000000               0.000000000               0.000000000               0.000000000               0.000000000               0.000000000               0.000000000               0.000000000               0.000000000               0.000000000               0.000000000               0.000000000               0.000000000               0.000000000               0.000000000               0.000000000               0.000000000               0.000000000               0.000000000               0.000000000               0.000000000               0.000000000               0.000000000               0.000000000               0.000000000               0.000000000               0.000000000               0.000000000               0.000000000               0.000000000               0.000000000               0.000000000               0.000000000               0.000000000               0.000000000               0.000000000               0.000000000               0.000000000               0.000000000               0.000000000               0.000000000               0.000000000               0.000000000               0.000000000               0.000000000               0.000000000               0.000000000               0.000000000               0.000000000               0.000000000               0.000000000               0.000000000               0.000000000               0.000000000               0.000000000               0.000000000               0.000000000               0.000000000               0.000000000               0.000000000               0.000000000               0.000000000               0.000000000               0.000000000               0.000000000               0.000000000               0.000000000               0.000000000               0.000000000               0.000000000               0.000000000               0.000000000               0.000000000               0.000000000               0.000000000               0.000000000               0.000000000               0.000000000               0.000000000               0.000000000               0.000000000               0.000000000               0.000000000               0.000000000               0.000000000               0.000000000               0.000000000               0.000000000               0.000000000               0.000000000               0.000000000               0.000000000               0.000000000               0.000000000               0.000000000               0.000000000               0.000000000               0.000000000               0.000000000               0.000000000               0.000000000               0.000000000               0.000000000               0.000000000               0.000000000               0.000000000               0.000000000               0.000000000               0.000000000               0.000000000               0.000000000               0.000000000               0.000000000               0.000000000               0.000000000               0.000000000               0.000000000               0.000000000               0.000000000               0.000000000               0.000000000               0.000000000               0.000000000               0.000000000               0.000000000               0.000000000               0.000000000               0.000000000               0.000000000               0.000000000               0.000000000               0.000000000               0.000000000               0.000000000               0.000000000               0.000000000               0.000000000               0.000000000               0.000000000               0.000000000               0.000000000               0.000000000               0.000000000               0.000000000               0.000000000               0.000000000               0.000000000               0.000000000               0.000000000               0.000000000               0.000000000               0.000000000               0.000000000               0.000000000               0.000000000               0.000000000               0.001811444               0.018976464               0.001340269              -0.001692763               0.006889679               0.005196916               0.000000000               0.000000000               0.000000000               0.000000000               0.001731835               0.015106435               0.000704843              -0.001238863               0.005448382               0.004209519               0.000000000               0.000000000               0.000000000               0.000000000               0.002207242               0.012028972               0.000072153              -0.000675904               0.004234918               0.003559014               0.000000000               0.000000000               0.000000000               0.000000000               0.002103607               0.010313641              -0.000195605              -0.000500351               0.003604630               0.003104279               0.000000000               0.000000000               0.000000000               0.000000000               0.001831982               0.009253619              -0.000305351              -0.000469708               0.003241078               0.002771370               0.000000000               0.000000000               0.000000000               0.000000000               0.001539368               0.008536229              -0.000341473              -0.000489764               0.003008636               0.002518872               0.000000000               0.000000000               0.000000000               0.000000000               0.001273036               0.008010419              -0.000346104              -0.000523913               0.002844751               0.002320838               0.000000000               0.000000000               0.000000000               0.000000000               0.001038784               0.007595919              -0.000335322              -0.000559944               0.002718596               0.002158651               0.000000000               0.000000000               0.000000000               0.000000000               0.000829876               0.007249254              -0.000320936              -0.000594952               0.002614711               0.002019759               0.000000000               0.000000000               0.000000000               0.000000000               0.000646786               0.006947064              -0.000308694              -0.000625837               0.002524277               0.001898440               0.000000000               0.000000000               0.000000000               0.000000000               0.000487200               0.006672828              -0.000292454              -0.000651402               0.002441388               0.001789986               0.000000000               0.000000000               0.000000000               0.000000000               0.000349348               0.006407847              -0.000267479              -0.000669974               0.002359252               0.001689278               0.000000000               0.000000000               0.000000000               0.000000000               0.000233988               0.006135756              -0.000238039              -0.000679222               0.002271639               0.001592417               0.000000000               0.000000000               0.000000000               0.000000000               0.000137428               0.005848457              -0.000206335              -0.000679520               0.002175973               0.001496453               0.000000000               0.000000000               0.000000000               0.000000000               0.000065366               0.005539992              -0.000160593              -0.000667985               0.002069307               0.001401322               0.000000000               0.000000000               0.000000000               0.000000000               0.000023186               0.005199138              -0.000090492              -0.000641196               0.001946761               0.001305565               0.000000000               0.000000000               0.000000000               0.000000000              -0.000017143               0.004942981              -0.000054216              -0.000624300               0.001855744               0.001231444               0.000000000               0.000000000               0.000000000               0.000000000               0.001991064               0.017871890               0.002507348              -0.001487335               0.006453015               0.004965680               0.000000000               0.000000000               0.000000000               0.000000000               0.001661086               0.014392327               0.001328268              -0.001176131               0.005189438               0.004013307               0.000000000               0.000000000               0.000000000               0.000000000               0.001863007               0.011707687               0.000161217              -0.000764832               0.004157467               0.003392636               0.000000000               0.000000000               0.000000000               0.000000000               0.001660720               0.010194565              -0.000317629              -0.000651549               0.003615337               0.002963788               0.000000000               0.000000000               0.000000000               0.000000000               0.001371449               0.009233849              -0.000509323              -0.000639936               0.003291231               0.002651295               0.000000000               0.000000000               0.000000000               0.000000000               0.001098373               0.008567024              -0.000571945              -0.000658987               0.003075308               0.002416322               0.000000000               0.000000000               0.000000000               0.000000000               0.000866992               0.008065487              -0.000577886              -0.000683062               0.002916156               0.002233094               0.000000000               0.000000000               0.000000000               0.000000000               0.000675793               0.007664320              -0.000559749              -0.000704616               0.002789620               0.002085004               0.000000000               0.000000000               0.000000000               0.000000000               0.000513706               0.007326369              -0.000535066              -0.000723155               0.002683150               0.001959996               0.000000000               0.000000000               0.000000000               0.000000000               0.000377898               0.007028673              -0.000511523              -0.000736871               0.002588491               0.001851620               0.000000000               0.000000000               0.000000000               0.000000000               0.000267728               0.006755596              -0.000484988              -0.000744050               0.002499859               0.001755810               0.000000000               0.000000000               0.000000000               0.000000000               0.000179867               0.006495097              -0.000445897              -0.000744435               0.002413156               0.001668720               0.000000000               0.000000000               0.000000000               0.000000000               0.000113530               0.006240074              -0.000397972              -0.000737434               0.002325815               0.001588381               0.000000000               0.000000000               0.000000000               0.000000000               0.000063237               0.005987240              -0.000342849              -0.000724689               0.002237290               0.001512601               0.000000000               0.000000000               0.000000000               0.000000000               0.000028262               0.005735446              -0.000265447              -0.000706331               0.002147240               0.001440909               0.000000000               0.000000000               0.000000000               0.000000000               0.000009219               0.005487967              -0.000150554              -0.000682537               0.002056816               0.001374279               0.000000000               0.000000000               0.000000000               0.000000000              -0.000012804               0.005321489              -0.000088244              -0.000669986               0.001997141               0.001327155               0.000000000               0.000000000               0.000000000               0.000000000               0.002194209               0.016195826               0.003362740              -0.001201649               0.005799104               0.004597455               0.000000000               0.000000000               0.000000000               0.000000000               0.001511484               0.013313050               0.001803380              -0.001097323               0.004803413               0.003706090               0.000000000               0.000000000               0.000000000               0.000000000               0.001338205               0.011221474               0.000274787              -0.000900855               0.004040739               0.003139884               0.000000000               0.000000000               0.000000000               0.000000000               0.001023708               0.009990206              -0.000327236              -0.000864883               0.003618330               0.002753447               0.000000000               0.000000000               0.000000000               0.000000000               0.000733710               0.009165998              -0.000560632              -0.000870606               0.003345504               0.002474898               0.000000000               0.000000000               0.000000000               0.000000000               0.000505264               0.008568922              -0.000635152              -0.000881639               0.003150158               0.002268519               0.000000000               0.000000000               0.000000000               0.000000000               0.000334336               0.008104512              -0.000641122              -0.000887686               0.002997372               0.002109686               0.000000000               0.000000000               0.000000000               0.000000000               0.000208124               0.007724438              -0.000619454              -0.000887506               0.002870622               0.001983116               0.000000000               0.000000000               0.000000000               0.000000000               0.000112967               0.007394470              -0.000590106              -0.000881944               0.002758780               0.001876836               0.000000000               0.000000000               0.000000000               0.000000000               0.000048315               0.007099139              -0.000561847              -0.000869272               0.002656114               0.001786841               0.000000000               0.000000000               0.000000000               0.000000000               0.000012954               0.006826802              -0.000529542              -0.000848490               0.002558408               0.001709918               0.000000000               0.000000000               0.000000000               0.000000000              -0.000004321               0.006573041              -0.000483948              -0.000823248               0.002465408               0.001642160               0.000000000               0.000000000               0.000000000               0.000000000              -0.000011483               0.006339749              -0.000426852              -0.000796773               0.002378820               0.001582047               0.000000000               0.000000000               0.000000000               0.000000000              -0.000016230               0.006127312              -0.000359742              -0.000771998               0.002299750               0.001527751               0.000000000               0.000000000               0.000000000               0.000000000              -0.000016114               0.005942670              -0.000269909              -0.000748875               0.002230495               0.001481621               0.000000000               0.000000000               0.000000000               0.000000000              -0.000010988               0.005795732              -0.000148462              -0.000728585               0.002174753               0.001446168               0.000000000               0.000000000               0.000000000               0.000000000              -0.000011610               0.005722865              -0.000081742              -0.000719710               0.002147506               0.001427796               0.000000000               0.000000000               0.000000000               0.000000000               0.002315889               0.014146393               0.003839455              -0.000899842               0.005015364               0.004115522               0.000000000               0.000000000               0.000000000               0.000000000               0.001260665               0.012011905               0.002103312              -0.001028737               0.004346840               0.003318103               0.000000000               0.000000000               0.000000000               0.000000000               0.000695803               0.010632673               0.000420414              -0.001068155               0.003900240               0.002832085               0.000000000               0.000000000               0.000000000               0.000000000               0.000306287               0.009711157              -0.000213141              -0.001099034               0.003603365               0.002504330               0.000000000               0.000000000               0.000000000               0.000000000               0.000055469               0.009035697              -0.000453539              -0.001108659               0.003381422               0.002272763               0.000000000               0.000000000               0.000000000               0.000000000              -0.000099838               0.008511007              -0.000531427              -0.001101312               0.003204078               0.002102766               0.000000000               0.000000000               0.000000000               0.000000000              -0.000186935               0.008082835              -0.000540875              -0.001080453               0.003054402               0.001973950               0.000000000               0.000000000               0.000000000               0.000000000              -0.000231596               0.007719653              -0.000523413              -0.001051802               0.002923793               0.001871990               0.000000000               0.000000000               0.000000000               0.000000000              -0.000248904               0.007398042              -0.000495817              -0.001018092               0.002805353               0.001787261               0.000000000               0.000000000               0.000000000               0.000000000              -0.000238190               0.007105368              -0.000467930              -0.000977490               0.002694262               0.001716772               0.000000000               0.000000000               0.000000000               0.000000000              -0.000200503               0.006838891              -0.000434548              -0.000930048               0.002589624               0.001659576               0.000000000               0.000000000               0.000000000               0.000000000              -0.000154959               0.006596541              -0.000389234              -0.000882675               0.002493050               0.001610375               0.000000000               0.000000000               0.000000000               0.000000000              -0.000113359               0.006384615              -0.000332860              -0.000840584               0.002408379               0.001567794               0.000000000               0.000000000               0.000000000               0.000000000              -0.000078087               0.006207586              -0.000268820              -0.000805229               0.002337584               0.001532355               0.000000000               0.000000000               0.000000000               0.000000000              -0.000047049               0.006071956              -0.000189196              -0.000776636               0.002282844               0.001506208               0.000000000               0.000000000               0.000000000               0.000000000              -0.000019814               0.005988989              -0.000095852              -0.000756052               0.002248327               0.001492275               0.000000000               0.000000000               0.000000000               0.000000000              -0.000006090               0.005965127              -0.000047326              -0.000747923               0.002237663               0.001489741               0.000000000               0.000000000               0.000000000               0.000000000               0.002261369               0.011936320               0.003937741              -0.000644029               0.004193409               0.003549380               0.000000000               0.000000000               0.000000000               0.000000000               0.000907548               0.010632046               0.002242189              -0.000988674               0.003873538               0.002884863               0.000000000               0.000000000               0.000000000               0.000000000               0.000015790               0.009989947               0.000608925              -0.001242819               0.003744222               0.002501403               0.000000000               0.000000000               0.000000000               0.000000000              -0.000382093               0.009368155               0.000013890              -0.001314301               0.003560788               0.002246486               0.000000000               0.000000000               0.000000000               0.000000000              -0.000548727               0.008830591              -0.000214895              -0.001309593               0.003380032               0.002070439               0.000000000               0.000000000               0.000000000               0.000000000              -0.000604648               0.008368069              -0.000296754              -0.001272749               0.003213578               0.001940829               0.000000000               0.000000000               0.000000000               0.000000000              -0.000598118               0.007967949              -0.000318352              -0.001220285               0.003062718               0.001842433               0.000000000               0.000000000               0.000000000               0.000000000              -0.000558214               0.007615757              -0.000315449              -0.001161297               0.002925659               0.001764362               0.000000000               0.000000000               0.000000000               0.000000000              -0.000497056               0.007300780              -0.000299113              -0.001098991               0.002799899               0.001700908               0.000000000               0.000000000               0.000000000               0.000000000              -0.000416980               0.007016289              -0.000279327              -0.001033401               0.002683207               0.001649805               0.000000000               0.000000000               0.000000000               0.000000000              -0.000328150               0.006762004              -0.000253525              -0.000968304               0.002576747               0.001608443               0.000000000               0.000000000               0.000000000               0.000000000              -0.000241082               0.006538376              -0.000218221              -0.000907700               0.002482004               0.001574303               0.000000000               0.000000000               0.000000000               0.000000000              -0.000165695               0.006350522              -0.000177887              -0.000855949               0.002402136               0.001546187               0.000000000               0.000000000               0.000000000               0.000000000              -0.000107034               0.006202884              -0.000132305              -0.000815496               0.002339439               0.001523943               0.000000000               0.000000000               0.000000000               0.000000000              -0.000059870               0.006094609              -0.000080769              -0.000784276               0.002292941               0.001508666               0.000000000               0.000000000               0.000000000               0.000000000              -0.000022643               0.006026387              -0.000032359              -0.000761788               0.002262705               0.001500917               0.000000000               0.000000000               0.000000000               0.000000000              -0.000011595               0.005997518              -0.000013185              -0.000754036               0.002250498               0.001496462               0.000000000               0.000000000               0.000000000               0.000000000               0.001976538               0.009741993               0.003716754              -0.000476550               0.003406148               0.002929597               0.000000000               0.000000000               0.000000000               0.000000000               0.000471848               0.009279517               0.002260961              -0.000982996               0.003420806               0.002437810               0.000000000               0.000000000               0.000000000               0.000000000              -0.000620731               0.009328325               0.000844961              -0.001398811               0.003575681               0.002176870               0.000000000               0.000000000               0.000000000               0.000000000              -0.000952080               0.008966613               0.000325788              -0.001477853               0.003481459               0.002003606               0.000000000               0.000000000               0.000000000               0.000000000              -0.001007006               0.008541088               0.000105872              -0.001445260               0.003328754               0.001883494               0.000000000               0.000000000               0.000000000               0.000000000              -0.000954281               0.008132796               0.000007332              -0.001374451               0.003169055               0.001794604               0.000000000               0.000000000               0.000000000               0.000000000              -0.000854851               0.007760801              -0.000037973              -0.001290666               0.003017130               0.001726464               0.000000000               0.000000000               0.000000000               0.000000000              -0.000737638               0.007423577              -0.000058773              -0.001204558               0.002876021               0.001671462               0.000000000               0.000000000               0.000000000               0.000000000              -0.000615462               0.007117412              -0.000064543              -0.001120472               0.002745938               0.001625466               0.000000000               0.000000000               0.000000000               0.000000000              -0.000485095               0.006845671              -0.000064923              -0.001037617               0.002627740               0.001590123               0.000000000               0.000000000               0.000000000               0.000000000              -0.000358338               0.006609639              -0.000060583              -0.000960579               0.002523384               0.001562805               0.000000000               0.000000000               0.000000000               0.000000000              -0.000252175               0.006409194              -0.000048324              -0.000895713               0.002434947               0.001539235               0.000000000               0.000000000               0.000000000               0.000000000              -0.000170979               0.006246304              -0.000035222              -0.000844903               0.002363715               0.001518812               0.000000000               0.000000000               0.000000000               0.000000000              -0.000111203               0.006114343              -0.000022155              -0.000805992               0.002306758               0.001500766               0.000000000               0.000000000               0.000000000               0.000000000              -0.000067441               0.006005339              -0.000007054              -0.000775956               0.002260412               0.001484456               0.000000000               0.000000000               0.000000000               0.000000000              -0.000030555               0.005918302               0.000001624              -0.000751244               0.002223162               0.001471918               0.000000000               0.000000000               0.000000000               0.000000000              -0.000025745               0.005861128              -0.000005162              -0.000742293               0.002201121               0.001458827               0.000000000               0.000000000               0.000000000               0.000000000               0.001485036               0.007701102               0.003255169              -0.000405752               0.002702258               0.002296506               0.000000000               0.000000000               0.000000000               0.000000000              -0.000013440               0.008033865               0.002196593              -0.001009272               0.003014352               0.002005079               0.000000000               0.000000000               0.000000000               0.000000000              -0.001145752               0.008658906               0.001120952              -0.001512017               0.003390279               0.001878262               0.000000000               0.000000000               0.000000000               0.000000000              -0.001351915               0.008504960               0.000677889              -0.001570084               0.003358320               0.001788235               0.000000000               0.000000000               0.000000000               0.000000000              -0.001285287               0.008178439               0.000448453              -0.001504284               0.003227547               0.001723263               0.000000000               0.000000000               0.000000000               0.000000000              -0.001136189               0.007825083               0.000318781              -0.001404203               0.003076403               0.001672200               0.000000000               0.000000000               0.000000000               0.000000000              -0.000961050               0.007486839               0.000241601              -0.001296245               0.002927670               0.001631424               0.000000000               0.000000000               0.000000000               0.000000000              -0.000783802               0.007171392               0.000189266              -0.001190347               0.002787222               0.001596876               0.000000000               0.000000000               0.000000000               0.000000000              -0.000613256               0.006883612               0.000151391              -0.001090420               0.002657988               0.001567568               0.000000000               0.000000000               0.000000000               0.000000000              -0.000456201               0.006631600               0.000119716              -0.001000023               0.002543852               0.001543829               0.000000000               0.000000000               0.000000000               0.000000000              -0.000320317               0.006417240               0.000093321              -0.000922272               0.002446482               0.001524211               0.000000000               0.000000000               0.000000000               0.000000000              -0.000215959               0.006235828               0.000072691              -0.000860461               0.002365409               0.001504948               0.000000000               0.000000000               0.000000000               0.000000000              -0.000142908               0.006071383               0.000052206              -0.000812511               0.002294611               0.001482100               0.000000000               0.000000000               0.000000000               0.000000000              -0.000098483               0.005913005               0.000033909              -0.000776055               0.002229667               0.001453612               0.000000000               0.000000000               0.000000000               0.000000000              -0.000071448               0.005767923               0.000018340              -0.000747782               0.002171882               0.001424101               0.000000000               0.000000000               0.000000000               0.000000000              -0.000041730               0.005640072               0.000004138              -0.000720656               0.002120224               0.001399568               0.000000000               0.000000000               0.000000000               0.000000000              -0.000035556               0.005555527              -0.000010587              -0.000707772               0.002087748               0.001379976               0.000000000               0.000000000               0.000000000               0.000000000               0.000874693               0.005966376               0.002647838              -0.000417789               0.002128034               0.001710245               0.000000000               0.000000000               0.000000000               0.000000000              -0.000472076               0.006920700               0.002097848              -0.001042115               0.002654248               0.001612133               0.000000000               0.000000000               0.000000000               0.000000000              -0.001520268               0.008003750               0.001438349              -0.001570566               0.003191412               0.001620846               0.000000000               0.000000000               0.000000000               0.000000000              -0.001593165               0.008060308               0.001045257              -0.001604972               0.003221733               0.001616761               0.000000000               0.000000000               0.000000000               0.000000000              -0.001431685               0.007850036               0.000792934              -0.001518133               0.003122697               0.001604564               0.000000000               0.000000000               0.000000000               0.000000000              -0.001214624               0.007566258               0.000624519              -0.001401263               0.002989149               0.001587885               0.000000000               0.000000000               0.000000000               0.000000000              -0.000986720               0.007272872               0.000508971              -0.001279126               0.002850642               0.001571516               0.000000000               0.000000000               0.000000000               0.000000000              -0.000765395               0.006988934               0.000421369              -0.001160637               0.002716500               0.001555864               0.000000000               0.000000000               0.000000000               0.000000000              -0.000560780               0.006726356               0.000348506              -0.001051084               0.002592458               0.001541373               0.000000000               0.000000000               0.000000000               0.000000000              -0.000385914               0.006494966               0.000281741              -0.000956586               0.002483829               0.001527243               0.000000000               0.000000000               0.000000000               0.000000000              -0.000245895               0.006299441               0.000220719              -0.000879639               0.002393006               0.001513367               0.000000000               0.000000000               0.000000000               0.000000000              -0.000152964               0.006108220               0.000168986              -0.000820887               0.002309682               0.001488795               0.000000000               0.000000000               0.000000000               0.000000000              -0.000112657               0.005900170               0.000124192              -0.000779766               0.002226626               0.001446860               0.000000000               0.000000000               0.000000000               0.000000000              -0.000104361               0.005698848               0.000082638              -0.000751490               0.002150094               0.001398604               0.000000000               0.000000000               0.000000000               0.000000000              -0.000112507               0.005512511               0.000044294              -0.000731252               0.002081236               0.001349984               0.000000000               0.000000000               0.000000000               0.000000000              -0.000124301               0.005336972               0.000015061              -0.000713733               0.002016884               0.001303151               0.000000000               0.000000000               0.000000000               0.000000000              -0.000129164               0.005238263               0.000000129              -0.000703218               0.001980476               0.001277259               0.000000000               0.000000000               0.000000000               0.000000000               0.000129610               0.004340111               0.001990298              -0.000493911               0.001611325               0.001117415               0.000000000               0.000000000               0.000000000               0.000000000              -0.000828816               0.005635120               0.001980563              -0.001015195               0.002216752               0.001201558               0.000000000               0.000000000               0.000000000               0.000000000              -0.001692091               0.007046613               0.001779011              -0.001515358               0.002853966               0.001338609               0.000000000               0.000000000               0.000000000               0.000000000              -0.001702160               0.007393732               0.001447487              -0.001562523               0.002985393               0.001422870               0.000000000               0.000000000               0.000000000               0.000000000              -0.001505504               0.007380735               0.001174051              -0.001487152               0.002955938               0.001468785               0.000000000               0.000000000               0.000000000               0.000000000              -0.001267918               0.007239757               0.000964735              -0.001380435               0.002873373               0.001492938               0.000000000               0.000000000               0.000000000               0.000000000              -0.001028516               0.007049545               0.000807469              -0.001266883               0.002772119               0.001505236               0.000000000               0.000000000               0.000000000               0.000000000              -0.000796593               0.006844464               0.000684333              -0.001154278               0.002666224               0.001511947               0.000000000               0.000000000               0.000000000               0.000000000              -0.000584523               0.006635016               0.000576583              -0.001048570               0.002561173               0.001512603               0.000000000               0.000000000               0.000000000               0.000000000              -0.000401168               0.006439016               0.000475617              -0.000955313               0.002464755               0.001509442               0.000000000               0.000000000               0.000000000               0.000000000              -0.000253848               0.006262184               0.000383069              -0.000877964               0.002380028               0.001502064               0.000000000               0.000000000               0.000000000               0.000000000              -0.000158125               0.006060237               0.000297054              -0.000816824               0.002292333               0.001475509               0.000000000               0.000000000               0.000000000               0.000000000              -0.000117211               0.005835186               0.000216725              -0.000773350               0.002202826               0.001429476               0.000000000               0.000000000               0.000000000               0.000000000              -0.000123341               0.005613341               0.000143336              -0.000747919               0.002120401               0.001372482               0.000000000               0.000000000               0.000000000               0.000000000              -0.000165689               0.005399217               0.000076510              -0.000737034               0.002045399               0.001308365               0.000000000               0.000000000               0.000000000               0.000000000              -0.000227766               0.005196013               0.000026736              -0.000734912               0.001976958               0.001242046               0.000000000               0.000000000               0.000000000               0.000000000              -0.000264183               0.005090375               0.000005596              -0.000735364               0.001941896               0.001206532               0.000000000               0.000000000               0.000000000               0.000000000              -0.000870465               0.002859084               0.001321142              -0.000683809               0.001180954               0.000497145               0.000000000               0.000000000               0.000000000               0.000000000              -0.001237561               0.004350797               0.001797593              -0.001007934               0.001786228               0.000778295               0.000000000               0.000000000               0.000000000               0.000000000              -0.001775158               0.005949927               0.002042149              -0.001409423               0.002453096               0.001043673               0.000000000               0.000000000               0.000000000               0.000000000              -0.001729528               0.006570966               0.001827713              -0.001469941               0.002680280               0.001210339               0.000000000               0.000000000               0.000000000               0.000000000              -0.001521972               0.006783027               0.001560743              -0.001418615               0.002733858               0.001315243               0.000000000               0.000000000               0.000000000               0.000000000              -0.001283817               0.006812994               0.001326562              -0.001333053               0.002715326               0.001382273               0.000000000               0.000000000               0.000000000               0.000000000              -0.001046169               0.006757948               0.001136835              -0.001237054               0.002664978               0.001427924               0.000000000               0.000000000               0.000000000               0.000000000              -0.000817030               0.006659837               0.000979984              -0.001138863               0.002599544               0.001460681               0.000000000               0.000000000               0.000000000               0.000000000              -0.000607501               0.006528370               0.000841735              -0.001043857               0.002524054               0.001480197               0.000000000               0.000000000               0.000000000               0.000000000              -0.000415925               0.006385795               0.000717113              -0.000954194               0.002446641               0.001492448               0.000000000               0.000000000               0.000000000               0.000000000              -0.000250043               0.006239147               0.000601569              -0.000873657               0.002370914               0.001497257               0.000000000               0.000000000               0.000000000               0.000000000              -0.000133872               0.006056825               0.000488611              -0.000807303               0.002288022               0.001480719               0.000000000               0.000000000               0.000000000               0.000000000              -0.000073693               0.005845417               0.000374595              -0.000758310               0.002201223               0.001442913               0.000000000               0.000000000               0.000000000               0.000000000              -0.000066836               0.005627605               0.000261700              -0.000728513               0.002118687               0.001390175               0.000000000               0.000000000               0.000000000               0.000000000              -0.000112594               0.005408593               0.000155692              -0.000718295               0.002042278               0.001323983               0.000000000               0.000000000               0.000000000               0.000000000              -0.000203406               0.005197080               0.000067382              -0.000725910               0.001974313               0.001248402               0.000000000               0.000000000               0.000000000               0.000000000              -0.000276057               0.005082411               0.000022442              -0.000738821               0.001940394               0.001201573               0.000000000               0.000000000               0.000000000               0.000000000              -0.002055700               0.001626796               0.000685588              -0.000974235               0.000867004              -0.000107231               0.000000000               0.000000000               0.000000000               0.000000000              -0.001750858               0.003138043               0.001524398              -0.001048825               0.001395611               0.000346786               0.000000000               0.000000000               0.000000000               0.000000000              -0.001818114               0.004726413               0.002132372              -0.001272592               0.001999652               0.000727060               0.000000000               0.000000000               0.000000000               0.000000000              -0.001656567               0.005543190               0.002068298              -0.001314109               0.002285747               0.000971638               0.000000000               0.000000000               0.000000000               0.000000000              -0.001427342               0.005963829               0.001848905              -0.001280729               0.002414832               0.001134103               0.000000000               0.000000000               0.000000000               0.000000000              -0.001188121               0.006174925               0.001620302              -0.001217409               0.002464090               0.001246681               0.000000000               0.000000000               0.000000000               0.000000000              -0.000962203               0.006272394               0.001417709              -0.001144873               0.002472401               0.001327528               0.000000000               0.000000000               0.000000000               0.000000000              -0.000749704               0.006302402               0.001239601              -0.001068937               0.002457092               0.001388155               0.000000000               0.000000000               0.000000000               0.000000000              -0.000547460               0.006279372               0.001083934              -0.000990217               0.002423175               0.001432958               0.000000000               0.000000000               0.000000000               0.000000000              -0.000353524               0.006217209               0.000949481              -0.000909721               0.002375622               0.001465902               0.000000000               0.000000000               0.000000000               0.000000000              -0.000177516               0.006124046               0.000823561              -0.000832072               0.002318686               0.001486613               0.000000000               0.000000000               0.000000000               0.000000000              -0.000041944               0.005984589               0.000691984              -0.000763801               0.002249443               0.001485642               0.000000000               0.000000000               0.000000000               0.000000000               0.000042859               0.005809014               0.000553126              -0.000710053               0.002173003               0.001462950               0.000000000               0.000000000               0.000000000               0.000000000               0.000076151               0.005611477               0.000410572              -0.000672876               0.002094766               0.001421889               0.000000000               0.000000000               0.000000000               0.000000000               0.000055944               0.005407390               0.000265642              -0.000654943               0.002020760               0.001365816               0.000000000               0.000000000               0.000000000               0.000000000              -0.000024350               0.005204520               0.000127248              -0.000659695               0.001954721               0.001295026               0.000000000               0.000000000               0.000000000               0.000000000              -0.000104826               0.005085922               0.000052981              -0.000675048               0.001920306               0.001245258               0.000000000               0.000000000               0.000000000               0.000000000              -0.003339270               0.000702923               0.000165627              -0.001340090               0.000681000              -0.000659090               0.000000000               0.000000000               0.000000000               0.000000000              -0.002335482               0.002062336               0.001193707              -0.001133596               0.001065303              -0.000068293               0.000000000               0.000000000               0.000000000               0.000000000              -0.001846733               0.003479438               0.002026375              -0.001127453               0.001535618               0.000408165               0.000000000               0.000000000               0.000000000               0.000000000              -0.001506442               0.004394332               0.002105225              -0.001114206               0.001836164               0.000721958               0.000000000               0.000000000               0.000000000               0.000000000              -0.001229377               0.004979837               0.001961480              -0.001083494               0.002021093               0.000937599               0.000000000               0.000000000               0.000000000               0.000000000              -0.000985242               0.005361517               0.001766433              -0.001039654               0.002133705               0.001094051               0.000000000               0.000000000               0.000000000               0.000000000              -0.000768934               0.005614363               0.001572970              -0.000990144               0.002201483               0.001211339               0.000000000               0.000000000               0.000000000               0.000000000              -0.000575202               0.005778762               0.001396230              -0.000938044               0.002238916               0.001300872               0.000000000               0.000000000               0.000000000               0.000000000              -0.000387092               0.005873975               0.001243239              -0.000879405               0.002251107               0.001371702               0.000000000               0.000000000               0.000000000               0.000000000              -0.000200353               0.005915274               0.001109565              -0.000814540               0.002243251               0.001428711               0.000000000               0.000000000               0.000000000               0.000000000              -0.000024600               0.005905068               0.000982221              -0.000747357               0.002217455               0.001470098               0.000000000               0.000000000               0.000000000               0.000000000               0.000123233               0.005827004               0.000847169              -0.000682162               0.002169703               0.001487541               0.000000000               0.000000000               0.000000000               0.000000000               0.000236910               0.005702456               0.000700675              -0.000623964               0.002108788               0.001484823               0.000000000               0.000000000               0.000000000               0.000000000               0.000310068               0.005548571               0.000545162              -0.000577295               0.002041937               0.001464642               0.000000000               0.000000000               0.000000000               0.000000000               0.000339348               0.005376606               0.000377671              -0.000544819               0.001973790               0.001428971               0.000000000               0.000000000               0.000000000               0.000000000               0.000310741               0.005193269               0.000195729              -0.000532630               0.001908616               0.001375986               0.000000000               0.000000000               0.000000000               0.000000000               0.000260345               0.005085979               0.000096018              -0.000538117               0.001874681               0.001336565               0.000000000               0.000000000               0.000000000               0.000000000              -0.004591562               0.000081796              -0.000167438              -0.001732059               0.000604614              -0.001127445               0.000000000               0.000000000               0.000000000               0.000000000              -0.002935732               0.001183201               0.000849302              -0.001248798               0.000810661              -0.000438137               0.000000000               0.000000000               0.000000000               0.000000000              -0.001876341               0.002325991               0.001724596              -0.000994375               0.001106780               0.000112405               0.000000000               0.000000000               0.000000000               0.000000000              -0.001316489               0.003251683               0.001896866              -0.000900143               0.001383930               0.000483787               0.000000000               0.000000000               0.000000000               0.000000000              -0.000963845               0.003947270               0.001829529              -0.000854850               0.001600693               0.000745843               0.000000000               0.000000000               0.000000000               0.000000000              -0.000706633               0.004467026               0.001686196              -0.000823365               0.001763448               0.000940083               0.000000000               0.000000000               0.000000000               0.000000000              -0.000498216               0.004854500               0.001526396              -0.000793642               0.001882697               0.001089055               0.000000000               0.000000000               0.000000000               0.000000000              -0.000314118               0.005142099               0.001375987              -0.000760556               0.001967534               0.001206979               0.000000000               0.000000000               0.000000000               0.000000000              -0.000141811               0.005352523               0.001244317              -0.000722243               0.002024904               0.001302661               0.000000000               0.000000000               0.000000000               0.000000000               0.000028835               0.005506406               0.001125557              -0.000677487               0.002061279               0.001383792               0.000000000               0.000000000               0.000000000               0.000000000               0.000196266               0.005595593               0.001010363              -0.000625848               0.002073795               0.001447947               0.000000000               0.000000000               0.000000000               0.000000000               0.000350283               0.005598641               0.000887311              -0.000568473               0.002055686               0.001487213               0.000000000               0.000000000               0.000000000               0.000000000               0.000491951               0.005542958               0.000751355              -0.000508387               0.002017096               0.001508709               0.000000000               0.000000000               0.000000000               0.000000000               0.000618231               0.005447780               0.000605793              -0.000449135               0.001965620               0.001516485               0.000000000               0.000000000               0.000000000               0.000000000               0.000724354               0.005319259               0.000442394              -0.000393274               0.001904160               0.001510886               0.000000000               0.000000000               0.000000000               0.000000000               0.000794513               0.005165962               0.000242093              -0.000347802               0.001837904               0.001490102               0.000000000               0.000000000               0.000000000               0.000000000               0.000823023               0.005083178               0.000131001              -0.000326763               0.001803297               0.001476534               0.000000000               0.000000000               0.000000000               0.000000000              -0.005648542              -0.000285092              -0.000282695              -0.002082565               0.000599154              -0.001483412               0.000000000               0.000000000               0.000000000               0.000000000              -0.003463880               0.000539172               0.000526394              -0.001366350               0.000635169              -0.000731181               0.000000000               0.000000000               0.000000000               0.000000000              -0.001909319               0.001389344               0.001250503              -0.000889661               0.000759662              -0.000129999               0.000000000               0.000000000               0.000000000               0.000000000              -0.001138865               0.002269608               0.001437076              -0.000710774               0.000993453               0.000282678               0.000000000               0.000000000               0.000000000               0.000000000              -0.000701834               0.003021046               0.001423670              -0.000640818               0.001220611               0.000579793               0.000000000               0.000000000               0.000000000               0.000000000              -0.000417618               0.003634626               0.001335692              -0.000610934               0.001415174               0.000804240               0.000000000               0.000000000               0.000000000               0.000000000              -0.000208223               0.004125052               0.001226149              -0.000593714               0.001572908               0.000979194               0.000000000               0.000000000               0.000000000               0.000000000              -0.000030930               0.004513032               0.001120172              -0.000575727               0.001696238               0.001120511               0.000000000               0.000000000               0.000000000               0.000000000               0.000129761               0.004819799               0.001024922              -0.000553813               0.001791188               0.001237374               0.000000000               0.000000000               0.000000000               0.000000000               0.000288123               0.005067821               0.000937635              -0.000525431               0.001864400               0.001338969               0.000000000               0.000000000               0.000000000               0.000000000               0.000446377               0.005248360               0.000850571              -0.000488653               0.001912320               0.001423667               0.000000000               0.000000000               0.000000000               0.000000000               0.000601567               0.005337427               0.000755518              -0.000441590               0.001926321               0.001484731               0.000000000               0.000000000               0.000000000               0.000000000               0.000766778               0.005355257               0.000649863              -0.000381865               0.001912356               0.001530491               0.000000000               0.000000000               0.000000000               0.000000000               0.000948082               0.005320802               0.000536876              -0.000309569               0.001876772               0.001567203               0.000000000               0.000000000               0.000000000               0.000000000               0.001139484               0.005243533               0.000403693              -0.000228135               0.001823872               0.001595737               0.000000000               0.000000000               0.000000000               0.000000000               0.001340110               0.005132171               0.000225976              -0.000138980               0.001757033               0.001618053               0.000000000               0.000000000               0.000000000               0.000000000               0.001488696               0.005083535               0.000128963              -0.000077181               0.001720222               0.001643041               0.000000000               0.000000000               0.000000000               0.000000000              -0.006357185              -0.000464424              -0.000199447              -0.002325890               0.000620485              -0.001705405               0.000000000               0.000000000               0.000000000               0.000000000              -0.003830342               0.000150609               0.000247205              -0.001455203               0.000535267              -0.000919936               0.000000000               0.000000000               0.000000000               0.000000000              -0.001938783               0.000779410               0.000656071              -0.000824469               0.000534622              -0.000289846               0.000000000               0.000000000               0.000000000               0.000000000              -0.001015064               0.001605744               0.000774837              -0.000581366               0.000729031               0.000147665               0.000000000               0.000000000               0.000000000               0.000000000              -0.000511873               0.002378089               0.000780410              -0.000489213               0.000955759               0.000466546               0.000000000               0.000000000               0.000000000               0.000000000              -0.000202711               0.003038987               0.000740354              -0.000455889               0.001164948               0.000709059               0.000000000               0.000000000               0.000000000               0.000000000               0.000016214               0.003588767               0.000685795              -0.000442515               0.001343749               0.000901234               0.000000000               0.000000000               0.000000000               0.000000000               0.000190700               0.004040662               0.000631338              -0.000433570               0.001491397               0.001057827               0.000000000               0.000000000               0.000000000               0.000000000               0.000344907               0.004411471               0.000581831              -0.000422093               0.001611173               0.001189080               0.000000000               0.000000000               0.000000000               0.000000000               0.000495640               0.004724371               0.000536372              -0.000404681               0.001709668               0.001304987               0.000000000               0.000000000               0.000000000               0.000000000               0.000648699               0.004968484               0.000489308              -0.000377798               0.001782077               0.001404280               0.000000000               0.000000000               0.000000000               0.000000000               0.000805959               0.005115297               0.000437573              -0.000337177               0.001817474               0.001480297               0.000000000               0.000000000               0.000000000               0.000000000               0.000986464               0.005185726               0.000381789              -0.000278291               0.001821322               0.001543031               0.000000000               0.000000000               0.000000000               0.000000000               0.001203453               0.005201745               0.000318520              -0.000198923               0.001800205               0.001601282               0.000000000               0.000000000               0.000000000               0.000000000               0.001462581               0.005173392               0.000241425              -0.000098206               0.001757182               0.001658976               0.000000000               0.000000000               0.000000000               0.000000000               0.001777360               0.005100935               0.000137034               0.000028893               0.001690664               0.001719557               0.000000000               0.000000000               0.000000000               0.000000000               0.002036650               0.005081813               0.000080520               0.000128516               0.001651082               0.001779598               0.000000000               0.000000000               0.000000000               0.000000000               0.000000000               0.000000000               0.000000000               0.000000000               0.000000000               0.000000000               0.000000000               0.000000000               0.000000000               0.000000000               0.000000000               0.000000000               0.000000000               0.000000000               0.000000000               0.000000000               0.000000000               0.000000000               0.000000000               0.000000000               0.000000000               0.000000000               0.000000000               0.000000000               0.000000000               0.000000000               0.000000000               0.000000000               0.000000000               0.000000000               0.000000000               0.000000000               0.000000000               0.000000000               0.000000000               0.000000000               0.000000000               0.000000000               0.000000000               0.000000000               0.000000000               0.000000000               0.000000000               0.000000000               0.000000000               0.000000000               0.000000000               0.000000000               0.000000000               0.000000000               0.000000000               0.000000000               0.000000000               0.000000000               0.000000000               0.000000000               0.000000000               0.000000000               0.000000000               0.000000000               0.000000000               0.000000000               0.000000000               0.000000000               0.000000000               0.000000000               0.000000000               0.000000000               0.000000000               0.000000000               0.000000000               0.000000000               0.000000000               0.000000000               0.000000000               0.000000000               0.000000000               0.000000000               0.000000000               0.000000000               0.000000000               0.000000000               0.000000000               0.000000000               0.000000000               0.000000000               0.000000000               0.000000000               0.000000000               0.000000000               0.000000000               0.000000000               0.000000000               0.000000000               0.000000000               0.000000000               0.000000000               0.000000000               0.000000000               0.000000000               0.000000000               0.000000000               0.000000000               0.000000000               0.000000000               0.000000000               0.000000000               0.000000000               0.000000000               0.000000000               0.000000000               0.000000000               0.000000000               0.000000000               0.000000000               0.000000000               0.000000000               0.000000000               0.000000000               0.000000000               0.000000000               0.000000000               0.000000000               0.000000000               0.000000000               0.000000000               0.000000000               0.000000000               0.000000000               0.000000000               0.000000000               0.000000000               0.000000000               0.000000000               0.000000000               0.000000000               0.000000000               0.000000000               0.000000000               0.000000000               0.000000000               0.000000000               0.000000000               0.000000000               0.000000000               0.000000000               0.000000000               0.000000000               0.000000000               0.000000000               0.000000000               0.000000000               0.000000000               0.000000000               0.000000000               0.000000000               0.000000000               0.000000000               0.000000000               0.000000000               0.000000000               0.000000000               0.000000000               0.000000000               0.000000000               0.000000000               0.000000000               0.000000000               0.000000000               0.000000000 </DataArray>
</PointData>
</Piece>
</UnstructuredGrid> </VTKFile>
