<?xml version="1.0"?>
<VTKFile type="UnstructuredGrid" version="0.1">
<UnstructuredGrid>
<Piece NumberOfPoints="      1156" NumberOfCells="      1024">
<Points>
<DataArray type="Float64"                                    Name="coordinates"                                                      NumberOfComponents=" 3" format="ascii">
              0.133000000               0.000000000               0.000000000               0.155937500               0.000000000               0.000000000               0.178875000               0.000000000               0.000000000               0.201812500               0.000000000               0.000000000               0.224750000               0.000000000               0.000000000               0.247687500               0.000000000               0.000000000               0.270625000               0.000000000               0.000000000               0.293562500               0.000000000               0.000000000               0.316500000               0.000000000               0.000000000               0.339437500               0.000000000               0.000000000               0.362375000               0.000000000               0.000000000               0.385312500               0.000000000               0.000000000               0.408250000               0.000000000               0.000000000               0.431187500               0.000000000               0.000000000               0.454125000               0.000000000               0.000000000               0.477062500               0.000000000               0.000000000               0.500000000               0.000000000               0.000000000               0.132359569               0.013036280               0.000000000               0.155337096               0.016127762               0.000000000               0.178314623               0.019219245               0.000000000               0.201292150               0.022310727               0.000000000               0.224269676               0.025402210               0.000000000               0.247247203               0.028493692               0.000000000               0.270224730               0.031585175               0.000000000               0.293202257               0.034676657               0.000000000               0.316179784               0.037768140               0.000000000               0.339157311               0.040859622               0.000000000               0.362134838               0.043951105               0.000000000               0.385112365               0.047042587               0.000000000               0.408089892               0.050134070               0.000000000               0.431067419               0.053225552               0.000000000               0.454044946               0.056317035               0.000000000               0.477022473               0.059408517               0.000000000               0.500000000               0.062500000               0.000000000               0.130444442               0.025947013               0.000000000               0.153541665               0.032137825               0.000000000               0.176638887               0.038328636               0.000000000               0.199736109               0.044519448               0.000000000               0.222833332               0.050710260               0.000000000               0.245930554               0.056901071               0.000000000               0.269027776               0.063091883               0.000000000               0.292124999               0.069282695               0.000000000               0.315222221               0.075473506               0.000000000               0.338319444               0.081664318               0.000000000               0.361416666               0.087855130               0.000000000               0.384513888               0.094045942               0.000000000               0.407611111               0.100236753               0.000000000               0.430708333               0.106427565               0.000000000               0.453805555               0.112618377               0.000000000               0.476902778               0.118809188               0.000000000               0.500000000               0.125000000               0.000000000               0.127273065               0.038607862               0.000000000               0.150568498               0.047913621               0.000000000               0.173863932               0.057219379               0.000000000               0.197159365               0.066525138               0.000000000               0.220454798               0.075830897               0.000000000               0.243750232               0.085136655               0.000000000               0.267045665               0.094442414               0.000000000               0.290341099               0.103748172               0.000000000               0.313636532               0.113053931               0.000000000               0.336931966               0.122359690               0.000000000               0.360227399               0.131665448               0.000000000               0.383522833               0.140971207               0.000000000               0.406818266               0.150276966               0.000000000               0.430113700               0.159582724               0.000000000               0.453409133               0.168888483               0.000000000               0.476704567               0.178194241               0.000000000               0.500000000               0.187500000               0.000000000               0.122875978               0.050896897               0.000000000               0.146446229               0.063340840               0.000000000               0.170016481               0.075784784               0.000000000               0.193586732               0.088228728               0.000000000               0.217156983               0.100672672               0.000000000               0.240727235               0.113116616               0.000000000               0.264297486               0.125560560               0.000000000               0.287867738               0.138004504               0.000000000               0.311437989               0.150448448               0.000000000               0.335008240               0.162892392               0.000000000               0.358578492               0.175336336               0.000000000               0.382148743               0.187780280               0.000000000               0.405718994               0.200224224               0.000000000               0.429289246               0.212668168               0.000000000               0.452859497               0.225112112               0.000000000               0.476429749               0.237556056               0.000000000               0.500000000               0.250000000               0.000000000               0.117295528               0.062695766               0.000000000               0.141214558               0.078308531               0.000000000               0.165133587               0.093921295               0.000000000               0.189052617               0.109534060               0.000000000               0.212971646               0.125146824               0.000000000               0.236890676               0.140759589               0.000000000               0.260809705               0.156372354               0.000000000               0.284728735               0.171985118               0.000000000               0.308647764               0.187597883               0.000000000               0.332566794               0.203210648               0.000000000               0.356485823               0.218823412               0.000000000               0.380404853               0.234436177               0.000000000               0.404323882               0.250048941               0.000000000               0.428242912               0.265661706               0.000000000               0.452161941               0.281274471               0.000000000               0.476080971               0.296887235               0.000000000               0.500000000               0.312500000               0.000000000               0.110585458               0.073890841               0.000000000               0.134923867               0.092710163               0.000000000               0.159262276               0.111529486               0.000000000               0.183600685               0.130348808               0.000000000               0.207939094               0.149168131               0.000000000               0.232277503               0.167987453               0.000000000               0.256615912               0.186806776               0.000000000               0.280954320               0.205626098               0.000000000               0.305292729               0.224445420               0.000000000               0.329631138               0.243264743               0.000000000               0.353969547               0.262084065               0.000000000               0.378307956               0.280903388               0.000000000               0.402646365               0.299722710               0.000000000               0.426984773               0.318542033               0.000000000               0.451323182               0.337361355               0.000000000               0.475661591               0.356180678               0.000000000               0.500000000               0.375000000               0.000000000               0.102810390               0.084374307               0.000000000               0.127634741               0.106444663               0.000000000               0.152459092               0.128515018               0.000000000               0.177283442               0.150585374               0.000000000               0.202107793               0.172655730               0.000000000               0.226932143               0.194726086               0.000000000               0.251756494               0.216796442               0.000000000               0.276580845               0.238866798               0.000000000               0.301405195               0.260937153               0.000000000               0.326229546               0.283007509               0.000000000               0.351053896               0.305077865               0.000000000               0.375878247               0.327148221               0.000000000               0.400702598               0.349218577               0.000000000               0.425526948               0.371288933               0.000000000               0.450351299               0.393359288               0.000000000               0.475175649               0.415429644               0.000000000               0.500000000               0.437500000               0.000000000               0.094045202               0.094045202               0.000000000               0.119417377               0.119417377               0.000000000               0.144789552               0.144789552               0.000000000               0.170161727               0.170161727               0.000000000               0.195533901               0.195533901               0.000000000               0.220906076               0.220906076               0.000000000               0.246278251               0.246278251               0.000000000               0.271650426               0.271650426               0.000000000               0.297022601               0.297022601               0.000000000               0.322394776               0.322394776               0.000000000               0.347766951               0.347766951               0.000000000               0.373139126               0.373139126               0.000000000               0.398511300               0.398511300               0.000000000               0.423883475               0.423883475               0.000000000               0.449255650               0.449255650               0.000000000               0.474627825               0.474627825               0.000000000               0.500000000               0.500000000               0.000000000               0.084374307               0.102810390               0.000000000               0.106444663               0.127634741               0.000000000               0.128515018               0.152459092               0.000000000               0.150585374               0.177283442               0.000000000               0.172655730               0.202107793               0.000000000               0.194726086               0.226932143               0.000000000               0.216796442               0.251756494               0.000000000               0.238866798               0.276580845               0.000000000               0.260937153               0.301405195               0.000000000               0.283007509               0.326229546               0.000000000               0.305077865               0.351053896               0.000000000               0.327148221               0.375878247               0.000000000               0.349218577               0.400702598               0.000000000               0.371288933               0.425526948               0.000000000               0.393359288               0.450351299               0.000000000               0.415429644               0.475175649               0.000000000               0.437500000               0.500000000               0.000000000               0.073890841               0.110585458               0.000000000               0.092710163               0.134923867               0.000000000               0.111529486               0.159262276               0.000000000               0.130348808               0.183600685               0.000000000               0.149168131               0.207939094               0.000000000               0.167987453               0.232277503               0.000000000               0.186806776               0.256615912               0.000000000               0.205626098               0.280954320               0.000000000               0.224445420               0.305292729               0.000000000               0.243264743               0.329631138               0.000000000               0.262084065               0.353969547               0.000000000               0.280903388               0.378307956               0.000000000               0.299722710               0.402646365               0.000000000               0.318542033               0.426984773               0.000000000               0.337361355               0.451323182               0.000000000               0.356180678               0.475661591               0.000000000               0.375000000               0.500000000               0.000000000               0.062695766               0.117295528               0.000000000               0.078308531               0.141214558               0.000000000               0.093921295               0.165133587               0.000000000               0.109534060               0.189052617               0.000000000               0.125146824               0.212971646               0.000000000               0.140759589               0.236890676               0.000000000               0.156372354               0.260809705               0.000000000               0.171985118               0.284728735               0.000000000               0.187597883               0.308647764               0.000000000               0.203210648               0.332566794               0.000000000               0.218823412               0.356485823               0.000000000               0.234436177               0.380404853               0.000000000               0.250048941               0.404323882               0.000000000               0.265661706               0.428242912               0.000000000               0.281274471               0.452161941               0.000000000               0.296887235               0.476080971               0.000000000               0.312500000               0.500000000               0.000000000               0.050896897               0.122875978               0.000000000               0.063340840               0.146446229               0.000000000               0.075784784               0.170016481               0.000000000               0.088228728               0.193586732               0.000000000               0.100672672               0.217156983               0.000000000               0.113116616               0.240727235               0.000000000               0.125560560               0.264297486               0.000000000               0.138004504               0.287867738               0.000000000               0.150448448               0.311437989               0.000000000               0.162892392               0.335008240               0.000000000               0.175336336               0.358578492               0.000000000               0.187780280               0.382148743               0.000000000               0.200224224               0.405718994               0.000000000               0.212668168               0.429289246               0.000000000               0.225112112               0.452859497               0.000000000               0.237556056               0.476429749               0.000000000               0.250000000               0.500000000               0.000000000               0.038607862               0.127273065               0.000000000               0.047913621               0.150568498               0.000000000               0.057219379               0.173863932               0.000000000               0.066525138               0.197159365               0.000000000               0.075830897               0.220454798               0.000000000               0.085136655               0.243750232               0.000000000               0.094442414               0.267045665               0.000000000               0.103748172               0.290341099               0.000000000               0.113053931               0.313636532               0.000000000               0.122359690               0.336931966               0.000000000               0.131665448               0.360227399               0.000000000               0.140971207               0.383522833               0.000000000               0.150276966               0.406818266               0.000000000               0.159582724               0.430113700               0.000000000               0.168888483               0.453409133               0.000000000               0.178194241               0.476704567               0.000000000               0.187500000               0.500000000               0.000000000               0.025947013               0.130444442               0.000000000               0.032137825               0.153541665               0.000000000               0.038328636               0.176638887               0.000000000               0.044519448               0.199736109               0.000000000               0.050710260               0.222833332               0.000000000               0.056901071               0.245930554               0.000000000               0.063091883               0.269027776               0.000000000               0.069282695               0.292124999               0.000000000               0.075473506               0.315222221               0.000000000               0.081664318               0.338319444               0.000000000               0.087855130               0.361416666               0.000000000               0.094045942               0.384513888               0.000000000               0.100236753               0.407611111               0.000000000               0.106427565               0.430708333               0.000000000               0.112618377               0.453805555               0.000000000               0.118809188               0.476902778               0.000000000               0.125000000               0.500000000               0.000000000               0.013036280               0.132359569               0.000000000               0.016127762               0.155337096               0.000000000               0.019219245               0.178314623               0.000000000               0.022310727               0.201292150               0.000000000               0.025402210               0.224269676               0.000000000               0.028493692               0.247247203               0.000000000               0.031585175               0.270224730               0.000000000               0.034676657               0.293202257               0.000000000               0.037768140               0.316179784               0.000000000               0.040859622               0.339157311               0.000000000               0.043951105               0.362134838               0.000000000               0.047042587               0.385112365               0.000000000               0.050134070               0.408089892               0.000000000               0.053225552               0.431067419               0.000000000               0.056317035               0.454044946               0.000000000               0.059408517               0.477022473               0.000000000               0.062500000               0.500000000               0.000000000               0.000000000               0.133000000               0.000000000               0.000000000               0.155937500               0.000000000               0.000000000               0.178875000               0.000000000               0.000000000               0.201812500               0.000000000               0.000000000               0.224750000               0.000000000               0.000000000               0.247687500               0.000000000               0.000000000               0.270625000               0.000000000               0.000000000               0.293562500               0.000000000               0.000000000               0.316500000               0.000000000               0.000000000               0.339437500               0.000000000               0.000000000               0.362375000               0.000000000               0.000000000               0.385312500               0.000000000               0.000000000               0.408250000               0.000000000               0.000000000               0.431187500               0.000000000               0.000000000               0.454125000               0.000000000               0.000000000               0.477062500               0.000000000               0.000000000               0.500000000               0.000000000               0.133000000               0.000000000               0.000000000               0.155937500               0.000000000               0.000000000               0.178875000               0.000000000               0.000000000               0.201812500               0.000000000               0.000000000               0.224750000               0.000000000               0.000000000               0.247687500               0.000000000               0.000000000               0.270625000               0.000000000               0.000000000               0.293562500               0.000000000               0.000000000               0.316500000               0.000000000               0.000000000               0.339437500               0.000000000               0.000000000               0.362375000               0.000000000               0.000000000               0.385312500               0.000000000               0.000000000               0.408250000               0.000000000               0.000000000               0.431187500               0.000000000               0.000000000               0.454125000               0.000000000               0.000000000               0.477062500               0.000000000               0.000000000               0.500000000               0.000000000               0.000000000               0.132359569              -0.013036280               0.000000000               0.155337096              -0.016127762               0.000000000               0.178314623              -0.019219245               0.000000000               0.201292150              -0.022310727               0.000000000               0.224269676              -0.025402210               0.000000000               0.247247203              -0.028493692               0.000000000               0.270224730              -0.031585175               0.000000000               0.293202257              -0.034676657               0.000000000               0.316179784              -0.037768140               0.000000000               0.339157311              -0.040859622               0.000000000               0.362134838              -0.043951105               0.000000000               0.385112365              -0.047042587               0.000000000               0.408089892              -0.050134070               0.000000000               0.431067419              -0.053225552               0.000000000               0.454044946              -0.056317035               0.000000000               0.477022473              -0.059408517               0.000000000               0.500000000              -0.062500000               0.000000000               0.130444442              -0.025947013               0.000000000               0.153541665              -0.032137825               0.000000000               0.176638887              -0.038328636               0.000000000               0.199736109              -0.044519448               0.000000000               0.222833332              -0.050710260               0.000000000               0.245930554              -0.056901071               0.000000000               0.269027776              -0.063091883               0.000000000               0.292124999              -0.069282695               0.000000000               0.315222221              -0.075473506               0.000000000               0.338319444              -0.081664318               0.000000000               0.361416666              -0.087855130               0.000000000               0.384513888              -0.094045942               0.000000000               0.407611111              -0.100236753               0.000000000               0.430708333              -0.106427565               0.000000000               0.453805555              -0.112618377               0.000000000               0.476902778              -0.118809188               0.000000000               0.500000000              -0.125000000               0.000000000               0.127273065              -0.038607862               0.000000000               0.150568498              -0.047913621               0.000000000               0.173863932              -0.057219379               0.000000000               0.197159365              -0.066525138               0.000000000               0.220454798              -0.075830897               0.000000000               0.243750232              -0.085136655               0.000000000               0.267045665              -0.094442414               0.000000000               0.290341099              -0.103748172               0.000000000               0.313636532              -0.113053931               0.000000000               0.336931966              -0.122359690               0.000000000               0.360227399              -0.131665448               0.000000000               0.383522833              -0.140971207               0.000000000               0.406818266              -0.150276966               0.000000000               0.430113700              -0.159582724               0.000000000               0.453409133              -0.168888483               0.000000000               0.476704567              -0.178194241               0.000000000               0.500000000              -0.187500000               0.000000000               0.122875978              -0.050896897               0.000000000               0.146446229              -0.063340840               0.000000000               0.170016481              -0.075784784               0.000000000               0.193586732              -0.088228728               0.000000000               0.217156983              -0.100672672               0.000000000               0.240727235              -0.113116616               0.000000000               0.264297486              -0.125560560               0.000000000               0.287867738              -0.138004504               0.000000000               0.311437989              -0.150448448               0.000000000               0.335008240              -0.162892392               0.000000000               0.358578492              -0.175336336               0.000000000               0.382148743              -0.187780280               0.000000000               0.405718994              -0.200224224               0.000000000               0.429289246              -0.212668168               0.000000000               0.452859497              -0.225112112               0.000000000               0.476429749              -0.237556056               0.000000000               0.500000000              -0.250000000               0.000000000               0.117295528              -0.062695766               0.000000000               0.141214558              -0.078308531               0.000000000               0.165133587              -0.093921295               0.000000000               0.189052617              -0.109534060               0.000000000               0.212971646              -0.125146824               0.000000000               0.236890676              -0.140759589               0.000000000               0.260809705              -0.156372354               0.000000000               0.284728735              -0.171985118               0.000000000               0.308647764              -0.187597883               0.000000000               0.332566794              -0.203210648               0.000000000               0.356485823              -0.218823412               0.000000000               0.380404853              -0.234436177               0.000000000               0.404323882              -0.250048941               0.000000000               0.428242912              -0.265661706               0.000000000               0.452161941              -0.281274471               0.000000000               0.476080971              -0.296887235               0.000000000               0.500000000              -0.312500000               0.000000000               0.110585458              -0.073890841               0.000000000               0.134923867              -0.092710163               0.000000000               0.159262276              -0.111529486               0.000000000               0.183600685              -0.130348808               0.000000000               0.207939094              -0.149168131               0.000000000               0.232277503              -0.167987453               0.000000000               0.256615912              -0.186806776               0.000000000               0.280954320              -0.205626098               0.000000000               0.305292729              -0.224445420               0.000000000               0.329631138              -0.243264743               0.000000000               0.353969547              -0.262084065               0.000000000               0.378307956              -0.280903388               0.000000000               0.402646365              -0.299722710               0.000000000               0.426984773              -0.318542033               0.000000000               0.451323182              -0.337361355               0.000000000               0.475661591              -0.356180678               0.000000000               0.500000000              -0.375000000               0.000000000               0.102810390              -0.084374307               0.000000000               0.127634741              -0.106444663               0.000000000               0.152459092              -0.128515018               0.000000000               0.177283442              -0.150585374               0.000000000               0.202107793              -0.172655730               0.000000000               0.226932143              -0.194726086               0.000000000               0.251756494              -0.216796442               0.000000000               0.276580845              -0.238866798               0.000000000               0.301405195              -0.260937153               0.000000000               0.326229546              -0.283007509               0.000000000               0.351053896              -0.305077865               0.000000000               0.375878247              -0.327148221               0.000000000               0.400702598              -0.349218577               0.000000000               0.425526948              -0.371288933               0.000000000               0.450351299              -0.393359288               0.000000000               0.475175649              -0.415429644               0.000000000               0.500000000              -0.437500000               0.000000000               0.094045202              -0.094045202               0.000000000               0.119417377              -0.119417377               0.000000000               0.144789552              -0.144789552               0.000000000               0.170161727              -0.170161727               0.000000000               0.195533901              -0.195533901               0.000000000               0.220906076              -0.220906076               0.000000000               0.246278251              -0.246278251               0.000000000               0.271650426              -0.271650426               0.000000000               0.297022601              -0.297022601               0.000000000               0.322394776              -0.322394776               0.000000000               0.347766951              -0.347766951               0.000000000               0.373139126              -0.373139126               0.000000000               0.398511300              -0.398511300               0.000000000               0.423883475              -0.423883475               0.000000000               0.449255650              -0.449255650               0.000000000               0.474627825              -0.474627825               0.000000000               0.500000000              -0.500000000               0.000000000               0.084374307              -0.102810390               0.000000000               0.106444663              -0.127634741               0.000000000               0.128515018              -0.152459092               0.000000000               0.150585374              -0.177283442               0.000000000               0.172655730              -0.202107793               0.000000000               0.194726086              -0.226932143               0.000000000               0.216796442              -0.251756494               0.000000000               0.238866798              -0.276580845               0.000000000               0.260937153              -0.301405195               0.000000000               0.283007509              -0.326229546               0.000000000               0.305077865              -0.351053896               0.000000000               0.327148221              -0.375878247               0.000000000               0.349218577              -0.400702598               0.000000000               0.371288933              -0.425526948               0.000000000               0.393359288              -0.450351299               0.000000000               0.415429644              -0.475175649               0.000000000               0.437500000              -0.500000000               0.000000000               0.073890841              -0.110585458               0.000000000               0.092710163              -0.134923867               0.000000000               0.111529486              -0.159262276               0.000000000               0.130348808              -0.183600685               0.000000000               0.149168131              -0.207939094               0.000000000               0.167987453              -0.232277503               0.000000000               0.186806776              -0.256615912               0.000000000               0.205626098              -0.280954320               0.000000000               0.224445420              -0.305292729               0.000000000               0.243264743              -0.329631138               0.000000000               0.262084065              -0.353969547               0.000000000               0.280903388              -0.378307956               0.000000000               0.299722710              -0.402646365               0.000000000               0.318542033              -0.426984773               0.000000000               0.337361355              -0.451323182               0.000000000               0.356180678              -0.475661591               0.000000000               0.375000000              -0.500000000               0.000000000               0.062695766              -0.117295528               0.000000000               0.078308531              -0.141214558               0.000000000               0.093921295              -0.165133587               0.000000000               0.109534060              -0.189052617               0.000000000               0.125146824              -0.212971646               0.000000000               0.140759589              -0.236890676               0.000000000               0.156372354              -0.260809705               0.000000000               0.171985118              -0.284728735               0.000000000               0.187597883              -0.308647764               0.000000000               0.203210648              -0.332566794               0.000000000               0.218823412              -0.356485823               0.000000000               0.234436177              -0.380404853               0.000000000               0.250048941              -0.404323882               0.000000000               0.265661706              -0.428242912               0.000000000               0.281274471              -0.452161941               0.000000000               0.296887235              -0.476080971               0.000000000               0.312500000              -0.500000000               0.000000000               0.050896897              -0.122875978               0.000000000               0.063340840              -0.146446229               0.000000000               0.075784784              -0.170016481               0.000000000               0.088228728              -0.193586732               0.000000000               0.100672672              -0.217156983               0.000000000               0.113116616              -0.240727235               0.000000000               0.125560560              -0.264297486               0.000000000               0.138004504              -0.287867738               0.000000000               0.150448448              -0.311437989               0.000000000               0.162892392              -0.335008240               0.000000000               0.175336336              -0.358578492               0.000000000               0.187780280              -0.382148743               0.000000000               0.200224224              -0.405718994               0.000000000               0.212668168              -0.429289246               0.000000000               0.225112112              -0.452859497               0.000000000               0.237556056              -0.476429749               0.000000000               0.250000000              -0.500000000               0.000000000               0.038607862              -0.127273065               0.000000000               0.047913621              -0.150568498               0.000000000               0.057219379              -0.173863932               0.000000000               0.066525138              -0.197159365               0.000000000               0.075830897              -0.220454798               0.000000000               0.085136655              -0.243750232               0.000000000               0.094442414              -0.267045665               0.000000000               0.103748172              -0.290341099               0.000000000               0.113053931              -0.313636532               0.000000000               0.122359690              -0.336931966               0.000000000               0.131665448              -0.360227399               0.000000000               0.140971207              -0.383522833               0.000000000               0.150276966              -0.406818266               0.000000000               0.159582724              -0.430113700               0.000000000               0.168888483              -0.453409133               0.000000000               0.178194241              -0.476704567               0.000000000               0.187500000              -0.500000000               0.000000000               0.025947013              -0.130444442               0.000000000               0.032137825              -0.153541665               0.000000000               0.038328636              -0.176638887               0.000000000               0.044519448              -0.199736109               0.000000000               0.050710260              -0.222833332               0.000000000               0.056901071              -0.245930554               0.000000000               0.063091883              -0.269027776               0.000000000               0.069282695              -0.292124999               0.000000000               0.075473506              -0.315222221               0.000000000               0.081664318              -0.338319444               0.000000000               0.087855130              -0.361416666               0.000000000               0.094045942              -0.384513888               0.000000000               0.100236753              -0.407611111               0.000000000               0.106427565              -0.430708333               0.000000000               0.112618377              -0.453805555               0.000000000               0.118809188              -0.476902778               0.000000000               0.125000000              -0.500000000               0.000000000               0.013036280              -0.132359569               0.000000000               0.016127762              -0.155337096               0.000000000               0.019219245              -0.178314623               0.000000000               0.022310727              -0.201292150               0.000000000               0.025402210              -0.224269676               0.000000000               0.028493692              -0.247247203               0.000000000               0.031585175              -0.270224730               0.000000000               0.034676657              -0.293202257               0.000000000               0.037768140              -0.316179784               0.000000000               0.040859622              -0.339157311               0.000000000               0.043951105              -0.362134838               0.000000000               0.047042587              -0.385112365               0.000000000               0.050134070              -0.408089892               0.000000000               0.053225552              -0.431067419               0.000000000               0.056317035              -0.454044946               0.000000000               0.059408517              -0.477022473               0.000000000               0.062500000              -0.500000000               0.000000000               0.000000000              -0.133000000               0.000000000               0.000000000              -0.155937500               0.000000000               0.000000000              -0.178875000               0.000000000               0.000000000              -0.201812500               0.000000000               0.000000000              -0.224750000               0.000000000               0.000000000              -0.247687500               0.000000000               0.000000000              -0.270625000               0.000000000               0.000000000              -0.293562500               0.000000000               0.000000000              -0.316500000               0.000000000               0.000000000              -0.339437500               0.000000000               0.000000000              -0.362375000               0.000000000               0.000000000              -0.385312500               0.000000000               0.000000000              -0.408250000               0.000000000               0.000000000              -0.431187500               0.000000000               0.000000000              -0.454125000               0.000000000               0.000000000              -0.477062500               0.000000000               0.000000000              -0.500000000               0.000000000              -0.133000000               0.000000000               0.000000000              -0.155937500               0.000000000               0.000000000              -0.178875000               0.000000000               0.000000000              -0.201812500               0.000000000               0.000000000              -0.224750000               0.000000000               0.000000000              -0.247687500               0.000000000               0.000000000              -0.270625000               0.000000000               0.000000000              -0.293562500               0.000000000               0.000000000              -0.316500000               0.000000000               0.000000000              -0.339437500               0.000000000               0.000000000              -0.362375000               0.000000000               0.000000000              -0.385312500               0.000000000               0.000000000              -0.408250000               0.000000000               0.000000000              -0.431187500               0.000000000               0.000000000              -0.454125000               0.000000000               0.000000000              -0.477062500               0.000000000               0.000000000              -0.500000000               0.000000000               0.000000000              -0.132359569              -0.013036280               0.000000000              -0.155337096              -0.016127762               0.000000000              -0.178314623              -0.019219245               0.000000000              -0.201292150              -0.022310727               0.000000000              -0.224269676              -0.025402210               0.000000000              -0.247247203              -0.028493692               0.000000000              -0.270224730              -0.031585175               0.000000000              -0.293202257              -0.034676657               0.000000000              -0.316179784              -0.037768140               0.000000000              -0.339157311              -0.040859622               0.000000000              -0.362134838              -0.043951105               0.000000000              -0.385112365              -0.047042587               0.000000000              -0.408089892              -0.050134070               0.000000000              -0.431067419              -0.053225552               0.000000000              -0.454044946              -0.056317035               0.000000000              -0.477022473              -0.059408517               0.000000000              -0.500000000              -0.062500000               0.000000000              -0.130444442              -0.025947013               0.000000000              -0.153541665              -0.032137825               0.000000000              -0.176638887              -0.038328636               0.000000000              -0.199736109              -0.044519448               0.000000000              -0.222833332              -0.050710260               0.000000000              -0.245930554              -0.056901071               0.000000000              -0.269027776              -0.063091883               0.000000000              -0.292124999              -0.069282695               0.000000000              -0.315222221              -0.075473506               0.000000000              -0.338319444              -0.081664318               0.000000000              -0.361416666              -0.087855130               0.000000000              -0.384513888              -0.094045942               0.000000000              -0.407611111              -0.100236753               0.000000000              -0.430708333              -0.106427565               0.000000000              -0.453805555              -0.112618377               0.000000000              -0.476902778              -0.118809188               0.000000000              -0.500000000              -0.125000000               0.000000000              -0.127273065              -0.038607862               0.000000000              -0.150568498              -0.047913621               0.000000000              -0.173863932              -0.057219379               0.000000000              -0.197159365              -0.066525138               0.000000000              -0.220454798              -0.075830897               0.000000000              -0.243750232              -0.085136655               0.000000000              -0.267045665              -0.094442414               0.000000000              -0.290341099              -0.103748172               0.000000000              -0.313636532              -0.113053931               0.000000000              -0.336931966              -0.122359690               0.000000000              -0.360227399              -0.131665448               0.000000000              -0.383522833              -0.140971207               0.000000000              -0.406818266              -0.150276966               0.000000000              -0.430113700              -0.159582724               0.000000000              -0.453409133              -0.168888483               0.000000000              -0.476704567              -0.178194241               0.000000000              -0.500000000              -0.187500000               0.000000000              -0.122875978              -0.050896897               0.000000000              -0.146446229              -0.063340840               0.000000000              -0.170016481              -0.075784784               0.000000000              -0.193586732              -0.088228728               0.000000000              -0.217156983              -0.100672672               0.000000000              -0.240727235              -0.113116616               0.000000000              -0.264297486              -0.125560560               0.000000000              -0.287867738              -0.138004504               0.000000000              -0.311437989              -0.150448448               0.000000000              -0.335008240              -0.162892392               0.000000000              -0.358578492              -0.175336336               0.000000000              -0.382148743              -0.187780280               0.000000000              -0.405718994              -0.200224224               0.000000000              -0.429289246              -0.212668168               0.000000000              -0.452859497              -0.225112112               0.000000000              -0.476429749              -0.237556056               0.000000000              -0.500000000              -0.250000000               0.000000000              -0.117295528              -0.062695766               0.000000000              -0.141214558              -0.078308531               0.000000000              -0.165133587              -0.093921295               0.000000000              -0.189052617              -0.109534060               0.000000000              -0.212971646              -0.125146824               0.000000000              -0.236890676              -0.140759589               0.000000000              -0.260809705              -0.156372354               0.000000000              -0.284728735              -0.171985118               0.000000000              -0.308647764              -0.187597883               0.000000000              -0.332566794              -0.203210648               0.000000000              -0.356485823              -0.218823412               0.000000000              -0.380404853              -0.234436177               0.000000000              -0.404323882              -0.250048941               0.000000000              -0.428242912              -0.265661706               0.000000000              -0.452161941              -0.281274471               0.000000000              -0.476080971              -0.296887235               0.000000000              -0.500000000              -0.312500000               0.000000000              -0.110585458              -0.073890841               0.000000000              -0.134923867              -0.092710163               0.000000000              -0.159262276              -0.111529486               0.000000000              -0.183600685              -0.130348808               0.000000000              -0.207939094              -0.149168131               0.000000000              -0.232277503              -0.167987453               0.000000000              -0.256615912              -0.186806776               0.000000000              -0.280954320              -0.205626098               0.000000000              -0.305292729              -0.224445420               0.000000000              -0.329631138              -0.243264743               0.000000000              -0.353969547              -0.262084065               0.000000000              -0.378307956              -0.280903388               0.000000000              -0.402646365              -0.299722710               0.000000000              -0.426984773              -0.318542033               0.000000000              -0.451323182              -0.337361355               0.000000000              -0.475661591              -0.356180678               0.000000000              -0.500000000              -0.375000000               0.000000000              -0.102810390              -0.084374307               0.000000000              -0.127634741              -0.106444663               0.000000000              -0.152459092              -0.128515018               0.000000000              -0.177283442              -0.150585374               0.000000000              -0.202107793              -0.172655730               0.000000000              -0.226932143              -0.194726086               0.000000000              -0.251756494              -0.216796442               0.000000000              -0.276580845              -0.238866798               0.000000000              -0.301405195              -0.260937153               0.000000000              -0.326229546              -0.283007509               0.000000000              -0.351053896              -0.305077865               0.000000000              -0.375878247              -0.327148221               0.000000000              -0.400702598              -0.349218577               0.000000000              -0.425526948              -0.371288933               0.000000000              -0.450351299              -0.393359288               0.000000000              -0.475175649              -0.415429644               0.000000000              -0.500000000              -0.437500000               0.000000000              -0.094045202              -0.094045202               0.000000000              -0.119417377              -0.119417377               0.000000000              -0.144789552              -0.144789552               0.000000000              -0.170161727              -0.170161727               0.000000000              -0.195533901              -0.195533901               0.000000000              -0.220906076              -0.220906076               0.000000000              -0.246278251              -0.246278251               0.000000000              -0.271650426              -0.271650426               0.000000000              -0.297022601              -0.297022601               0.000000000              -0.322394776              -0.322394776               0.000000000              -0.347766951              -0.347766951               0.000000000              -0.373139126              -0.373139126               0.000000000              -0.398511300              -0.398511300               0.000000000              -0.423883475              -0.423883475               0.000000000              -0.449255650              -0.449255650               0.000000000              -0.474627825              -0.474627825               0.000000000              -0.500000000              -0.500000000               0.000000000              -0.084374307              -0.102810390               0.000000000              -0.106444663              -0.127634741               0.000000000              -0.128515018              -0.152459092               0.000000000              -0.150585374              -0.177283442               0.000000000              -0.172655730              -0.202107793               0.000000000              -0.194726086              -0.226932143               0.000000000              -0.216796442              -0.251756494               0.000000000              -0.238866798              -0.276580845               0.000000000              -0.260937153              -0.301405195               0.000000000              -0.283007509              -0.326229546               0.000000000              -0.305077865              -0.351053896               0.000000000              -0.327148221              -0.375878247               0.000000000              -0.349218577              -0.400702598               0.000000000              -0.371288933              -0.425526948               0.000000000              -0.393359288              -0.450351299               0.000000000              -0.415429644              -0.475175649               0.000000000              -0.437500000              -0.500000000               0.000000000              -0.073890841              -0.110585458               0.000000000              -0.092710163              -0.134923867               0.000000000              -0.111529486              -0.159262276               0.000000000              -0.130348808              -0.183600685               0.000000000              -0.149168131              -0.207939094               0.000000000              -0.167987453              -0.232277503               0.000000000              -0.186806776              -0.256615912               0.000000000              -0.205626098              -0.280954320               0.000000000              -0.224445420              -0.305292729               0.000000000              -0.243264743              -0.329631138               0.000000000              -0.262084065              -0.353969547               0.000000000              -0.280903388              -0.378307956               0.000000000              -0.299722710              -0.402646365               0.000000000              -0.318542033              -0.426984773               0.000000000              -0.337361355              -0.451323182               0.000000000              -0.356180678              -0.475661591               0.000000000              -0.375000000              -0.500000000               0.000000000              -0.062695766              -0.117295528               0.000000000              -0.078308531              -0.141214558               0.000000000              -0.093921295              -0.165133587               0.000000000              -0.109534060              -0.189052617               0.000000000              -0.125146824              -0.212971646               0.000000000              -0.140759589              -0.236890676               0.000000000              -0.156372354              -0.260809705               0.000000000              -0.171985118              -0.284728735               0.000000000              -0.187597883              -0.308647764               0.000000000              -0.203210648              -0.332566794               0.000000000              -0.218823412              -0.356485823               0.000000000              -0.234436177              -0.380404853               0.000000000              -0.250048941              -0.404323882               0.000000000              -0.265661706              -0.428242912               0.000000000              -0.281274471              -0.452161941               0.000000000              -0.296887235              -0.476080971               0.000000000              -0.312500000              -0.500000000               0.000000000              -0.050896897              -0.122875978               0.000000000              -0.063340840              -0.146446229               0.000000000              -0.075784784              -0.170016481               0.000000000              -0.088228728              -0.193586732               0.000000000              -0.100672672              -0.217156983               0.000000000              -0.113116616              -0.240727235               0.000000000              -0.125560560              -0.264297486               0.000000000              -0.138004504              -0.287867738               0.000000000              -0.150448448              -0.311437989               0.000000000              -0.162892392              -0.335008240               0.000000000              -0.175336336              -0.358578492               0.000000000              -0.187780280              -0.382148743               0.000000000              -0.200224224              -0.405718994               0.000000000              -0.212668168              -0.429289246               0.000000000              -0.225112112              -0.452859497               0.000000000              -0.237556056              -0.476429749               0.000000000              -0.250000000              -0.500000000               0.000000000              -0.038607862              -0.127273065               0.000000000              -0.047913621              -0.150568498               0.000000000              -0.057219379              -0.173863932               0.000000000              -0.066525138              -0.197159365               0.000000000              -0.075830897              -0.220454798               0.000000000              -0.085136655              -0.243750232               0.000000000              -0.094442414              -0.267045665               0.000000000              -0.103748172              -0.290341099               0.000000000              -0.113053931              -0.313636532               0.000000000              -0.122359690              -0.336931966               0.000000000              -0.131665448              -0.360227399               0.000000000              -0.140971207              -0.383522833               0.000000000              -0.150276966              -0.406818266               0.000000000              -0.159582724              -0.430113700               0.000000000              -0.168888483              -0.453409133               0.000000000              -0.178194241              -0.476704567               0.000000000              -0.187500000              -0.500000000               0.000000000              -0.025947013              -0.130444442               0.000000000              -0.032137825              -0.153541665               0.000000000              -0.038328636              -0.176638887               0.000000000              -0.044519448              -0.199736109               0.000000000              -0.050710260              -0.222833332               0.000000000              -0.056901071              -0.245930554               0.000000000              -0.063091883              -0.269027776               0.000000000              -0.069282695              -0.292124999               0.000000000              -0.075473506              -0.315222221               0.000000000              -0.081664318              -0.338319444               0.000000000              -0.087855130              -0.361416666               0.000000000              -0.094045942              -0.384513888               0.000000000              -0.100236753              -0.407611111               0.000000000              -0.106427565              -0.430708333               0.000000000              -0.112618377              -0.453805555               0.000000000              -0.118809188              -0.476902778               0.000000000              -0.125000000              -0.500000000               0.000000000              -0.013036280              -0.132359569               0.000000000              -0.016127762              -0.155337096               0.000000000              -0.019219245              -0.178314623               0.000000000              -0.022310727              -0.201292150               0.000000000              -0.025402210              -0.224269676               0.000000000              -0.028493692              -0.247247203               0.000000000              -0.031585175              -0.270224730               0.000000000              -0.034676657              -0.293202257               0.000000000              -0.037768140              -0.316179784               0.000000000              -0.040859622              -0.339157311               0.000000000              -0.043951105              -0.362134838               0.000000000              -0.047042587              -0.385112365               0.000000000              -0.050134070              -0.408089892               0.000000000              -0.053225552              -0.431067419               0.000000000              -0.056317035              -0.454044946               0.000000000              -0.059408517              -0.477022473               0.000000000              -0.062500000              -0.500000000               0.000000000               0.000000000              -0.133000000               0.000000000               0.000000000              -0.155937500               0.000000000               0.000000000              -0.178875000               0.000000000               0.000000000              -0.201812500               0.000000000               0.000000000              -0.224750000               0.000000000               0.000000000              -0.247687500               0.000000000               0.000000000              -0.270625000               0.000000000               0.000000000              -0.293562500               0.000000000               0.000000000              -0.316500000               0.000000000               0.000000000              -0.339437500               0.000000000               0.000000000              -0.362375000               0.000000000               0.000000000              -0.385312500               0.000000000               0.000000000              -0.408250000               0.000000000               0.000000000              -0.431187500               0.000000000               0.000000000              -0.454125000               0.000000000               0.000000000              -0.477062500               0.000000000               0.000000000              -0.500000000               0.000000000              -0.133000000               0.000000000               0.000000000              -0.155937500               0.000000000               0.000000000              -0.178875000               0.000000000               0.000000000              -0.201812500               0.000000000               0.000000000              -0.224750000               0.000000000               0.000000000              -0.247687500               0.000000000               0.000000000              -0.270625000               0.000000000               0.000000000              -0.293562500               0.000000000               0.000000000              -0.316500000               0.000000000               0.000000000              -0.339437500               0.000000000               0.000000000              -0.362375000               0.000000000               0.000000000              -0.385312500               0.000000000               0.000000000              -0.408250000               0.000000000               0.000000000              -0.431187500               0.000000000               0.000000000              -0.454125000               0.000000000               0.000000000              -0.477062500               0.000000000               0.000000000              -0.500000000               0.000000000               0.000000000              -0.132359569               0.013036280               0.000000000              -0.155337096               0.016127762               0.000000000              -0.178314623               0.019219245               0.000000000              -0.201292150               0.022310727               0.000000000              -0.224269676               0.025402210               0.000000000              -0.247247203               0.028493692               0.000000000              -0.270224730               0.031585175               0.000000000              -0.293202257               0.034676657               0.000000000              -0.316179784               0.037768140               0.000000000              -0.339157311               0.040859622               0.000000000              -0.362134838               0.043951105               0.000000000              -0.385112365               0.047042587               0.000000000              -0.408089892               0.050134070               0.000000000              -0.431067419               0.053225552               0.000000000              -0.454044946               0.056317035               0.000000000              -0.477022473               0.059408517               0.000000000              -0.500000000               0.062500000               0.000000000              -0.130444442               0.025947013               0.000000000              -0.153541665               0.032137825               0.000000000              -0.176638887               0.038328636               0.000000000              -0.199736109               0.044519448               0.000000000              -0.222833332               0.050710260               0.000000000              -0.245930554               0.056901071               0.000000000              -0.269027776               0.063091883               0.000000000              -0.292124999               0.069282695               0.000000000              -0.315222221               0.075473506               0.000000000              -0.338319444               0.081664318               0.000000000              -0.361416666               0.087855130               0.000000000              -0.384513888               0.094045942               0.000000000              -0.407611111               0.100236753               0.000000000              -0.430708333               0.106427565               0.000000000              -0.453805555               0.112618377               0.000000000              -0.476902778               0.118809188               0.000000000              -0.500000000               0.125000000               0.000000000              -0.127273065               0.038607862               0.000000000              -0.150568498               0.047913621               0.000000000              -0.173863932               0.057219379               0.000000000              -0.197159365               0.066525138               0.000000000              -0.220454798               0.075830897               0.000000000              -0.243750232               0.085136655               0.000000000              -0.267045665               0.094442414               0.000000000              -0.290341099               0.103748172               0.000000000              -0.313636532               0.113053931               0.000000000              -0.336931966               0.122359690               0.000000000              -0.360227399               0.131665448               0.000000000              -0.383522833               0.140971207               0.000000000              -0.406818266               0.150276966               0.000000000              -0.430113700               0.159582724               0.000000000              -0.453409133               0.168888483               0.000000000              -0.476704567               0.178194241               0.000000000              -0.500000000               0.187500000               0.000000000              -0.122875978               0.050896897               0.000000000              -0.146446229               0.063340840               0.000000000              -0.170016481               0.075784784               0.000000000              -0.193586732               0.088228728               0.000000000              -0.217156983               0.100672672               0.000000000              -0.240727235               0.113116616               0.000000000              -0.264297486               0.125560560               0.000000000              -0.287867738               0.138004504               0.000000000              -0.311437989               0.150448448               0.000000000              -0.335008240               0.162892392               0.000000000              -0.358578492               0.175336336               0.000000000              -0.382148743               0.187780280               0.000000000              -0.405718994               0.200224224               0.000000000              -0.429289246               0.212668168               0.000000000              -0.452859497               0.225112112               0.000000000              -0.476429749               0.237556056               0.000000000              -0.500000000               0.250000000               0.000000000              -0.117295528               0.062695766               0.000000000              -0.141214558               0.078308531               0.000000000              -0.165133587               0.093921295               0.000000000              -0.189052617               0.109534060               0.000000000              -0.212971646               0.125146824               0.000000000              -0.236890676               0.140759589               0.000000000              -0.260809705               0.156372354               0.000000000              -0.284728735               0.171985118               0.000000000              -0.308647764               0.187597883               0.000000000              -0.332566794               0.203210648               0.000000000              -0.356485823               0.218823412               0.000000000              -0.380404853               0.234436177               0.000000000              -0.404323882               0.250048941               0.000000000              -0.428242912               0.265661706               0.000000000              -0.452161941               0.281274471               0.000000000              -0.476080971               0.296887235               0.000000000              -0.500000000               0.312500000               0.000000000              -0.110585458               0.073890841               0.000000000              -0.134923867               0.092710163               0.000000000              -0.159262276               0.111529486               0.000000000              -0.183600685               0.130348808               0.000000000              -0.207939094               0.149168131               0.000000000              -0.232277503               0.167987453               0.000000000              -0.256615912               0.186806776               0.000000000              -0.280954320               0.205626098               0.000000000              -0.305292729               0.224445420               0.000000000              -0.329631138               0.243264743               0.000000000              -0.353969547               0.262084065               0.000000000              -0.378307956               0.280903388               0.000000000              -0.402646365               0.299722710               0.000000000              -0.426984773               0.318542033               0.000000000              -0.451323182               0.337361355               0.000000000              -0.475661591               0.356180678               0.000000000              -0.500000000               0.375000000               0.000000000              -0.102810390               0.084374307               0.000000000              -0.127634741               0.106444663               0.000000000              -0.152459092               0.128515018               0.000000000              -0.177283442               0.150585374               0.000000000              -0.202107793               0.172655730               0.000000000              -0.226932143               0.194726086               0.000000000              -0.251756494               0.216796442               0.000000000              -0.276580845               0.238866798               0.000000000              -0.301405195               0.260937153               0.000000000              -0.326229546               0.283007509               0.000000000              -0.351053896               0.305077865               0.000000000              -0.375878247               0.327148221               0.000000000              -0.400702598               0.349218577               0.000000000              -0.425526948               0.371288933               0.000000000              -0.450351299               0.393359288               0.000000000              -0.475175649               0.415429644               0.000000000              -0.500000000               0.437500000               0.000000000              -0.094045202               0.094045202               0.000000000              -0.119417377               0.119417377               0.000000000              -0.144789552               0.144789552               0.000000000              -0.170161727               0.170161727               0.000000000              -0.195533901               0.195533901               0.000000000              -0.220906076               0.220906076               0.000000000              -0.246278251               0.246278251               0.000000000              -0.271650426               0.271650426               0.000000000              -0.297022601               0.297022601               0.000000000              -0.322394776               0.322394776               0.000000000              -0.347766951               0.347766951               0.000000000              -0.373139126               0.373139126               0.000000000              -0.398511300               0.398511300               0.000000000              -0.423883475               0.423883475               0.000000000              -0.449255650               0.449255650               0.000000000              -0.474627825               0.474627825               0.000000000              -0.500000000               0.500000000               0.000000000              -0.084374307               0.102810390               0.000000000              -0.106444663               0.127634741               0.000000000              -0.128515018               0.152459092               0.000000000              -0.150585374               0.177283442               0.000000000              -0.172655730               0.202107793               0.000000000              -0.194726086               0.226932143               0.000000000              -0.216796442               0.251756494               0.000000000              -0.238866798               0.276580845               0.000000000              -0.260937153               0.301405195               0.000000000              -0.283007509               0.326229546               0.000000000              -0.305077865               0.351053896               0.000000000              -0.327148221               0.375878247               0.000000000              -0.349218577               0.400702598               0.000000000              -0.371288933               0.425526948               0.000000000              -0.393359288               0.450351299               0.000000000              -0.415429644               0.475175649               0.000000000              -0.437500000               0.500000000               0.000000000              -0.073890841               0.110585458               0.000000000              -0.092710163               0.134923867               0.000000000              -0.111529486               0.159262276               0.000000000              -0.130348808               0.183600685               0.000000000              -0.149168131               0.207939094               0.000000000              -0.167987453               0.232277503               0.000000000              -0.186806776               0.256615912               0.000000000              -0.205626098               0.280954320               0.000000000              -0.224445420               0.305292729               0.000000000              -0.243264743               0.329631138               0.000000000              -0.262084065               0.353969547               0.000000000              -0.280903388               0.378307956               0.000000000              -0.299722710               0.402646365               0.000000000              -0.318542033               0.426984773               0.000000000              -0.337361355               0.451323182               0.000000000              -0.356180678               0.475661591               0.000000000              -0.375000000               0.500000000               0.000000000              -0.062695766               0.117295528               0.000000000              -0.078308531               0.141214558               0.000000000              -0.093921295               0.165133587               0.000000000              -0.109534060               0.189052617               0.000000000              -0.125146824               0.212971646               0.000000000              -0.140759589               0.236890676               0.000000000              -0.156372354               0.260809705               0.000000000              -0.171985118               0.284728735               0.000000000              -0.187597883               0.308647764               0.000000000              -0.203210648               0.332566794               0.000000000              -0.218823412               0.356485823               0.000000000              -0.234436177               0.380404853               0.000000000              -0.250048941               0.404323882               0.000000000              -0.265661706               0.428242912               0.000000000              -0.281274471               0.452161941               0.000000000              -0.296887235               0.476080971               0.000000000              -0.312500000               0.500000000               0.000000000              -0.050896897               0.122875978               0.000000000              -0.063340840               0.146446229               0.000000000              -0.075784784               0.170016481               0.000000000              -0.088228728               0.193586732               0.000000000              -0.100672672               0.217156983               0.000000000              -0.113116616               0.240727235               0.000000000              -0.125560560               0.264297486               0.000000000              -0.138004504               0.287867738               0.000000000              -0.150448448               0.311437989               0.000000000              -0.162892392               0.335008240               0.000000000              -0.175336336               0.358578492               0.000000000              -0.187780280               0.382148743               0.000000000              -0.200224224               0.405718994               0.000000000              -0.212668168               0.429289246               0.000000000              -0.225112112               0.452859497               0.000000000              -0.237556056               0.476429749               0.000000000              -0.250000000               0.500000000               0.000000000              -0.038607862               0.127273065               0.000000000              -0.047913621               0.150568498               0.000000000              -0.057219379               0.173863932               0.000000000              -0.066525138               0.197159365               0.000000000              -0.075830897               0.220454798               0.000000000              -0.085136655               0.243750232               0.000000000              -0.094442414               0.267045665               0.000000000              -0.103748172               0.290341099               0.000000000              -0.113053931               0.313636532               0.000000000              -0.122359690               0.336931966               0.000000000              -0.131665448               0.360227399               0.000000000              -0.140971207               0.383522833               0.000000000              -0.150276966               0.406818266               0.000000000              -0.159582724               0.430113700               0.000000000              -0.168888483               0.453409133               0.000000000              -0.178194241               0.476704567               0.000000000              -0.187500000               0.500000000               0.000000000              -0.025947013               0.130444442               0.000000000              -0.032137825               0.153541665               0.000000000              -0.038328636               0.176638887               0.000000000              -0.044519448               0.199736109               0.000000000              -0.050710260               0.222833332               0.000000000              -0.056901071               0.245930554               0.000000000              -0.063091883               0.269027776               0.000000000              -0.069282695               0.292124999               0.000000000              -0.075473506               0.315222221               0.000000000              -0.081664318               0.338319444               0.000000000              -0.087855130               0.361416666               0.000000000              -0.094045942               0.384513888               0.000000000              -0.100236753               0.407611111               0.000000000              -0.106427565               0.430708333               0.000000000              -0.112618377               0.453805555               0.000000000              -0.118809188               0.476902778               0.000000000              -0.125000000               0.500000000               0.000000000              -0.013036280               0.132359569               0.000000000              -0.016127762               0.155337096               0.000000000              -0.019219245               0.178314623               0.000000000              -0.022310727               0.201292150               0.000000000              -0.025402210               0.224269676               0.000000000              -0.028493692               0.247247203               0.000000000              -0.031585175               0.270224730               0.000000000              -0.034676657               0.293202257               0.000000000              -0.037768140               0.316179784               0.000000000              -0.040859622               0.339157311               0.000000000              -0.043951105               0.362134838               0.000000000              -0.047042587               0.385112365               0.000000000              -0.050134070               0.408089892               0.000000000              -0.053225552               0.431067419               0.000000000              -0.056317035               0.454044946               0.000000000              -0.059408517               0.477022473               0.000000000              -0.062500000               0.500000000               0.000000000               0.000000000               0.133000000               0.000000000               0.000000000               0.155937500               0.000000000               0.000000000               0.178875000               0.000000000               0.000000000               0.201812500               0.000000000               0.000000000               0.224750000               0.000000000               0.000000000               0.247687500               0.000000000               0.000000000               0.270625000               0.000000000               0.000000000               0.293562500               0.000000000               0.000000000               0.316500000               0.000000000               0.000000000               0.339437500               0.000000000               0.000000000               0.362375000               0.000000000               0.000000000               0.385312500               0.000000000               0.000000000               0.408250000               0.000000000               0.000000000               0.431187500               0.000000000               0.000000000               0.454125000               0.000000000               0.000000000               0.477062500               0.000000000               0.000000000               0.500000000               0.000000000 </DataArray>
</Points>
<Cells>
<DataArray type="Int32"                                    Name="connectivity"                                                      NumberOfComponents=" 1" format="ascii">
         0          1         18         17          1          2         19         18          2          3         20         19          3          4         21         20          4          5         22         21          5          6         23         22          6          7         24         23          7          8         25         24          8          9         26         25          9         10         27         26         10         11         28         27         11         12         29         28         12         13         30         29         13         14         31         30         14         15         32         31         15         16         33         32         17         18         35         34         18         19         36         35         19         20         37         36         20         21         38         37         21         22         39         38         22         23         40         39         23         24         41         40         24         25         42         41         25         26         43         42         26         27         44         43         27         28         45         44         28         29         46         45         29         30         47         46         30         31         48         47         31         32         49         48         32         33         50         49         34         35         52         51         35         36         53         52         36         37         54         53         37         38         55         54         38         39         56         55         39         40         57         56         40         41         58         57         41         42         59         58         42         43         60         59         43         44         61         60         44         45         62         61         45         46         63         62         46         47         64         63         47         48         65         64         48         49         66         65         49         50         67         66         51         52         69         68         52         53         70         69         53         54         71         70         54         55         72         71         55         56         73         72         56         57         74         73         57         58         75         74         58         59         76         75         59         60         77         76         60         61         78         77         61         62         79         78         62         63         80         79         63         64         81         80         64         65         82         81         65         66         83         82         66         67         84         83         68         69         86         85         69         70         87         86         70         71         88         87         71         72         89         88         72         73         90         89         73         74         91         90         74         75         92         91         75         76         93         92         76         77         94         93         77         78         95         94         78         79         96         95         79         80         97         96         80         81         98         97         81         82         99         98         82         83        100         99         83         84        101        100         85         86        103        102         86         87        104        103         87         88        105        104         88         89        106        105         89         90        107        106         90         91        108        107         91         92        109        108         92         93        110        109         93         94        111        110         94         95        112        111         95         96        113        112         96         97        114        113         97         98        115        114         98         99        116        115         99        100        117        116        100        101        118        117        102        103        120        119        103        104        121        120        104        105        122        121        105        106        123        122        106        107        124        123        107        108        125        124        108        109        126        125        109        110        127        126        110        111        128        127        111        112        129        128        112        113        130        129        113        114        131        130        114        115        132        131        115        116        133        132        116        117        134        133        117        118        135        134        119        120        137        136        120        121        138        137        121        122        139        138        122        123        140        139        123        124        141        140        124        125        142        141        125        126        143        142        126        127        144        143        127        128        145        144        128        129        146        145        129        130        147        146        130        131        148        147        131        132        149        148        132        133        150        149        133        134        151        150        134        135        152        151        136        137        154        153        137        138        155        154        138        139        156        155        139        140        157        156        140        141        158        157        141        142        159        158        142        143        160        159        143        144        161        160        144        145        162        161        145        146        163        162        146        147        164        163        147        148        165        164        148        149        166        165        149        150        167        166        150        151        168        167        151        152        169        168        153        154        171        170        154        155        172        171        155        156        173        172        156        157        174        173        157        158        175        174        158        159        176        175        159        160        177        176        160        161        178        177        161        162        179        178        162        163        180        179        163        164        181        180        164        165        182        181        165        166        183        182        166        167        184        183        167        168        185        184        168        169        186        185        170        171        188        187        171        172        189        188        172        173        190        189        173        174        191        190        174        175        192        191        175        176        193        192        176        177        194        193        177        178        195        194        178        179        196        195        179        180        197        196        180        181        198        197        181        182        199        198        182        183        200        199        183        184        201        200        184        185        202        201        185        186        203        202        187        188        205        204        188        189        206        205        189        190        207        206        190        191        208        207        191        192        209        208        192        193        210        209        193        194        211        210        194        195        212        211        195        196        213        212        196        197        214        213        197        198        215        214        198        199        216        215        199        200        217        216        200        201        218        217        201        202        219        218        202        203        220        219        204        205        222        221        205        206        223        222        206        207        224        223        207        208        225        224        208        209        226        225        209        210        227        226        210        211        228        227        211        212        229        228        212        213        230        229        213        214        231        230        214        215        232        231        215        216        233        232        216        217        234        233        217        218        235        234        218        219        236        235        219        220        237        236        221        222        239        238        222        223        240        239        223        224        241        240        224        225        242        241        225        226        243        242        226        227        244        243        227        228        245        244        228        229        246        245        229        230        247        246        230        231        248        247        231        232        249        248        232        233        250        249        233        234        251        250        234        235        252        251        235        236        253        252        236        237        254        253        238        239        256        255        239        240        257        256        240        241        258        257        241        242        259        258        242        243        260        259        243        244        261        260        244        245        262        261        245        246        263        262        246        247        264        263        247        248        265        264        248        249        266        265        249        250        267        266        250        251        268        267        251        252        269        268        252        253        270        269        253        254        271        270        255        256        273        272        256        257        274        273        257        258        275        274        258        259        276        275        259        260        277        276        260        261        278        277        261        262        279        278        262        263        280        279        263        264        281        280        264        265        282        281        265        266        283        282        266        267        284        283        267        268        285        284        268        269        286        285        269        270        287        286        270        271        288        287        306        307          1          0        307        308          2          1        308        309          3          2        309        310          4          3        310        311          5          4        311        312          6          5        312        313          7          6        313        314          8          7        314        315          9          8        315        316         10          9        316        317         11         10        317        318         12         11        318        319         13         12        319        320         14         13        320        321         15         14        321        322         16         15        323        324        307        306        324        325        308        307        325        326        309        308        326        327        310        309        327        328        311        310        328        329        312        311        329        330        313        312        330        331        314        313        331        332        315        314        332        333        316        315        333        334        317        316        334        335        318        317        335        336        319        318        336        337        320        319        337        338        321        320        338        339        322        321        340        341        324        323        341        342        325        324        342        343        326        325        343        344        327        326        344        345        328        327        345        346        329        328        346        347        330        329        347        348        331        330        348        349        332        331        349        350        333        332        350        351        334        333        351        352        335        334        352        353        336        335        353        354        337        336        354        355        338        337        355        356        339        338        357        358        341        340        358        359        342        341        359        360        343        342        360        361        344        343        361        362        345        344        362        363        346        345        363        364        347        346        364        365        348        347        365        366        349        348        366        367        350        349        367        368        351        350        368        369        352        351        369        370        353        352        370        371        354        353        371        372        355        354        372        373        356        355        374        375        358        357        375        376        359        358        376        377        360        359        377        378        361        360        378        379        362        361        379        380        363        362        380        381        364        363        381        382        365        364        382        383        366        365        383        384        367        366        384        385        368        367        385        386        369        368        386        387        370        369        387        388        371        370        388        389        372        371        389        390        373        372        391        392        375        374        392        393        376        375        393        394        377        376        394        395        378        377        395        396        379        378        396        397        380        379        397        398        381        380        398        399        382        381        399        400        383        382        400        401        384        383        401        402        385        384        402        403        386        385        403        404        387        386        404        405        388        387        405        406        389        388        406        407        390        389        408        409        392        391        409        410        393        392        410        411        394        393        411        412        395        394        412        413        396        395        413        414        397        396        414        415        398        397        415        416        399        398        416        417        400        399        417        418        401        400        418        419        402        401        419        420        403        402        420        421        404        403        421        422        405        404        422        423        406        405        423        424        407        406        425        426        409        408        426        427        410        409        427        428        411        410        428        429        412        411        429        430        413        412        430        431        414        413        431        432        415        414        432        433        416        415        433        434        417        416        434        435        418        417        435        436        419        418        436        437        420        419        437        438        421        420        438        439        422        421        439        440        423        422        440        441        424        423        442        443        426        425        443        444        427        426        444        445        428        427        445        446        429        428        446        447        430        429        447        448        431        430        448        449        432        431        449        450        433        432        450        451        434        433        451        452        435        434        452        453        436        435        453        454        437        436        454        455        438        437        455        456        439        438        456        457        440        439        457        458        441        440        459        460        443        442        460        461        444        443        461        462        445        444        462        463        446        445        463        464        447        446        464        465        448        447        465        466        449        448        466        467        450        449        467        468        451        450        468        469        452        451        469        470        453        452        470        471        454        453        471        472        455        454        472        473        456        455        473        474        457        456        474        475        458        457        476        477        460        459        477        478        461        460        478        479        462        461        479        480        463        462        480        481        464        463        481        482        465        464        482        483        466        465        483        484        467        466        484        485        468        467        485        486        469        468        486        487        470        469        487        488        471        470        488        489        472        471        489        490        473        472        490        491        474        473        491        492        475        474        493        494        477        476        494        495        478        477        495        496        479        478        496        497        480        479        497        498        481        480        498        499        482        481        499        500        483        482        500        501        484        483        501        502        485        484        502        503        486        485        503        504        487        486        504        505        488        487        505        506        489        488        506        507        490        489        507        508        491        490        508        509        492        491        510        511        494        493        511        512        495        494        512        513        496        495        513        514        497        496        514        515        498        497        515        516        499        498        516        517        500        499        517        518        501        500        518        519        502        501        519        520        503        502        520        521        504        503        521        522        505        504        522        523        506        505        523        524        507        506        524        525        508        507        525        526        509        508        527        528        511        510        528        529        512        511        529        530        513        512        530        531        514        513        531        532        515        514        532        533        516        515        533        534        517        516        534        535        518        517        535        536        519        518        536        537        520        519        537        538        521        520        538        539        522        521        539        540        523        522        540        541        524        523        541        542        525        524        542        543        526        525        544        545        528        527        545        546        529        528        546        547        530        529        547        548        531        530        548        549        532        531        549        550        533        532        550        551        534        533        551        552        535        534        552        553        536        535        553        554        537        536        554        555        538        537        555        556        539        538        556        557        540        539        557        558        541        540        558        559        542        541        559        560        543        542        561        562        545        544        562        563        546        545        563        564        547        546        564        565        548        547        565        566        549        548        566        567        550        549        567        568        551        550        568        569        552        551        569        570        553        552        570        571        554        553        571        572        555        554        572        573        556        555        573        574        557        556        574        575        558        557        575        576        559        558        576        577        560        559        578        579        596        595        579        580        597        596        580        581        598        597        581        582        599        598        582        583        600        599        583        584        601        600        584        585        602        601        585        586        603        602        586        587        604        603        587        588        605        604        588        589        606        605        589        590        607        606        590        591        608        607        591        592        609        608        592        593        610        609        593        594        611        610        595        596        613        612        596        597        614        613        597        598        615        614        598        599        616        615        599        600        617        616        600        601        618        617        601        602        619        618        602        603        620        619        603        604        621        620        604        605        622        621        605        606        623        622        606        607        624        623        607        608        625        624        608        609        626        625        609        610        627        626        610        611        628        627        612        613        630        629        613        614        631        630        614        615        632        631        615        616        633        632        616        617        634        633        617        618        635        634        618        619        636        635        619        620        637        636        620        621        638        637        621        622        639        638        622        623        640        639        623        624        641        640        624        625        642        641        625        626        643        642        626        627        644        643        627        628        645        644        629        630        647        646        630        631        648        647        631        632        649        648        632        633        650        649        633        634        651        650        634        635        652        651        635        636        653        652        636        637        654        653        637        638        655        654        638        639        656        655        639        640        657        656        640        641        658        657        641        642        659        658        642        643        660        659        643        644        661        660        644        645        662        661        646        647        664        663        647        648        665        664        648        649        666        665        649        650        667        666        650        651        668        667        651        652        669        668        652        653        670        669        653        654        671        670        654        655        672        671        655        656        673        672        656        657        674        673        657        658        675        674        658        659        676        675        659        660        677        676        660        661        678        677        661        662        679        678        663        664        681        680        664        665        682        681        665        666        683        682        666        667        684        683        667        668        685        684        668        669        686        685        669        670        687        686        670        671        688        687        671        672        689        688        672        673        690        689        673        674        691        690        674        675        692        691        675        676        693        692        676        677        694        693        677        678        695        694        678        679        696        695        680        681        698        697        681        682        699        698        682        683        700        699        683        684        701        700        684        685        702        701        685        686        703        702        686        687        704        703        687        688        705        704        688        689        706        705        689        690        707        706        690        691        708        707        691        692        709        708        692        693        710        709        693        694        711        710        694        695        712        711        695        696        713        712        697        698        715        714        698        699        716        715        699        700        717        716        700        701        718        717        701        702        719        718        702        703        720        719        703        704        721        720        704        705        722        721        705        706        723        722        706        707        724        723        707        708        725        724        708        709        726        725        709        710        727        726        710        711        728        727        711        712        729        728        712        713        730        729        714        715        732        731        715        716        733        732        716        717        734        733        717        718        735        734        718        719        736        735        719        720        737        736        720        721        738        737        721        722        739        738        722        723        740        739        723        724        741        740        724        725        742        741        725        726        743        742        726        727        744        743        727        728        745        744        728        729        746        745        729        730        747        746        731        732        749        748        732        733        750        749        733        734        751        750        734        735        752        751        735        736        753        752        736        737        754        753        737        738        755        754        738        739        756        755        739        740        757        756        740        741        758        757        741        742        759        758        742        743        760        759        743        744        761        760        744        745        762        761        745        746        763        762        746        747        764        763        748        749        766        765        749        750        767        766        750        751        768        767        751        752        769        768        752        753        770        769        753        754        771        770        754        755        772        771        755        756        773        772        756        757        774        773        757        758        775        774        758        759        776        775        759        760        777        776        760        761        778        777        761        762        779        778        762        763        780        779        763        764        781        780        765        766        783        782        766        767        784        783        767        768        785        784        768        769        786        785        769        770        787        786        770        771        788        787        771        772        789        788        772        773        790        789        773        774        791        790        774        775        792        791        775        776        793        792        776        777        794        793        777        778        795        794        778        779        796        795        779        780        797        796        780        781        798        797        782        783        800        799        783        784        801        800        784        785        802        801        785        786        803        802        786        787        804        803        787        788        805        804        788        789        806        805        789        790        807        806        790        791        808        807        791        792        809        808        792        793        810        809        793        794        811        810        794        795        812        811        795        796        813        812        796        797        814        813        797        798        815        814        799        800        817        816        800        801        818        817        801        802        819        818        802        803        820        819        803        804        821        820        804        805        822        821        805        806        823        822        806        807        824        823        807        808        825        824        808        809        826        825        809        810        827        826        810        811        828        827        811        812        829        828        812        813        830        829        813        814        831        830        814        815        832        831        816        817        834        833        817        818        835        834        818        819        836        835        819        820        837        836        820        821        838        837        821        822        839        838        822        823        840        839        823        824        841        840        824        825        842        841        825        826        843        842        826        827        844        843        827        828        845        844        828        829        846        845        829        830        847        846        830        831        848        847        831        832        849        848        833        834        562        561        834        835        563        562        835        836        564        563        836        837        565        564        837        838        566        565        838        839        567        566        839        840        568        567        840        841        569        568        841        842        570        569        842        843        571        570        843        844        572        571        844        845        573        572        845        846        574        573        846        847        575        574        847        848        576        575        848        849        577        576        884        885        579        578        885        886        580        579        886        887        581        580        887        888        582        581        888        889        583        582        889        890        584        583        890        891        585        584        891        892        586        585        892        893        587        586        893        894        588        587        894        895        589        588        895        896        590        589        896        897        591        590        897        898        592        591        898        899        593        592        899        900        594        593        901        902        885        884        902        903        886        885        903        904        887        886        904        905        888        887        905        906        889        888        906        907        890        889        907        908        891        890        908        909        892        891        909        910        893        892        910        911        894        893        911        912        895        894        912        913        896        895        913        914        897        896        914        915        898        897        915        916        899        898        916        917        900        899        918        919        902        901        919        920        903        902        920        921        904        903        921        922        905        904        922        923        906        905        923        924        907        906        924        925        908        907        925        926        909        908        926        927        910        909        927        928        911        910        928        929        912        911        929        930        913        912        930        931        914        913        931        932        915        914        932        933        916        915        933        934        917        916        935        936        919        918        936        937        920        919        937        938        921        920        938        939        922        921        939        940        923        922        940        941        924        923        941        942        925        924        942        943        926        925        943        944        927        926        944        945        928        927        945        946        929        928        946        947        930        929        947        948        931        930        948        949        932        931        949        950        933        932        950        951        934        933        952        953        936        935        953        954        937        936        954        955        938        937        955        956        939        938        956        957        940        939        957        958        941        940        958        959        942        941        959        960        943        942        960        961        944        943        961        962        945        944        962        963        946        945        963        964        947        946        964        965        948        947        965        966        949        948        966        967        950        949        967        968        951        950        969        970        953        952        970        971        954        953        971        972        955        954        972        973        956        955        973        974        957        956        974        975        958        957        975        976        959        958        976        977        960        959        977        978        961        960        978        979        962        961        979        980        963        962        980        981        964        963        981        982        965        964        982        983        966        965        983        984        967        966        984        985        968        967        986        987        970        969        987        988        971        970        988        989        972        971        989        990        973        972        990        991        974        973        991        992        975        974        992        993        976        975        993        994        977        976        994        995        978        977        995        996        979        978        996        997        980        979        997        998        981        980        998        999        982        981        999       1000        983        982       1000       1001        984        983       1001       1002        985        984       1003       1004        987        986       1004       1005        988        987       1005       1006        989        988       1006       1007        990        989       1007       1008        991        990       1008       1009        992        991       1009       1010        993        992       1010       1011        994        993       1011       1012        995        994       1012       1013        996        995       1013       1014        997        996       1014       1015        998        997       1015       1016        999        998       1016       1017       1000        999       1017       1018       1001       1000       1018       1019       1002       1001       1020       1021       1004       1003       1021       1022       1005       1004       1022       1023       1006       1005       1023       1024       1007       1006       1024       1025       1008       1007       1025       1026       1009       1008       1026       1027       1010       1009       1027       1028       1011       1010       1028       1029       1012       1011       1029       1030       1013       1012       1030       1031       1014       1013       1031       1032       1015       1014       1032       1033       1016       1015       1033       1034       1017       1016       1034       1035       1018       1017       1035       1036       1019       1018       1037       1038       1021       1020       1038       1039       1022       1021       1039       1040       1023       1022       1040       1041       1024       1023       1041       1042       1025       1024       1042       1043       1026       1025       1043       1044       1027       1026       1044       1045       1028       1027       1045       1046       1029       1028       1046       1047       1030       1029       1047       1048       1031       1030       1048       1049       1032       1031       1049       1050       1033       1032       1050       1051       1034       1033       1051       1052       1035       1034       1052       1053       1036       1035       1054       1055       1038       1037       1055       1056       1039       1038       1056       1057       1040       1039       1057       1058       1041       1040       1058       1059       1042       1041       1059       1060       1043       1042       1060       1061       1044       1043       1061       1062       1045       1044       1062       1063       1046       1045       1063       1064       1047       1046       1064       1065       1048       1047       1065       1066       1049       1048       1066       1067       1050       1049       1067       1068       1051       1050       1068       1069       1052       1051       1069       1070       1053       1052       1071       1072       1055       1054       1072       1073       1056       1055       1073       1074       1057       1056       1074       1075       1058       1057       1075       1076       1059       1058       1076       1077       1060       1059       1077       1078       1061       1060       1078       1079       1062       1061       1079       1080       1063       1062       1080       1081       1064       1063       1081       1082       1065       1064       1082       1083       1066       1065       1083       1084       1067       1066       1084       1085       1068       1067       1085       1086       1069       1068       1086       1087       1070       1069       1088       1089       1072       1071       1089       1090       1073       1072       1090       1091       1074       1073       1091       1092       1075       1074       1092       1093       1076       1075       1093       1094       1077       1076       1094       1095       1078       1077       1095       1096       1079       1078       1096       1097       1080       1079       1097       1098       1081       1080       1098       1099       1082       1081       1099       1100       1083       1082       1100       1101       1084       1083       1101       1102       1085       1084       1102       1103       1086       1085       1103       1104       1087       1086       1105       1106       1089       1088       1106       1107       1090       1089       1107       1108       1091       1090       1108       1109       1092       1091       1109       1110       1093       1092       1110       1111       1094       1093       1111       1112       1095       1094       1112       1113       1096       1095       1113       1114       1097       1096       1114       1115       1098       1097       1115       1116       1099       1098       1116       1117       1100       1099       1117       1118       1101       1100       1118       1119       1102       1101       1119       1120       1103       1102       1120       1121       1104       1103       1122       1123       1106       1105       1123       1124       1107       1106       1124       1125       1108       1107       1125       1126       1109       1108       1126       1127       1110       1109       1127       1128       1111       1110       1128       1129       1112       1111       1129       1130       1113       1112       1130       1131       1114       1113       1131       1132       1115       1114       1132       1133       1116       1115       1133       1134       1117       1116       1134       1135       1118       1117       1135       1136       1119       1118       1136       1137       1120       1119       1137       1138       1121       1120        272        273       1123       1122        273        274       1124       1123        274        275       1125       1124        275        276       1126       1125        276        277       1127       1126        277        278       1128       1127        278        279       1129       1128        279        280       1130       1129        280        281       1131       1130        281        282       1132       1131        282        283       1133       1132        283        284       1134       1133        284        285       1135       1134        285        286       1136       1135        286        287       1137       1136        287        288       1138       1137 </DataArray>
<DataArray type="Int32"                                    Name="offsets"                                                      NumberOfComponents=" 1" format="ascii">
         4          8         12         16         20         24         28         32         36         40         44         48         52         56         60         64         68         72         76         80         84         88         92         96        100        104        108        112        116        120        124        128        132        136        140        144        148        152        156        160        164        168        172        176        180        184        188        192        196        200        204        208        212        216        220        224        228        232        236        240        244        248        252        256        260        264        268        272        276        280        284        288        292        296        300        304        308        312        316        320        324        328        332        336        340        344        348        352        356        360        364        368        372        376        380        384        388        392        396        400        404        408        412        416        420        424        428        432        436        440        444        448        452        456        460        464        468        472        476        480        484        488        492        496        500        504        508        512        516        520        524        528        532        536        540        544        548        552        556        560        564        568        572        576        580        584        588        592        596        600        604        608        612        616        620        624        628        632        636        640        644        648        652        656        660        664        668        672        676        680        684        688        692        696        700        704        708        712        716        720        724        728        732        736        740        744        748        752        756        760        764        768        772        776        780        784        788        792        796        800        804        808        812        816        820        824        828        832        836        840        844        848        852        856        860        864        868        872        876        880        884        888        892        896        900        904        908        912        916        920        924        928        932        936        940        944        948        952        956        960        964        968        972        976        980        984        988        992        996       1000       1004       1008       1012       1016       1020       1024       1028       1032       1036       1040       1044       1048       1052       1056       1060       1064       1068       1072       1076       1080       1084       1088       1092       1096       1100       1104       1108       1112       1116       1120       1124       1128       1132       1136       1140       1144       1148       1152       1156       1160       1164       1168       1172       1176       1180       1184       1188       1192       1196       1200       1204       1208       1212       1216       1220       1224       1228       1232       1236       1240       1244       1248       1252       1256       1260       1264       1268       1272       1276       1280       1284       1288       1292       1296       1300       1304       1308       1312       1316       1320       1324       1328       1332       1336       1340       1344       1348       1352       1356       1360       1364       1368       1372       1376       1380       1384       1388       1392       1396       1400       1404       1408       1412       1416       1420       1424       1428       1432       1436       1440       1444       1448       1452       1456       1460       1464       1468       1472       1476       1480       1484       1488       1492       1496       1500       1504       1508       1512       1516       1520       1524       1528       1532       1536       1540       1544       1548       1552       1556       1560       1564       1568       1572       1576       1580       1584       1588       1592       1596       1600       1604       1608       1612       1616       1620       1624       1628       1632       1636       1640       1644       1648       1652       1656       1660       1664       1668       1672       1676       1680       1684       1688       1692       1696       1700       1704       1708       1712       1716       1720       1724       1728       1732       1736       1740       1744       1748       1752       1756       1760       1764       1768       1772       1776       1780       1784       1788       1792       1796       1800       1804       1808       1812       1816       1820       1824       1828       1832       1836       1840       1844       1848       1852       1856       1860       1864       1868       1872       1876       1880       1884       1888       1892       1896       1900       1904       1908       1912       1916       1920       1924       1928       1932       1936       1940       1944       1948       1952       1956       1960       1964       1968       1972       1976       1980       1984       1988       1992       1996       2000       2004       2008       2012       2016       2020       2024       2028       2032       2036       2040       2044       2048       2052       2056       2060       2064       2068       2072       2076       2080       2084       2088       2092       2096       2100       2104       2108       2112       2116       2120       2124       2128       2132       2136       2140       2144       2148       2152       2156       2160       2164       2168       2172       2176       2180       2184       2188       2192       2196       2200       2204       2208       2212       2216       2220       2224       2228       2232       2236       2240       2244       2248       2252       2256       2260       2264       2268       2272       2276       2280       2284       2288       2292       2296       2300       2304       2308       2312       2316       2320       2324       2328       2332       2336       2340       2344       2348       2352       2356       2360       2364       2368       2372       2376       2380       2384       2388       2392       2396       2400       2404       2408       2412       2416       2420       2424       2428       2432       2436       2440       2444       2448       2452       2456       2460       2464       2468       2472       2476       2480       2484       2488       2492       2496       2500       2504       2508       2512       2516       2520       2524       2528       2532       2536       2540       2544       2548       2552       2556       2560       2564       2568       2572       2576       2580       2584       2588       2592       2596       2600       2604       2608       2612       2616       2620       2624       2628       2632       2636       2640       2644       2648       2652       2656       2660       2664       2668       2672       2676       2680       2684       2688       2692       2696       2700       2704       2708       2712       2716       2720       2724       2728       2732       2736       2740       2744       2748       2752       2756       2760       2764       2768       2772       2776       2780       2784       2788       2792       2796       2800       2804       2808       2812       2816       2820       2824       2828       2832       2836       2840       2844       2848       2852       2856       2860       2864       2868       2872       2876       2880       2884       2888       2892       2896       2900       2904       2908       2912       2916       2920       2924       2928       2932       2936       2940       2944       2948       2952       2956       2960       2964       2968       2972       2976       2980       2984       2988       2992       2996       3000       3004       3008       3012       3016       3020       3024       3028       3032       3036       3040       3044       3048       3052       3056       3060       3064       3068       3072       3076       3080       3084       3088       3092       3096       3100       3104       3108       3112       3116       3120       3124       3128       3132       3136       3140       3144       3148       3152       3156       3160       3164       3168       3172       3176       3180       3184       3188       3192       3196       3200       3204       3208       3212       3216       3220       3224       3228       3232       3236       3240       3244       3248       3252       3256       3260       3264       3268       3272       3276       3280       3284       3288       3292       3296       3300       3304       3308       3312       3316       3320       3324       3328       3332       3336       3340       3344       3348       3352       3356       3360       3364       3368       3372       3376       3380       3384       3388       3392       3396       3400       3404       3408       3412       3416       3420       3424       3428       3432       3436       3440       3444       3448       3452       3456       3460       3464       3468       3472       3476       3480       3484       3488       3492       3496       3500       3504       3508       3512       3516       3520       3524       3528       3532       3536       3540       3544       3548       3552       3556       3560       3564       3568       3572       3576       3580       3584       3588       3592       3596       3600       3604       3608       3612       3616       3620       3624       3628       3632       3636       3640       3644       3648       3652       3656       3660       3664       3668       3672       3676       3680       3684       3688       3692       3696       3700       3704       3708       3712       3716       3720       3724       3728       3732       3736       3740       3744       3748       3752       3756       3760       3764       3768       3772       3776       3780       3784       3788       3792       3796       3800       3804       3808       3812       3816       3820       3824       3828       3832       3836       3840       3844       3848       3852       3856       3860       3864       3868       3872       3876       3880       3884       3888       3892       3896       3900       3904       3908       3912       3916       3920       3924       3928       3932       3936       3940       3944       3948       3952       3956       3960       3964       3968       3972       3976       3980       3984       3988       3992       3996       4000       4004       4008       4012       4016       4020       4024       4028       4032       4036       4040       4044       4048       4052       4056       4060       4064       4068       4072       4076       4080       4084       4088       4092       4096 </DataArray>
<DataArray type="UInt8"                                    Name="types"                                                      NumberOfComponents=" 1" format="ascii">
         9          9          9          9          9          9          9          9          9          9          9          9          9          9          9          9          9          9          9          9          9          9          9          9          9          9          9          9          9          9          9          9          9          9          9          9          9          9          9          9          9          9          9          9          9          9          9          9          9          9          9          9          9          9          9          9          9          9          9          9          9          9          9          9          9          9          9          9          9          9          9          9          9          9          9          9          9          9          9          9          9          9          9          9          9          9          9          9          9          9          9          9          9          9          9          9          9          9          9          9          9          9          9          9          9          9          9          9          9          9          9          9          9          9          9          9          9          9          9          9          9          9          9          9          9          9          9          9          9          9          9          9          9          9          9          9          9          9          9          9          9          9          9          9          9          9          9          9          9          9          9          9          9          9          9          9          9          9          9          9          9          9          9          9          9          9          9          9          9          9          9          9          9          9          9          9          9          9          9          9          9          9          9          9          9          9          9          9          9          9          9          9          9          9          9          9          9          9          9          9          9          9          9          9          9          9          9          9          9          9          9          9          9          9          9          9          9          9          9          9          9          9          9          9          9          9          9          9          9          9          9          9          9          9          9          9          9          9          9          9          9          9          9          9          9          9          9          9          9          9          9          9          9          9          9          9          9          9          9          9          9          9          9          9          9          9          9          9          9          9          9          9          9          9          9          9          9          9          9          9          9          9          9          9          9          9          9          9          9          9          9          9          9          9          9          9          9          9          9          9          9          9          9          9          9          9          9          9          9          9          9          9          9          9          9          9          9          9          9          9          9          9          9          9          9          9          9          9          9          9          9          9          9          9          9          9          9          9          9          9          9          9          9          9          9          9          9          9          9          9          9          9          9          9          9          9          9          9          9          9          9          9          9          9          9          9          9          9          9          9          9          9          9          9          9          9          9          9          9          9          9          9          9          9          9          9          9          9          9          9          9          9          9          9          9          9          9          9          9          9          9          9          9          9          9          9          9          9          9          9          9          9          9          9          9          9          9          9          9          9          9          9          9          9          9          9          9          9          9          9          9          9          9          9          9          9          9          9          9          9          9          9          9          9          9          9          9          9          9          9          9          9          9          9          9          9          9          9          9          9          9          9          9          9          9          9          9          9          9          9          9          9          9          9          9          9          9          9          9          9          9          9          9          9          9          9          9          9          9          9          9          9          9          9          9          9          9          9          9          9          9          9          9          9          9          9          9          9          9          9          9          9          9          9          9          9          9          9          9          9          9          9          9          9          9          9          9          9          9          9          9          9          9          9          9          9          9          9          9          9          9          9          9          9          9          9          9          9          9          9          9          9          9          9          9          9          9          9          9          9          9          9          9          9          9          9          9          9          9          9          9          9          9          9          9          9          9          9          9          9          9          9          9          9          9          9          9          9          9          9          9          9          9          9          9          9          9          9          9          9          9          9          9          9          9          9          9          9          9          9          9          9          9          9          9          9          9          9          9          9          9          9          9          9          9          9          9          9          9          9          9          9          9          9          9          9          9          9          9          9          9          9          9          9          9          9          9          9          9          9          9          9          9          9          9          9          9          9          9          9          9          9          9          9          9          9          9          9          9          9          9          9          9          9          9          9          9          9          9          9          9          9          9          9          9          9          9          9          9          9          9          9          9          9          9          9          9          9          9          9          9          9          9          9          9          9          9          9          9          9          9          9          9          9          9          9          9          9          9          9          9          9          9          9          9          9          9          9          9          9          9          9          9          9          9          9          9          9          9          9          9          9          9          9          9          9          9          9          9          9          9          9          9          9          9          9          9          9          9          9          9          9          9          9          9          9          9          9          9          9          9          9          9          9          9          9          9          9          9          9          9          9          9          9          9          9          9          9          9          9          9          9          9          9          9          9          9          9          9          9          9          9          9          9          9          9          9          9          9          9          9          9          9          9          9          9          9          9          9          9          9          9          9          9          9          9          9          9          9          9          9          9          9          9          9          9          9          9          9          9          9          9          9          9          9          9          9          9          9          9          9          9          9          9          9          9          9          9          9          9          9          9          9          9          9          9          9          9          9          9          9          9          9          9          9          9          9          9          9          9          9          9          9          9          9          9          9          9          9          9          9          9          9          9          9          9          9          9          9          9          9          9          9          9          9          9          9          9          9          9          9          9          9          9          9          9          9          9          9          9          9          9          9          9          9          9          9          9          9          9          9          9          9          9          9          9          9          9          9          9          9          9          9          9          9          9          9          9          9          9          9          9          9          9          9          9          9          9          9          9          9          9          9          9          9          9          9          9          9          9          9          9          9          9          9          9          9          9          9          9          9          9          9          9          9          9          9          9          9          9          9          9          9          9          9          9          9          9          9          9          9          9          9          9          9          9          9          9          9          9          9          9          9          9          9          9          9          9          9          9          9          9          9          9 </DataArray>
</Cells>
<CellData>
<DataArray type="Int32"                                    Name="material"                                                      NumberOfComponents=" 1" format="ascii">
         1          1          1          1          1          1          1          1          1          1          1          1          1          1          1          1          1          1          1          1          1          1          1          1          1          1          1          1          1          1          1          1          1          1          1          1          1          1          1          1          1          1          1          1          1          1          1          1          1          1          1          1          1          1          1          1          1          1          1          1          1          1          1          1          1          1          1          1          1          1          1          1          1          1          1          1          1          1          1          1          1          1          1          1          1          1          1          1          1          1          1          1          1          1          1          1          1          1          1          1          1          1          1          1          1          1          1          1          1          1          1          1          1          1          1          1          1          1          1          1          1          1          1          1          1          1          1          1          1          1          1          1          1          1          1          1          1          1          1          1          1          1          1          1          1          1          1          1          1          1          1          1          1          1          1          1          1          1          1          1          1          1          1          1          1          1          1          1          1          1          1          1          1          1          1          1          1          1          1          1          1          1          1          1          1          1          1          1          1          1          1          1          1          1          1          1          1          1          1          1          1          1          1          1          1          1          1          1          1          1          1          1          1          1          1          1          1          1          1          1          1          1          1          1          1          1          1          1          1          1          1          1          1          1          1          1          1          1          1          1          1          1          1          1          1          1          1          1          1          1          1          1          1          1          1          1          1          1          1          1          1          1          1          1          1          1          1          1          1          1          1          1          1          1          1          1          1          1          1          1          1          1          1          1          1          1          1          1          1          1          1          1          1          1          1          1          1          1          1          1          1          1          1          1          1          1          1          1          1          1          1          1          1          1          1          1          1          1          1          1          1          1          1          1          1          1          1          1          1          1          1          1          1          1          1          1          1          1          1          1          1          1          1          1          1          1          1          1          1          1          1          1          1          1          1          1          1          1          1          1          1          1          1          1          1          1          1          1          1          1          1          1          1          1          1          1          1          1          1          1          1          1          1          1          1          1          1          1          1          1          1          1          1          1          1          1          1          1          1          1          1          1          1          1          1          1          1          1          1          1          1          1          1          1          1          1          1          1          1          1          1          1          1          1          1          1          1          1          1          1          1          1          1          1          1          1          1          1          1          1          1          1          1          1          1          1          1          1          1          1          1          1          1          1          1          1          1          1          1          1          1          1          1          1          1          1          1          1          1          1          1          1          1          1          1          1          1          1          1          1          1          1          1          1          1          1          1          1          1          1          1          1          1          1          1          1          1          1          1          1          1          1          1          1          1          1          1          1          1          1          1          1          1          1          1          1          1          1          1          1          1          1          1          1          1          1          1          1          1          1          1          1          1          1          1          1          1          1          1          1          1          1          1          1          1          1          1          1          1          1          1          1          1          1          1          1          1          1          1          1          1          1          1          1          1          1          1          1          1          1          1          1          1          1          1          1          1          1          1          1          1          1          1          1          1          1          1          1          1          1          1          1          1          1          1          1          1          1          1          1          1          1          1          1          1          1          1          1          1          1          1          1          1          1          1          1          1          1          1          1          1          1          1          1          1          1          1          1          1          1          1          1          1          1          1          1          1          1          1          1          1          1          1          1          1          1          1          1          1          1          1          1          1          1          1          1          1          1          1          1          1          1          1          1          1          1          1          1          1          1          1          1          1          1          1          1          1          1          1          1          1          1          1          1          1          1          1          1          1          1          1          1          1          1          1          1          1          1          1          1          1          1          1          1          1          1          1          1          1          1          1          1          1          1          1          1          1          1          1          1          1          1          1          1          1          1          1          1          1          1          1          1          1          1          1          1          1          1          1          1          1          1          1          1          1          1          1          1          1          1          1          1          1          1          1          1          1          1          1          1          1          1          1          1          1          1          1          1          1          1          1          1          1          1          1          1          1          1          1          1          1          1          1          1          1          1          1          1          1          1          1          1          1          1          1          1          1          1          1          1          1          1          1          1          1          1          1          1          1          1          1          1          1          1          1          1          1          1          1          1          1          1          1          1          1          1          1          1          1          1          1          1          1          1          1          1          1          1          1          1          1          1          1          1          1          1          1          1          1          1          1          1          1          1          1          1          1          1          1          1          1          1          1          1          1          1          1          1          1          1          1          1          1          1          1          1          1          1          1          1          1          1          1          1          1          1          1          1          1          1          1          1          1          1          1          1          1          1          1          1          1          1          1          1          1          1          1          1          1          1          1          1          1          1          1          1          1          1          1          1          1          1          1          1          1          1          1          1          1          1          1          1          1          1          1          1          1          1          1          1          1          1          1          1          1          1          1          1          1          1          1          1          1          1          1          1          1          1          1          1          1          1          1          1          1          1          1          1          1          1          1          1          1          1          1          1          1          1          1          1          1          1          1          1          1          1          1          1          1          1          1          1          1          1          1          1          1          1          1          1          1          1          1          1          1          1          1          1          1          1          1          1          1          1          1          1          1          1          1          1          1          1          1          1 </DataArray>
</CellData>
<PointData>
<DataArray type="Float64"                                    Name="u"                                                      NumberOfComponents=" 3" format="ascii">
             -0.000676998               0.000000000               0.999999984              -0.000726071              -0.000000000               0.999999984              -0.000747421               0.000000000               0.999999984              -0.000759151               0.000000000               0.999999984              -0.000768194               0.000000000               0.999999984              -0.000777296               0.000000000               0.999999984              -0.000787356              -0.000000000               0.999999984              -0.000798654               0.000000000               0.999999984              -0.000811029               0.000000000               0.999999984              -0.000824244               0.000000000               0.999999984              -0.000838001              -0.000000000               0.999999984              -0.000852183              -0.000000000               0.999999984              -0.000866677              -0.000000000               0.999999984              -0.000881214               0.000000000               0.999999984              -0.000895311               0.000000000               0.999999984              -0.000908530               0.000000000               0.999999984              -0.000920211               0.000000000               0.999999984              -0.000673181               0.000126899               0.999999984              -0.000718639               0.000103629               0.999999984              -0.000737601               0.000093709               0.999999984              -0.000747889               0.000090470               0.999999984              -0.000755991               0.000090900               0.999999984              -0.000764339               0.000093191               0.999999984              -0.000773835               0.000096319               0.999999984              -0.000784574               0.000099771               0.999999984              -0.000796329               0.000103052               0.999999984              -0.000808888               0.000105724               0.999999984              -0.000821929               0.000107564               0.999999984              -0.000835241               0.000108642               0.999999984              -0.000848593               0.000108641               0.999999984              -0.000861642               0.000107024               0.999999984              -0.000874096               0.000103226               0.999999984              -0.000885499               0.000096603               0.999999984              -0.000895296               0.000085937               0.999999984              -0.000662000               0.000252723               0.999999984              -0.000696966               0.000206734               0.999999984              -0.000709504               0.000187958               0.999999984              -0.000715954               0.000182512               0.999999984              -0.000721658               0.000183962               0.999999984              -0.000728341               0.000188919               0.999999984              -0.000736408               0.000195372               0.999999984              -0.000745783               0.000202296               0.999999984              -0.000755948               0.000208844               0.999999984              -0.000766516               0.000214236               0.999999984              -0.000777357               0.000218028               0.999999984              -0.000788087               0.000220174               0.999999984              -0.000798384               0.000220139               0.999999984              -0.000807933               0.000217083               0.999999984              -0.000816310               0.000210225               0.999999984              -0.000823216               0.000198380               0.999999984              -0.000828371               0.000180341               0.999999984              -0.000643695               0.000376285               0.999999984              -0.000661942               0.000308855               0.999999984              -0.000665219               0.000283241               0.999999984              -0.000666621               0.000277164               0.999999984              -0.000669393               0.000280708               0.999999984              -0.000674212               0.000288900               0.999999984              -0.000680673               0.000298912               0.999999984              -0.000688149               0.000309291               0.999999984              -0.000696073               0.000318943               0.999999984              -0.000704021               0.000326854               0.999999984              -0.000711561               0.000332587               0.999999984              -0.000718331               0.000335812               0.999999984              -0.000723888               0.000335921               0.999999984              -0.000727907               0.000332043               0.999999984              -0.000730158               0.000323158               0.999999984              -0.000730471               0.000308435               0.999999984              -0.000728971               0.000287248               0.999999984              -0.000618498               0.000496334               0.999999984              -0.000615372               0.000409718               0.999999984              -0.000608460               0.000379715               0.999999984              -0.000605014               0.000374661               0.999999984              -0.000605415               0.000381242               0.999999984              -0.000608728               0.000393149               0.999999984              -0.000613698               0.000406868               0.999999984              -0.000619396               0.000420475               0.999999984              -0.000625008               0.000432819               0.999999984              -0.000629761               0.000442843               0.999999984              -0.000633223               0.000450057               0.999999984              -0.000634899               0.000454071               0.999999984              -0.000634453               0.000454257               0.999999984              -0.000631649               0.000449894               0.999999984              -0.000626444               0.000440228               0.999999984              -0.000619108               0.000425025               0.999999984              -0.000610213               0.000404601               0.999999984              -0.000586984               0.000611693               0.999999984              -0.000559833               0.000509233               0.999999984              -0.000543498               0.000477205               0.999999984              -0.000536600               0.000474504               0.999999984              -0.000535824               0.000484680               0.999999984              -0.000538464               0.000500327               0.999999984              -0.000542502               0.000517411               0.999999984              -0.000546401               0.000533754               0.999999984              -0.000549100               0.000548223               0.999999984              -0.000549947               0.000559833               0.999999984              -0.000548478               0.000568179               0.999999984              -0.000544286               0.000572649               0.999999984              -0.000537046               0.000572699               0.999999984              -0.000526749               0.000567980               0.999999984              -0.000513842               0.000558367               0.999999984              -0.000498963               0.000544480               0.999999984              -0.000482920               0.000527301               0.999999984              -0.000549683               0.000721309               0.999999984              -0.000497977               0.000607407               0.999999984              -0.000474550               0.000575302               0.999999984              -0.000466516               0.000575656               0.999999984              -0.000466109               0.000589390               0.999999984              -0.000468948               0.000608331               0.999999984              -0.000472164               0.000628118               0.999999984              -0.000473963               0.000646547               0.999999984              -0.000473297               0.000662579               0.999999984              -0.000469517               0.000675445               0.999999984              -0.000462318               0.000684520               0.999999984              -0.000451341               0.000689069               0.999999984              -0.000436631               0.000688792               0.999999984              -0.000418694               0.000684073               0.999999984              -0.000398288               0.000675453               0.999999984              -0.000376185               0.000663867               0.999999984              -0.000353085               0.000650426               0.999999984              -0.000507360               0.000823959               0.999999984              -0.000432859               0.000703886               0.999999984              -0.000405608               0.000673215               0.999999984              -0.000398916               0.000676501               0.999999984              -0.000400094               0.000693252               0.999999984              -0.000403456               0.000714913               0.999999984              -0.000405611               0.000736886               0.999999984              -0.000404786               0.000756930               0.999999984              -0.000400031               0.000774136               0.999999984              -0.000390910               0.000787680               0.999999984              -0.000377054               0.000796964               0.999999984              -0.000358531               0.000801180               0.999999984              -0.000335927               0.000800811               0.999999984              -0.000310097               0.000796721               0.999999984              -0.000281993               0.000789824               0.999999984              -0.000252404               0.000780959               0.999999984              -0.000221982               0.000771035               0.999999984              -0.000461434               0.000917826               0.999999984              -0.000366794               0.000798577               0.999999984              -0.000340380               0.000769539               0.999999984              -0.000336752               0.000774960               0.999999984              -0.000340111               0.000794150               0.999999984              -0.000343841               0.000817963               0.999999984              -0.000344347               0.000841768               0.999999984              -0.000340070               0.000863266               0.999999984              -0.000330500               0.000881188               0.999999984              -0.000315034               0.000894861               0.999999984              -0.000293513               0.000903695               0.999999984              -0.000266597               0.000907817               0.999999984              -0.000235408               0.000907944               0.999999984              -0.000201119               0.000905271               0.999999984              -0.000164867               0.000900766               0.999999984              -0.000127586               0.000895175               0.999999984              -0.000089944               0.000889066               0.999999984              -0.000414153               0.001006361               0.999999984              -0.000312011               0.000903446               0.999999984              -0.000282362               0.000869446               0.999999984              -0.000277569               0.000868440               0.999999984              -0.000280664               0.000882779               0.999999984              -0.000284858               0.000903687               0.999999984              -0.000286609               0.000926579               0.999999984              -0.000284376               0.000948778               0.999999984              -0.000277403               0.000968947               0.999999984              -0.000265094               0.000986088               0.999999984              -0.000246906               0.000999828               0.999999984              -0.000223217               0.001009802               0.999999984              -0.000194614               0.001016444               0.999999984              -0.000161808               0.001020135               0.999999984              -0.000126146               0.001021901               0.999999984              -0.000088504               0.001022314               0.999999984              -0.000049870               0.001022127               0.999999984              -0.000362438               0.001086729               0.999999984              -0.000260219               0.001004679               0.999999984              -0.000227473               0.000971770               0.999999984              -0.000220495               0.000966767               0.999999984              -0.000222483               0.000977233               0.999999984              -0.000226359               0.000995651               0.999999984              -0.000228870               0.001017565               0.999999984              -0.000228297               0.001040296               0.999999984              -0.000223522               0.001062289               0.999999984              -0.000213960               0.001082486               0.999999984              -0.000198972               0.001100311               0.999999984              -0.000178465               0.001115336               0.999999984              -0.000152784               0.001127545               0.999999984              -0.000122226               0.001137132               0.999999984              -0.000087529               0.001144652               0.999999984              -0.000049659               0.001150697               0.999999984              -0.000009732               0.001156058               0.999999984              -0.000307315               0.001157077               0.999999984              -0.000211393               0.001099203               0.999999984              -0.000177231               0.001071870               0.999999984              -0.000167771               0.001066238               0.999999984              -0.000167907               0.001074497               0.999999984              -0.000170919               0.001091239               0.999999984              -0.000173458               0.001112563               0.999999984              -0.000173928               0.001135997               0.999999984              -0.000170809               0.001159765               0.999999984              -0.000163523               0.001182828               0.999999984              -0.000151477               0.001204404               0.999999984              -0.000134296               0.001224080               0.999999984              -0.000111852               0.001241450               0.999999984              -0.000084015               0.001256555               0.999999984              -0.000050889               0.001269652               0.999999984              -0.000012969               0.001281215               0.999999984               0.000028801               0.001291835               0.999999984              -0.000249294               0.001216146               0.999999984              -0.000165461               0.001183134               0.999999984              -0.000132477               0.001164668               0.999999984              -0.000121340               0.001161278               0.999999984              -0.000119617               0.001169373               0.999999984              -0.000121231               0.001185603               0.999999984              -0.000123217               0.001207016               0.999999984              -0.000124002               0.001231395               0.999999984              -0.000122105               0.001257115               0.999999984              -0.000116661               0.001283123               0.999999984              -0.000107170               0.001308554               0.999999984              -0.000093407               0.001332842               0.999999984              -0.000074619               0.001355462               0.999999984              -0.000050179               0.001376181               0.999999984              -0.000019786               0.001394938               0.999999984               0.000016951               0.001412121               0.999999984               0.000059944               0.001428093               0.999999984              -0.000189039               0.001262927               0.999999984              -0.000122013               0.001252599               0.999999984              -0.000093342               0.001244595               0.999999984              -0.000082167               0.001245426               0.999999984              -0.000079182               0.001255092               0.999999984              -0.000079524               0.001271898               0.999999984              -0.000080760               0.001294033               0.999999984              -0.000081317               0.001319761               0.999999984              -0.000080103               0.001347569               0.999999984              -0.000076296               0.001376458               0.999999984              -0.000069336               0.001405602               0.999999984              -0.000058795               0.001434457               0.999999984              -0.000044062               0.001462412               0.999999984              -0.000024239               0.001489089               0.999999984               0.000001750               0.001514083               0.999999984               0.000034836               0.001537400               0.999999984               0.000076093               0.001559186               0.999999984              -0.000127035               0.001297005               0.999999984              -0.000080370               0.001304621               0.999999984              -0.000059145               0.001306207               0.999999984              -0.000050091               0.001311930               0.999999984              -0.000046993               0.001323952               0.999999984              -0.000046601               0.001342069               0.999999984              -0.000047059               0.001365299               0.999999984              -0.000047320               0.001392460               0.999999984              -0.000046622               0.001422221               0.999999984              -0.000044235               0.001453727               0.999999984              -0.000039709               0.001486317               0.999999984              -0.000032528               0.001519232               0.999999984              -0.000022212               0.001552049               0.999999984              -0.000008027               0.001584358               0.999999984               0.000011290               0.001615579               0.999999984               0.000037014               0.001645284               0.999999984               0.000070894               0.001673109               0.999999984              -0.000063817               0.001317682               0.999999984              -0.000039922               0.001336874               0.999999984              -0.000028589               0.001345093               0.999999984              -0.000023573               0.001354655               0.999999984              -0.000021649               0.001368886               0.999999984              -0.000021129               0.001388307               0.999999984              -0.000021195               0.001412504               0.999999984              -0.000021228               0.001440653               0.999999984              -0.000020957               0.001471800               0.999999984              -0.000019830               0.001505117               0.999999984              -0.000017631               0.001540139               0.999999984              -0.000014055               0.001576222               0.999999984              -0.000008646               0.001612725               0.999999984              -0.000001072               0.001649255               0.999999984               0.000009251               0.001685215               0.999999984               0.000023569               0.001719848               0.999999984               0.000043147               0.001752415               0.999999984               0.000000000               0.001324488               0.999999984               0.000000000               0.001347730               0.999999984               0.000000000               0.001358374               0.999999984              -0.000000000               0.001369309               0.999999984              -0.000000000               0.001384464               0.999999984               0.000000000               0.001404485               0.999999984               0.000000000               0.001429065               0.999999984               0.000000000               0.001457583               0.999999984               0.000000000               0.001489275               0.999999984               0.000000000               0.001523308               0.999999984              -0.000000000               0.001559204               0.999999984              -0.000000000               0.001596427               0.999999984              -0.000000000               0.001634359               0.999999984               0.000000000               0.001672409               0.999999984               0.000000000               0.001710042               0.999999984              -0.000000000               0.001746594               0.999999984              -0.000000000               0.001780993               0.999999984              -0.000676998               0.000000000               0.999999984              -0.000726071              -0.000000000               0.999999984              -0.000747421               0.000000000               0.999999984              -0.000759151               0.000000000               0.999999984              -0.000768194               0.000000000               0.999999984              -0.000777296               0.000000000               0.999999984              -0.000787356              -0.000000000               0.999999984              -0.000798654               0.000000000               0.999999984              -0.000811029               0.000000000               0.999999984              -0.000824244               0.000000000               0.999999984              -0.000838001              -0.000000000               0.999999984              -0.000852183              -0.000000000               0.999999984              -0.000866677              -0.000000000               0.999999984              -0.000881214               0.000000000               0.999999984              -0.000895311               0.000000000               0.999999984              -0.000908530               0.000000000               0.999999984              -0.000920211               0.000000000               0.999999984              -0.000673181              -0.000126899               0.999999984              -0.000718639              -0.000103629               0.999999984              -0.000737601              -0.000093709               0.999999984              -0.000747889              -0.000090470               0.999999984              -0.000755991              -0.000090900               0.999999984              -0.000764339              -0.000093191               0.999999984              -0.000773835              -0.000096319               0.999999984              -0.000784574              -0.000099771               0.999999984              -0.000796329              -0.000103052               0.999999984              -0.000808888              -0.000105724               0.999999984              -0.000821929              -0.000107564               0.999999984              -0.000835241              -0.000108642               0.999999984              -0.000848593              -0.000108641               0.999999984              -0.000861642              -0.000107024               0.999999984              -0.000874096              -0.000103226               0.999999984              -0.000885499              -0.000096603               0.999999984              -0.000895296              -0.000085937               0.999999984              -0.000662000              -0.000252723               0.999999984              -0.000696966              -0.000206734               0.999999984              -0.000709504              -0.000187958               0.999999984              -0.000715954              -0.000182512               0.999999984              -0.000721658              -0.000183962               0.999999984              -0.000728341              -0.000188919               0.999999984              -0.000736408              -0.000195372               0.999999984              -0.000745783              -0.000202296               0.999999984              -0.000755948              -0.000208844               0.999999984              -0.000766516              -0.000214236               0.999999984              -0.000777357              -0.000218028               0.999999984              -0.000788087              -0.000220174               0.999999984              -0.000798384              -0.000220139               0.999999984              -0.000807933              -0.000217083               0.999999984              -0.000816310              -0.000210225               0.999999984              -0.000823216              -0.000198380               0.999999984              -0.000828371              -0.000180341               0.999999984              -0.000643695              -0.000376285               0.999999984              -0.000661942              -0.000308855               0.999999984              -0.000665219              -0.000283241               0.999999984              -0.000666621              -0.000277164               0.999999984              -0.000669393              -0.000280708               0.999999984              -0.000674212              -0.000288900               0.999999984              -0.000680673              -0.000298912               0.999999984              -0.000688149              -0.000309291               0.999999984              -0.000696073              -0.000318943               0.999999984              -0.000704021              -0.000326854               0.999999984              -0.000711561              -0.000332587               0.999999984              -0.000718331              -0.000335812               0.999999984              -0.000723888              -0.000335921               0.999999984              -0.000727907              -0.000332043               0.999999984              -0.000730158              -0.000323158               0.999999984              -0.000730471              -0.000308435               0.999999984              -0.000728971              -0.000287248               0.999999984              -0.000618498              -0.000496334               0.999999984              -0.000615372              -0.000409718               0.999999984              -0.000608460              -0.000379715               0.999999984              -0.000605014              -0.000374661               0.999999984              -0.000605415              -0.000381242               0.999999984              -0.000608728              -0.000393149               0.999999984              -0.000613698              -0.000406868               0.999999984              -0.000619396              -0.000420475               0.999999984              -0.000625008              -0.000432819               0.999999984              -0.000629761              -0.000442843               0.999999984              -0.000633223              -0.000450057               0.999999984              -0.000634899              -0.000454071               0.999999984              -0.000634453              -0.000454257               0.999999984              -0.000631649              -0.000449894               0.999999984              -0.000626444              -0.000440228               0.999999984              -0.000619108              -0.000425025               0.999999984              -0.000610213              -0.000404601               0.999999984              -0.000586984              -0.000611693               0.999999984              -0.000559833              -0.000509233               0.999999984              -0.000543498              -0.000477205               0.999999984              -0.000536600              -0.000474504               0.999999984              -0.000535824              -0.000484680               0.999999984              -0.000538464              -0.000500327               0.999999984              -0.000542502              -0.000517411               0.999999984              -0.000546401              -0.000533754               0.999999984              -0.000549100              -0.000548223               0.999999984              -0.000549947              -0.000559833               0.999999984              -0.000548478              -0.000568179               0.999999984              -0.000544286              -0.000572649               0.999999984              -0.000537046              -0.000572699               0.999999984              -0.000526749              -0.000567980               0.999999984              -0.000513842              -0.000558367               0.999999984              -0.000498963              -0.000544480               0.999999984              -0.000482920              -0.000527301               0.999999984              -0.000549683              -0.000721309               0.999999984              -0.000497977              -0.000607407               0.999999984              -0.000474550              -0.000575302               0.999999984              -0.000466516              -0.000575656               0.999999984              -0.000466109              -0.000589390               0.999999984              -0.000468948              -0.000608331               0.999999984              -0.000472164              -0.000628118               0.999999984              -0.000473963              -0.000646547               0.999999984              -0.000473297              -0.000662579               0.999999984              -0.000469517              -0.000675445               0.999999984              -0.000462318              -0.000684520               0.999999984              -0.000451341              -0.000689069               0.999999984              -0.000436631              -0.000688792               0.999999984              -0.000418694              -0.000684073               0.999999984              -0.000398288              -0.000675453               0.999999984              -0.000376185              -0.000663867               0.999999984              -0.000353085              -0.000650426               0.999999984              -0.000507360              -0.000823959               0.999999984              -0.000432859              -0.000703886               0.999999984              -0.000405608              -0.000673215               0.999999984              -0.000398916              -0.000676501               0.999999984              -0.000400094              -0.000693252               0.999999984              -0.000403456              -0.000714913               0.999999984              -0.000405611              -0.000736886               0.999999984              -0.000404786              -0.000756930               0.999999984              -0.000400031              -0.000774136               0.999999984              -0.000390910              -0.000787680               0.999999984              -0.000377054              -0.000796964               0.999999984              -0.000358531              -0.000801180               0.999999984              -0.000335927              -0.000800811               0.999999984              -0.000310097              -0.000796721               0.999999984              -0.000281993              -0.000789824               0.999999984              -0.000252404              -0.000780959               0.999999984              -0.000221982              -0.000771035               0.999999984              -0.000461434              -0.000917826               0.999999984              -0.000366794              -0.000798577               0.999999984              -0.000340380              -0.000769539               0.999999984              -0.000336752              -0.000774960               0.999999984              -0.000340111              -0.000794150               0.999999984              -0.000343841              -0.000817963               0.999999984              -0.000344347              -0.000841768               0.999999984              -0.000340070              -0.000863266               0.999999984              -0.000330500              -0.000881188               0.999999984              -0.000315034              -0.000894861               0.999999984              -0.000293513              -0.000903695               0.999999984              -0.000266597              -0.000907817               0.999999984              -0.000235408              -0.000907944               0.999999984              -0.000201119              -0.000905271               0.999999984              -0.000164867              -0.000900766               0.999999984              -0.000127586              -0.000895175               0.999999984              -0.000089944              -0.000889066               0.999999984              -0.000414153              -0.001006361               0.999999984              -0.000312011              -0.000903446               0.999999984              -0.000282362              -0.000869446               0.999999984              -0.000277569              -0.000868440               0.999999984              -0.000280664              -0.000882779               0.999999984              -0.000284858              -0.000903687               0.999999984              -0.000286609              -0.000926579               0.999999984              -0.000284376              -0.000948778               0.999999984              -0.000277403              -0.000968947               0.999999984              -0.000265094              -0.000986088               0.999999984              -0.000246906              -0.000999828               0.999999984              -0.000223217              -0.001009802               0.999999984              -0.000194614              -0.001016444               0.999999984              -0.000161808              -0.001020135               0.999999984              -0.000126146              -0.001021901               0.999999984              -0.000088504              -0.001022314               0.999999984              -0.000049870              -0.001022127               0.999999984              -0.000362438              -0.001086729               0.999999984              -0.000260219              -0.001004679               0.999999984              -0.000227473              -0.000971770               0.999999984              -0.000220495              -0.000966767               0.999999984              -0.000222483              -0.000977233               0.999999984              -0.000226359              -0.000995651               0.999999984              -0.000228870              -0.001017565               0.999999984              -0.000228297              -0.001040296               0.999999984              -0.000223522              -0.001062289               0.999999984              -0.000213960              -0.001082486               0.999999984              -0.000198972              -0.001100311               0.999999984              -0.000178465              -0.001115336               0.999999984              -0.000152784              -0.001127545               0.999999984              -0.000122226              -0.001137132               0.999999984              -0.000087529              -0.001144652               0.999999984              -0.000049659              -0.001150697               0.999999984              -0.000009732              -0.001156058               0.999999984              -0.000307315              -0.001157077               0.999999984              -0.000211393              -0.001099203               0.999999984              -0.000177231              -0.001071870               0.999999984              -0.000167771              -0.001066238               0.999999984              -0.000167907              -0.001074497               0.999999984              -0.000170919              -0.001091239               0.999999984              -0.000173458              -0.001112563               0.999999984              -0.000173928              -0.001135997               0.999999984              -0.000170809              -0.001159765               0.999999984              -0.000163523              -0.001182828               0.999999984              -0.000151477              -0.001204404               0.999999984              -0.000134296              -0.001224080               0.999999984              -0.000111852              -0.001241450               0.999999984              -0.000084015              -0.001256555               0.999999984              -0.000050889              -0.001269652               0.999999984              -0.000012969              -0.001281215               0.999999984               0.000028801              -0.001291835               0.999999984              -0.000249294              -0.001216146               0.999999984              -0.000165461              -0.001183134               0.999999984              -0.000132477              -0.001164668               0.999999984              -0.000121340              -0.001161278               0.999999984              -0.000119617              -0.001169373               0.999999984              -0.000121231              -0.001185603               0.999999984              -0.000123217              -0.001207016               0.999999984              -0.000124002              -0.001231395               0.999999984              -0.000122105              -0.001257115               0.999999984              -0.000116661              -0.001283123               0.999999984              -0.000107170              -0.001308554               0.999999984              -0.000093407              -0.001332842               0.999999984              -0.000074619              -0.001355462               0.999999984              -0.000050179              -0.001376181               0.999999984              -0.000019786              -0.001394938               0.999999984               0.000016951              -0.001412121               0.999999984               0.000059944              -0.001428093               0.999999984              -0.000189039              -0.001262927               0.999999984              -0.000122013              -0.001252599               0.999999984              -0.000093342              -0.001244595               0.999999984              -0.000082167              -0.001245426               0.999999984              -0.000079182              -0.001255092               0.999999984              -0.000079524              -0.001271898               0.999999984              -0.000080760              -0.001294033               0.999999984              -0.000081317              -0.001319761               0.999999984              -0.000080103              -0.001347569               0.999999984              -0.000076296              -0.001376458               0.999999984              -0.000069336              -0.001405602               0.999999984              -0.000058795              -0.001434457               0.999999984              -0.000044062              -0.001462412               0.999999984              -0.000024239              -0.001489089               0.999999984               0.000001750              -0.001514083               0.999999984               0.000034836              -0.001537400               0.999999984               0.000076093              -0.001559186               0.999999984              -0.000127035              -0.001297005               0.999999984              -0.000080370              -0.001304621               0.999999984              -0.000059145              -0.001306207               0.999999984              -0.000050091              -0.001311930               0.999999984              -0.000046993              -0.001323952               0.999999984              -0.000046601              -0.001342069               0.999999984              -0.000047059              -0.001365299               0.999999984              -0.000047320              -0.001392460               0.999999984              -0.000046622              -0.001422221               0.999999984              -0.000044235              -0.001453727               0.999999984              -0.000039709              -0.001486317               0.999999984              -0.000032528              -0.001519232               0.999999984              -0.000022212              -0.001552049               0.999999984              -0.000008027              -0.001584358               0.999999984               0.000011290              -0.001615579               0.999999984               0.000037014              -0.001645284               0.999999984               0.000070894              -0.001673109               0.999999984              -0.000063817              -0.001317682               0.999999984              -0.000039922              -0.001336874               0.999999984              -0.000028589              -0.001345093               0.999999984              -0.000023573              -0.001354655               0.999999984              -0.000021649              -0.001368886               0.999999984              -0.000021129              -0.001388307               0.999999984              -0.000021195              -0.001412504               0.999999984              -0.000021228              -0.001440653               0.999999984              -0.000020957              -0.001471800               0.999999984              -0.000019830              -0.001505117               0.999999984              -0.000017631              -0.001540139               0.999999984              -0.000014055              -0.001576222               0.999999984              -0.000008646              -0.001612725               0.999999984              -0.000001072              -0.001649255               0.999999984               0.000009251              -0.001685215               0.999999984               0.000023569              -0.001719848               0.999999984               0.000043147              -0.001752415               0.999999984              -0.000000000              -0.001324488               0.999999984               0.000000000              -0.001347730               0.999999984              -0.000000000              -0.001358374               0.999999984               0.000000000              -0.001369309               0.999999984               0.000000000              -0.001384464               0.999999984              -0.000000000              -0.001404485               0.999999984               0.000000000              -0.001429065               0.999999984               0.000000000              -0.001457583               0.999999984               0.000000000              -0.001489275               0.999999984              -0.000000000              -0.001523308               0.999999984               0.000000000              -0.001559204               0.999999984               0.000000000              -0.001596427               0.999999984              -0.000000000              -0.001634359               0.999999984              -0.000000000              -0.001672409               0.999999984              -0.000000000              -0.001710042               0.999999984              -0.000000000              -0.001746594               0.999999984               0.000000000              -0.001780993               0.999999984               0.000676998               0.000000000               0.999999984               0.000726071               0.000000000               0.999999984               0.000747421               0.000000000               0.999999984               0.000759151               0.000000000               0.999999984               0.000768194               0.000000000               0.999999984               0.000777296               0.000000000               0.999999984               0.000787356               0.000000000               0.999999984               0.000798654              -0.000000000               0.999999984               0.000811029               0.000000000               0.999999984               0.000824244               0.000000000               0.999999984               0.000838001               0.000000000               0.999999984               0.000852183              -0.000000000               0.999999984               0.000866677              -0.000000000               0.999999984               0.000881214               0.000000000               0.999999984               0.000895311              -0.000000000               0.999999984               0.000908530               0.000000000               0.999999984               0.000920211               0.000000000               0.999999984               0.000673181              -0.000126899               0.999999984               0.000718639              -0.000103629               0.999999984               0.000737601              -0.000093709               0.999999984               0.000747889              -0.000090470               0.999999984               0.000755991              -0.000090900               0.999999984               0.000764339              -0.000093191               0.999999984               0.000773835              -0.000096319               0.999999984               0.000784574              -0.000099771               0.999999984               0.000796329              -0.000103052               0.999999984               0.000808888              -0.000105724               0.999999984               0.000821929              -0.000107564               0.999999984               0.000835241              -0.000108642               0.999999984               0.000848593              -0.000108641               0.999999984               0.000861642              -0.000107024               0.999999984               0.000874096              -0.000103226               0.999999984               0.000885499              -0.000096603               0.999999984               0.000895296              -0.000085937               0.999999984               0.000662000              -0.000252723               0.999999984               0.000696966              -0.000206734               0.999999984               0.000709504              -0.000187958               0.999999984               0.000715954              -0.000182512               0.999999984               0.000721658              -0.000183962               0.999999984               0.000728341              -0.000188919               0.999999984               0.000736408              -0.000195372               0.999999984               0.000745783              -0.000202296               0.999999984               0.000755948              -0.000208844               0.999999984               0.000766516              -0.000214236               0.999999984               0.000777357              -0.000218028               0.999999984               0.000788087              -0.000220174               0.999999984               0.000798384              -0.000220139               0.999999984               0.000807933              -0.000217083               0.999999984               0.000816310              -0.000210225               0.999999984               0.000823216              -0.000198380               0.999999984               0.000828371              -0.000180341               0.999999984               0.000643695              -0.000376285               0.999999984               0.000661942              -0.000308855               0.999999984               0.000665219              -0.000283241               0.999999984               0.000666621              -0.000277164               0.999999984               0.000669393              -0.000280708               0.999999984               0.000674212              -0.000288900               0.999999984               0.000680673              -0.000298912               0.999999984               0.000688149              -0.000309291               0.999999984               0.000696073              -0.000318943               0.999999984               0.000704021              -0.000326854               0.999999984               0.000711561              -0.000332587               0.999999984               0.000718331              -0.000335812               0.999999984               0.000723888              -0.000335921               0.999999984               0.000727907              -0.000332043               0.999999984               0.000730158              -0.000323158               0.999999984               0.000730471              -0.000308435               0.999999984               0.000728971              -0.000287248               0.999999984               0.000618498              -0.000496334               0.999999984               0.000615372              -0.000409718               0.999999984               0.000608460              -0.000379715               0.999999984               0.000605014              -0.000374661               0.999999984               0.000605415              -0.000381242               0.999999984               0.000608728              -0.000393149               0.999999984               0.000613698              -0.000406868               0.999999984               0.000619396              -0.000420475               0.999999984               0.000625008              -0.000432819               0.999999984               0.000629761              -0.000442843               0.999999984               0.000633223              -0.000450057               0.999999984               0.000634899              -0.000454071               0.999999984               0.000634453              -0.000454257               0.999999984               0.000631649              -0.000449894               0.999999984               0.000626444              -0.000440228               0.999999984               0.000619108              -0.000425025               0.999999984               0.000610213              -0.000404601               0.999999984               0.000586984              -0.000611693               0.999999984               0.000559833              -0.000509233               0.999999984               0.000543498              -0.000477205               0.999999984               0.000536600              -0.000474504               0.999999984               0.000535824              -0.000484680               0.999999984               0.000538464              -0.000500327               0.999999984               0.000542502              -0.000517411               0.999999984               0.000546401              -0.000533754               0.999999984               0.000549100              -0.000548223               0.999999984               0.000549947              -0.000559833               0.999999984               0.000548478              -0.000568179               0.999999984               0.000544286              -0.000572649               0.999999984               0.000537046              -0.000572699               0.999999984               0.000526749              -0.000567980               0.999999984               0.000513842              -0.000558367               0.999999984               0.000498963              -0.000544480               0.999999984               0.000482920              -0.000527301               0.999999984               0.000549683              -0.000721309               0.999999984               0.000497977              -0.000607407               0.999999984               0.000474550              -0.000575302               0.999999984               0.000466516              -0.000575656               0.999999984               0.000466109              -0.000589390               0.999999984               0.000468948              -0.000608331               0.999999984               0.000472164              -0.000628118               0.999999984               0.000473963              -0.000646547               0.999999984               0.000473297              -0.000662579               0.999999984               0.000469517              -0.000675445               0.999999984               0.000462318              -0.000684520               0.999999984               0.000451341              -0.000689069               0.999999984               0.000436631              -0.000688792               0.999999984               0.000418694              -0.000684073               0.999999984               0.000398288              -0.000675453               0.999999984               0.000376185              -0.000663867               0.999999984               0.000353085              -0.000650426               0.999999984               0.000507360              -0.000823959               0.999999984               0.000432859              -0.000703886               0.999999984               0.000405608              -0.000673215               0.999999984               0.000398916              -0.000676501               0.999999984               0.000400094              -0.000693252               0.999999984               0.000403456              -0.000714913               0.999999984               0.000405611              -0.000736886               0.999999984               0.000404786              -0.000756930               0.999999984               0.000400031              -0.000774136               0.999999984               0.000390910              -0.000787680               0.999999984               0.000377054              -0.000796964               0.999999984               0.000358531              -0.000801180               0.999999984               0.000335927              -0.000800811               0.999999984               0.000310097              -0.000796721               0.999999984               0.000281993              -0.000789824               0.999999984               0.000252404              -0.000780959               0.999999984               0.000221982              -0.000771035               0.999999984               0.000461434              -0.000917826               0.999999984               0.000366794              -0.000798577               0.999999984               0.000340380              -0.000769539               0.999999984               0.000336752              -0.000774960               0.999999984               0.000340111              -0.000794150               0.999999984               0.000343841              -0.000817963               0.999999984               0.000344347              -0.000841768               0.999999984               0.000340070              -0.000863266               0.999999984               0.000330500              -0.000881188               0.999999984               0.000315034              -0.000894861               0.999999984               0.000293513              -0.000903695               0.999999984               0.000266597              -0.000907817               0.999999984               0.000235408              -0.000907944               0.999999984               0.000201119              -0.000905271               0.999999984               0.000164867              -0.000900766               0.999999984               0.000127586              -0.000895175               0.999999984               0.000089944              -0.000889066               0.999999984               0.000414153              -0.001006361               0.999999984               0.000312011              -0.000903446               0.999999984               0.000282362              -0.000869446               0.999999984               0.000277569              -0.000868440               0.999999984               0.000280664              -0.000882779               0.999999984               0.000284858              -0.000903687               0.999999984               0.000286609              -0.000926579               0.999999984               0.000284376              -0.000948778               0.999999984               0.000277403              -0.000968947               0.999999984               0.000265094              -0.000986088               0.999999984               0.000246906              -0.000999828               0.999999984               0.000223217              -0.001009802               0.999999984               0.000194614              -0.001016444               0.999999984               0.000161808              -0.001020135               0.999999984               0.000126146              -0.001021901               0.999999984               0.000088504              -0.001022314               0.999999984               0.000049870              -0.001022127               0.999999984               0.000362438              -0.001086729               0.999999984               0.000260219              -0.001004679               0.999999984               0.000227473              -0.000971770               0.999999984               0.000220495              -0.000966767               0.999999984               0.000222483              -0.000977233               0.999999984               0.000226359              -0.000995651               0.999999984               0.000228870              -0.001017565               0.999999984               0.000228297              -0.001040296               0.999999984               0.000223522              -0.001062289               0.999999984               0.000213960              -0.001082486               0.999999984               0.000198972              -0.001100311               0.999999984               0.000178465              -0.001115336               0.999999984               0.000152784              -0.001127545               0.999999984               0.000122226              -0.001137132               0.999999984               0.000087529              -0.001144652               0.999999984               0.000049659              -0.001150697               0.999999984               0.000009732              -0.001156058               0.999999984               0.000307315              -0.001157077               0.999999984               0.000211393              -0.001099203               0.999999984               0.000177231              -0.001071870               0.999999984               0.000167771              -0.001066238               0.999999984               0.000167907              -0.001074497               0.999999984               0.000170919              -0.001091239               0.999999984               0.000173458              -0.001112563               0.999999984               0.000173928              -0.001135997               0.999999984               0.000170809              -0.001159765               0.999999984               0.000163523              -0.001182828               0.999999984               0.000151477              -0.001204404               0.999999984               0.000134296              -0.001224080               0.999999984               0.000111852              -0.001241450               0.999999984               0.000084015              -0.001256555               0.999999984               0.000050889              -0.001269652               0.999999984               0.000012969              -0.001281215               0.999999984              -0.000028801              -0.001291835               0.999999984               0.000249294              -0.001216146               0.999999984               0.000165461              -0.001183134               0.999999984               0.000132477              -0.001164668               0.999999984               0.000121340              -0.001161278               0.999999984               0.000119617              -0.001169373               0.999999984               0.000121231              -0.001185603               0.999999984               0.000123217              -0.001207016               0.999999984               0.000124002              -0.001231395               0.999999984               0.000122105              -0.001257115               0.999999984               0.000116661              -0.001283123               0.999999984               0.000107170              -0.001308554               0.999999984               0.000093407              -0.001332842               0.999999984               0.000074619              -0.001355462               0.999999984               0.000050179              -0.001376181               0.999999984               0.000019786              -0.001394938               0.999999984              -0.000016951              -0.001412121               0.999999984              -0.000059944              -0.001428093               0.999999984               0.000189039              -0.001262927               0.999999984               0.000122013              -0.001252599               0.999999984               0.000093342              -0.001244595               0.999999984               0.000082167              -0.001245426               0.999999984               0.000079182              -0.001255092               0.999999984               0.000079524              -0.001271898               0.999999984               0.000080760              -0.001294033               0.999999984               0.000081317              -0.001319761               0.999999984               0.000080103              -0.001347569               0.999999984               0.000076296              -0.001376458               0.999999984               0.000069336              -0.001405602               0.999999984               0.000058795              -0.001434457               0.999999984               0.000044062              -0.001462412               0.999999984               0.000024239              -0.001489089               0.999999984              -0.000001750              -0.001514083               0.999999984              -0.000034836              -0.001537400               0.999999984              -0.000076093              -0.001559186               0.999999984               0.000127035              -0.001297005               0.999999984               0.000080370              -0.001304621               0.999999984               0.000059145              -0.001306207               0.999999984               0.000050091              -0.001311930               0.999999984               0.000046993              -0.001323952               0.999999984               0.000046601              -0.001342069               0.999999984               0.000047059              -0.001365299               0.999999984               0.000047320              -0.001392460               0.999999984               0.000046622              -0.001422221               0.999999984               0.000044235              -0.001453727               0.999999984               0.000039709              -0.001486317               0.999999984               0.000032528              -0.001519232               0.999999984               0.000022212              -0.001552049               0.999999984               0.000008027              -0.001584358               0.999999984              -0.000011290              -0.001615579               0.999999984              -0.000037014              -0.001645284               0.999999984              -0.000070894              -0.001673109               0.999999984               0.000063817              -0.001317682               0.999999984               0.000039922              -0.001336874               0.999999984               0.000028589              -0.001345093               0.999999984               0.000023573              -0.001354655               0.999999984               0.000021649              -0.001368886               0.999999984               0.000021129              -0.001388307               0.999999984               0.000021195              -0.001412504               0.999999984               0.000021228              -0.001440653               0.999999984               0.000020957              -0.001471800               0.999999984               0.000019830              -0.001505117               0.999999984               0.000017631              -0.001540139               0.999999984               0.000014055              -0.001576222               0.999999984               0.000008646              -0.001612725               0.999999984               0.000001072              -0.001649255               0.999999984              -0.000009251              -0.001685215               0.999999984              -0.000023569              -0.001719848               0.999999984              -0.000043147              -0.001752415               0.999999984              -0.000000000              -0.001324488               0.999999984               0.000000000              -0.001347730               0.999999984              -0.000000000              -0.001358374               0.999999984               0.000000000              -0.001369309               0.999999984               0.000000000              -0.001384464               0.999999984              -0.000000000              -0.001404485               0.999999984               0.000000000              -0.001429065               0.999999984               0.000000000              -0.001457583               0.999999984               0.000000000              -0.001489275               0.999999984              -0.000000000              -0.001523308               0.999999984               0.000000000              -0.001559204               0.999999984               0.000000000              -0.001596427               0.999999984              -0.000000000              -0.001634359               0.999999984              -0.000000000              -0.001672409               0.999999984              -0.000000000              -0.001710042               0.999999984              -0.000000000              -0.001746594               0.999999984               0.000000000              -0.001780993               0.999999984               0.000676998               0.000000000               0.999999984               0.000726071               0.000000000               0.999999984               0.000747421               0.000000000               0.999999984               0.000759151               0.000000000               0.999999984               0.000768194               0.000000000               0.999999984               0.000777296               0.000000000               0.999999984               0.000787356               0.000000000               0.999999984               0.000798654              -0.000000000               0.999999984               0.000811029               0.000000000               0.999999984               0.000824244               0.000000000               0.999999984               0.000838001               0.000000000               0.999999984               0.000852183              -0.000000000               0.999999984               0.000866677              -0.000000000               0.999999984               0.000881214               0.000000000               0.999999984               0.000895311              -0.000000000               0.999999984               0.000908530               0.000000000               0.999999984               0.000920211               0.000000000               0.999999984               0.000673181               0.000126899               0.999999984               0.000718639               0.000103629               0.999999984               0.000737601               0.000093709               0.999999984               0.000747889               0.000090470               0.999999984               0.000755991               0.000090900               0.999999984               0.000764339               0.000093191               0.999999984               0.000773835               0.000096319               0.999999984               0.000784574               0.000099771               0.999999984               0.000796329               0.000103052               0.999999984               0.000808888               0.000105724               0.999999984               0.000821929               0.000107564               0.999999984               0.000835241               0.000108642               0.999999984               0.000848593               0.000108641               0.999999984               0.000861642               0.000107024               0.999999984               0.000874096               0.000103226               0.999999984               0.000885499               0.000096603               0.999999984               0.000895296               0.000085937               0.999999984               0.000662000               0.000252723               0.999999984               0.000696966               0.000206734               0.999999984               0.000709504               0.000187958               0.999999984               0.000715954               0.000182512               0.999999984               0.000721658               0.000183962               0.999999984               0.000728341               0.000188919               0.999999984               0.000736408               0.000195372               0.999999984               0.000745783               0.000202296               0.999999984               0.000755948               0.000208844               0.999999984               0.000766516               0.000214236               0.999999984               0.000777357               0.000218028               0.999999984               0.000788087               0.000220174               0.999999984               0.000798384               0.000220139               0.999999984               0.000807933               0.000217083               0.999999984               0.000816310               0.000210225               0.999999984               0.000823216               0.000198380               0.999999984               0.000828371               0.000180341               0.999999984               0.000643695               0.000376285               0.999999984               0.000661942               0.000308855               0.999999984               0.000665219               0.000283241               0.999999984               0.000666621               0.000277164               0.999999984               0.000669393               0.000280708               0.999999984               0.000674212               0.000288900               0.999999984               0.000680673               0.000298912               0.999999984               0.000688149               0.000309291               0.999999984               0.000696073               0.000318943               0.999999984               0.000704021               0.000326854               0.999999984               0.000711561               0.000332587               0.999999984               0.000718331               0.000335812               0.999999984               0.000723888               0.000335921               0.999999984               0.000727907               0.000332043               0.999999984               0.000730158               0.000323158               0.999999984               0.000730471               0.000308435               0.999999984               0.000728971               0.000287248               0.999999984               0.000618498               0.000496334               0.999999984               0.000615372               0.000409718               0.999999984               0.000608460               0.000379715               0.999999984               0.000605014               0.000374661               0.999999984               0.000605415               0.000381242               0.999999984               0.000608728               0.000393149               0.999999984               0.000613698               0.000406868               0.999999984               0.000619396               0.000420475               0.999999984               0.000625008               0.000432819               0.999999984               0.000629761               0.000442843               0.999999984               0.000633223               0.000450057               0.999999984               0.000634899               0.000454071               0.999999984               0.000634453               0.000454257               0.999999984               0.000631649               0.000449894               0.999999984               0.000626444               0.000440228               0.999999984               0.000619108               0.000425025               0.999999984               0.000610213               0.000404601               0.999999984               0.000586984               0.000611693               0.999999984               0.000559833               0.000509233               0.999999984               0.000543498               0.000477205               0.999999984               0.000536600               0.000474504               0.999999984               0.000535824               0.000484680               0.999999984               0.000538464               0.000500327               0.999999984               0.000542502               0.000517411               0.999999984               0.000546401               0.000533754               0.999999984               0.000549100               0.000548223               0.999999984               0.000549947               0.000559833               0.999999984               0.000548478               0.000568179               0.999999984               0.000544286               0.000572649               0.999999984               0.000537046               0.000572699               0.999999984               0.000526749               0.000567980               0.999999984               0.000513842               0.000558367               0.999999984               0.000498963               0.000544480               0.999999984               0.000482920               0.000527301               0.999999984               0.000549683               0.000721309               0.999999984               0.000497977               0.000607407               0.999999984               0.000474550               0.000575302               0.999999984               0.000466516               0.000575656               0.999999984               0.000466109               0.000589390               0.999999984               0.000468948               0.000608331               0.999999984               0.000472164               0.000628118               0.999999984               0.000473963               0.000646547               0.999999984               0.000473297               0.000662579               0.999999984               0.000469517               0.000675445               0.999999984               0.000462318               0.000684520               0.999999984               0.000451341               0.000689069               0.999999984               0.000436631               0.000688792               0.999999984               0.000418694               0.000684073               0.999999984               0.000398288               0.000675453               0.999999984               0.000376185               0.000663867               0.999999984               0.000353085               0.000650426               0.999999984               0.000507360               0.000823959               0.999999984               0.000432859               0.000703886               0.999999984               0.000405608               0.000673215               0.999999984               0.000398916               0.000676501               0.999999984               0.000400094               0.000693252               0.999999984               0.000403456               0.000714913               0.999999984               0.000405611               0.000736886               0.999999984               0.000404786               0.000756930               0.999999984               0.000400031               0.000774136               0.999999984               0.000390910               0.000787680               0.999999984               0.000377054               0.000796964               0.999999984               0.000358531               0.000801180               0.999999984               0.000335927               0.000800811               0.999999984               0.000310097               0.000796721               0.999999984               0.000281993               0.000789824               0.999999984               0.000252404               0.000780959               0.999999984               0.000221982               0.000771035               0.999999984               0.000461434               0.000917826               0.999999984               0.000366794               0.000798577               0.999999984               0.000340380               0.000769539               0.999999984               0.000336752               0.000774960               0.999999984               0.000340111               0.000794150               0.999999984               0.000343841               0.000817963               0.999999984               0.000344347               0.000841768               0.999999984               0.000340070               0.000863266               0.999999984               0.000330500               0.000881188               0.999999984               0.000315034               0.000894861               0.999999984               0.000293513               0.000903695               0.999999984               0.000266597               0.000907817               0.999999984               0.000235408               0.000907944               0.999999984               0.000201119               0.000905271               0.999999984               0.000164867               0.000900766               0.999999984               0.000127586               0.000895175               0.999999984               0.000089944               0.000889066               0.999999984               0.000414153               0.001006361               0.999999984               0.000312011               0.000903446               0.999999984               0.000282362               0.000869446               0.999999984               0.000277569               0.000868440               0.999999984               0.000280664               0.000882779               0.999999984               0.000284858               0.000903687               0.999999984               0.000286609               0.000926579               0.999999984               0.000284376               0.000948778               0.999999984               0.000277403               0.000968947               0.999999984               0.000265094               0.000986088               0.999999984               0.000246906               0.000999828               0.999999984               0.000223217               0.001009802               0.999999984               0.000194614               0.001016444               0.999999984               0.000161808               0.001020135               0.999999984               0.000126146               0.001021901               0.999999984               0.000088504               0.001022314               0.999999984               0.000049870               0.001022127               0.999999984               0.000362438               0.001086729               0.999999984               0.000260219               0.001004679               0.999999984               0.000227473               0.000971770               0.999999984               0.000220495               0.000966767               0.999999984               0.000222483               0.000977233               0.999999984               0.000226359               0.000995651               0.999999984               0.000228870               0.001017565               0.999999984               0.000228297               0.001040296               0.999999984               0.000223522               0.001062289               0.999999984               0.000213960               0.001082486               0.999999984               0.000198972               0.001100311               0.999999984               0.000178465               0.001115336               0.999999984               0.000152784               0.001127545               0.999999984               0.000122226               0.001137132               0.999999984               0.000087529               0.001144652               0.999999984               0.000049659               0.001150697               0.999999984               0.000009732               0.001156058               0.999999984               0.000307315               0.001157077               0.999999984               0.000211393               0.001099203               0.999999984               0.000177231               0.001071870               0.999999984               0.000167771               0.001066238               0.999999984               0.000167907               0.001074497               0.999999984               0.000170919               0.001091239               0.999999984               0.000173458               0.001112563               0.999999984               0.000173928               0.001135997               0.999999984               0.000170809               0.001159765               0.999999984               0.000163523               0.001182828               0.999999984               0.000151477               0.001204404               0.999999984               0.000134296               0.001224080               0.999999984               0.000111852               0.001241450               0.999999984               0.000084015               0.001256555               0.999999984               0.000050889               0.001269652               0.999999984               0.000012969               0.001281215               0.999999984              -0.000028801               0.001291835               0.999999984               0.000249294               0.001216146               0.999999984               0.000165461               0.001183134               0.999999984               0.000132477               0.001164668               0.999999984               0.000121340               0.001161278               0.999999984               0.000119617               0.001169373               0.999999984               0.000121231               0.001185603               0.999999984               0.000123217               0.001207016               0.999999984               0.000124002               0.001231395               0.999999984               0.000122105               0.001257115               0.999999984               0.000116661               0.001283123               0.999999984               0.000107170               0.001308554               0.999999984               0.000093407               0.001332842               0.999999984               0.000074619               0.001355462               0.999999984               0.000050179               0.001376181               0.999999984               0.000019786               0.001394938               0.999999984              -0.000016951               0.001412121               0.999999984              -0.000059944               0.001428093               0.999999984               0.000189039               0.001262927               0.999999984               0.000122013               0.001252599               0.999999984               0.000093342               0.001244595               0.999999984               0.000082167               0.001245426               0.999999984               0.000079182               0.001255092               0.999999984               0.000079524               0.001271898               0.999999984               0.000080760               0.001294033               0.999999984               0.000081317               0.001319761               0.999999984               0.000080103               0.001347569               0.999999984               0.000076296               0.001376458               0.999999984               0.000069336               0.001405602               0.999999984               0.000058795               0.001434457               0.999999984               0.000044062               0.001462412               0.999999984               0.000024239               0.001489089               0.999999984              -0.000001750               0.001514083               0.999999984              -0.000034836               0.001537400               0.999999984              -0.000076093               0.001559186               0.999999984               0.000127035               0.001297005               0.999999984               0.000080370               0.001304621               0.999999984               0.000059145               0.001306207               0.999999984               0.000050091               0.001311930               0.999999984               0.000046993               0.001323952               0.999999984               0.000046601               0.001342069               0.999999984               0.000047059               0.001365299               0.999999984               0.000047320               0.001392460               0.999999984               0.000046622               0.001422221               0.999999984               0.000044235               0.001453727               0.999999984               0.000039709               0.001486317               0.999999984               0.000032528               0.001519232               0.999999984               0.000022212               0.001552049               0.999999984               0.000008027               0.001584358               0.999999984              -0.000011290               0.001615579               0.999999984              -0.000037014               0.001645284               0.999999984              -0.000070894               0.001673109               0.999999984               0.000063817               0.001317682               0.999999984               0.000039922               0.001336874               0.999999984               0.000028589               0.001345093               0.999999984               0.000023573               0.001354655               0.999999984               0.000021649               0.001368886               0.999999984               0.000021129               0.001388307               0.999999984               0.000021195               0.001412504               0.999999984               0.000021228               0.001440653               0.999999984               0.000020957               0.001471800               0.999999984               0.000019830               0.001505117               0.999999984               0.000017631               0.001540139               0.999999984               0.000014055               0.001576222               0.999999984               0.000008646               0.001612725               0.999999984               0.000001072               0.001649255               0.999999984              -0.000009251               0.001685215               0.999999984              -0.000023569               0.001719848               0.999999984              -0.000043147               0.001752415               0.999999984               0.000000000               0.001324488               0.999999984               0.000000000               0.001347730               0.999999984               0.000000000               0.001358374               0.999999984              -0.000000000               0.001369309               0.999999984              -0.000000000               0.001384464               0.999999984               0.000000000               0.001404485               0.999999984               0.000000000               0.001429065               0.999999984               0.000000000               0.001457583               0.999999984               0.000000000               0.001489275               0.999999984               0.000000000               0.001523308               0.999999984              -0.000000000               0.001559204               0.999999984              -0.000000000               0.001596427               0.999999984              -0.000000000               0.001634359               0.999999984               0.000000000               0.001672409               0.999999984               0.000000000               0.001710042               0.999999984              -0.000000000               0.001746594               0.999999984              -0.000000000               0.001780993               0.999999984 </DataArray>
<DataArray type="Float64"                                    Name="defo"                                                      NumberOfComponents=" 3" format="ascii">
             -0.000676998               0.000000000               0.999999984              -0.000726071              -0.000000000               0.999999984              -0.000747421               0.000000000               0.999999984              -0.000759151               0.000000000               0.999999984              -0.000768194               0.000000000               0.999999984              -0.000777296               0.000000000               0.999999984              -0.000787356              -0.000000000               0.999999984              -0.000798654               0.000000000               0.999999984              -0.000811029               0.000000000               0.999999984              -0.000824244               0.000000000               0.999999984              -0.000838001              -0.000000000               0.999999984              -0.000852183              -0.000000000               0.999999984              -0.000866677              -0.000000000               0.999999984              -0.000881214               0.000000000               0.999999984              -0.000895311               0.000000000               0.999999984              -0.000908530               0.000000000               0.999999984              -0.000920211               0.000000000               0.999999984              -0.000673181               0.000126899               0.999999984              -0.000718639               0.000103629               0.999999984              -0.000737601               0.000093709               0.999999984              -0.000747889               0.000090470               0.999999984              -0.000755991               0.000090900               0.999999984              -0.000764339               0.000093191               0.999999984              -0.000773835               0.000096319               0.999999984              -0.000784574               0.000099771               0.999999984              -0.000796329               0.000103052               0.999999984              -0.000808888               0.000105724               0.999999984              -0.000821929               0.000107564               0.999999984              -0.000835241               0.000108642               0.999999984              -0.000848593               0.000108641               0.999999984              -0.000861642               0.000107024               0.999999984              -0.000874096               0.000103226               0.999999984              -0.000885499               0.000096603               0.999999984              -0.000895296               0.000085937               0.999999984              -0.000662000               0.000252723               0.999999984              -0.000696966               0.000206734               0.999999984              -0.000709504               0.000187958               0.999999984              -0.000715954               0.000182512               0.999999984              -0.000721658               0.000183962               0.999999984              -0.000728341               0.000188919               0.999999984              -0.000736408               0.000195372               0.999999984              -0.000745783               0.000202296               0.999999984              -0.000755948               0.000208844               0.999999984              -0.000766516               0.000214236               0.999999984              -0.000777357               0.000218028               0.999999984              -0.000788087               0.000220174               0.999999984              -0.000798384               0.000220139               0.999999984              -0.000807933               0.000217083               0.999999984              -0.000816310               0.000210225               0.999999984              -0.000823216               0.000198380               0.999999984              -0.000828371               0.000180341               0.999999984              -0.000643695               0.000376285               0.999999984              -0.000661942               0.000308855               0.999999984              -0.000665219               0.000283241               0.999999984              -0.000666621               0.000277164               0.999999984              -0.000669393               0.000280708               0.999999984              -0.000674212               0.000288900               0.999999984              -0.000680673               0.000298912               0.999999984              -0.000688149               0.000309291               0.999999984              -0.000696073               0.000318943               0.999999984              -0.000704021               0.000326854               0.999999984              -0.000711561               0.000332587               0.999999984              -0.000718331               0.000335812               0.999999984              -0.000723888               0.000335921               0.999999984              -0.000727907               0.000332043               0.999999984              -0.000730158               0.000323158               0.999999984              -0.000730471               0.000308435               0.999999984              -0.000728971               0.000287248               0.999999984              -0.000618498               0.000496334               0.999999984              -0.000615372               0.000409718               0.999999984              -0.000608460               0.000379715               0.999999984              -0.000605014               0.000374661               0.999999984              -0.000605415               0.000381242               0.999999984              -0.000608728               0.000393149               0.999999984              -0.000613698               0.000406868               0.999999984              -0.000619396               0.000420475               0.999999984              -0.000625008               0.000432819               0.999999984              -0.000629761               0.000442843               0.999999984              -0.000633223               0.000450057               0.999999984              -0.000634899               0.000454071               0.999999984              -0.000634453               0.000454257               0.999999984              -0.000631649               0.000449894               0.999999984              -0.000626444               0.000440228               0.999999984              -0.000619108               0.000425025               0.999999984              -0.000610213               0.000404601               0.999999984              -0.000586984               0.000611693               0.999999984              -0.000559833               0.000509233               0.999999984              -0.000543498               0.000477205               0.999999984              -0.000536600               0.000474504               0.999999984              -0.000535824               0.000484680               0.999999984              -0.000538464               0.000500327               0.999999984              -0.000542502               0.000517411               0.999999984              -0.000546401               0.000533754               0.999999984              -0.000549100               0.000548223               0.999999984              -0.000549947               0.000559833               0.999999984              -0.000548478               0.000568179               0.999999984              -0.000544286               0.000572649               0.999999984              -0.000537046               0.000572699               0.999999984              -0.000526749               0.000567980               0.999999984              -0.000513842               0.000558367               0.999999984              -0.000498963               0.000544480               0.999999984              -0.000482920               0.000527301               0.999999984              -0.000549683               0.000721309               0.999999984              -0.000497977               0.000607407               0.999999984              -0.000474550               0.000575302               0.999999984              -0.000466516               0.000575656               0.999999984              -0.000466109               0.000589390               0.999999984              -0.000468948               0.000608331               0.999999984              -0.000472164               0.000628118               0.999999984              -0.000473963               0.000646547               0.999999984              -0.000473297               0.000662579               0.999999984              -0.000469517               0.000675445               0.999999984              -0.000462318               0.000684520               0.999999984              -0.000451341               0.000689069               0.999999984              -0.000436631               0.000688792               0.999999984              -0.000418694               0.000684073               0.999999984              -0.000398288               0.000675453               0.999999984              -0.000376185               0.000663867               0.999999984              -0.000353085               0.000650426               0.999999984              -0.000507360               0.000823959               0.999999984              -0.000432859               0.000703886               0.999999984              -0.000405608               0.000673215               0.999999984              -0.000398916               0.000676501               0.999999984              -0.000400094               0.000693252               0.999999984              -0.000403456               0.000714913               0.999999984              -0.000405611               0.000736886               0.999999984              -0.000404786               0.000756930               0.999999984              -0.000400031               0.000774136               0.999999984              -0.000390910               0.000787680               0.999999984              -0.000377054               0.000796964               0.999999984              -0.000358531               0.000801180               0.999999984              -0.000335927               0.000800811               0.999999984              -0.000310097               0.000796721               0.999999984              -0.000281993               0.000789824               0.999999984              -0.000252404               0.000780959               0.999999984              -0.000221982               0.000771035               0.999999984              -0.000461434               0.000917826               0.999999984              -0.000366794               0.000798577               0.999999984              -0.000340380               0.000769539               0.999999984              -0.000336752               0.000774960               0.999999984              -0.000340111               0.000794150               0.999999984              -0.000343841               0.000817963               0.999999984              -0.000344347               0.000841768               0.999999984              -0.000340070               0.000863266               0.999999984              -0.000330500               0.000881188               0.999999984              -0.000315034               0.000894861               0.999999984              -0.000293513               0.000903695               0.999999984              -0.000266597               0.000907817               0.999999984              -0.000235408               0.000907944               0.999999984              -0.000201119               0.000905271               0.999999984              -0.000164867               0.000900766               0.999999984              -0.000127586               0.000895175               0.999999984              -0.000089944               0.000889066               0.999999984              -0.000414153               0.001006361               0.999999984              -0.000312011               0.000903446               0.999999984              -0.000282362               0.000869446               0.999999984              -0.000277569               0.000868440               0.999999984              -0.000280664               0.000882779               0.999999984              -0.000284858               0.000903687               0.999999984              -0.000286609               0.000926579               0.999999984              -0.000284376               0.000948778               0.999999984              -0.000277403               0.000968947               0.999999984              -0.000265094               0.000986088               0.999999984              -0.000246906               0.000999828               0.999999984              -0.000223217               0.001009802               0.999999984              -0.000194614               0.001016444               0.999999984              -0.000161808               0.001020135               0.999999984              -0.000126146               0.001021901               0.999999984              -0.000088504               0.001022314               0.999999984              -0.000049870               0.001022127               0.999999984              -0.000362438               0.001086729               0.999999984              -0.000260219               0.001004679               0.999999984              -0.000227473               0.000971770               0.999999984              -0.000220495               0.000966767               0.999999984              -0.000222483               0.000977233               0.999999984              -0.000226359               0.000995651               0.999999984              -0.000228870               0.001017565               0.999999984              -0.000228297               0.001040296               0.999999984              -0.000223522               0.001062289               0.999999984              -0.000213960               0.001082486               0.999999984              -0.000198972               0.001100311               0.999999984              -0.000178465               0.001115336               0.999999984              -0.000152784               0.001127545               0.999999984              -0.000122226               0.001137132               0.999999984              -0.000087529               0.001144652               0.999999984              -0.000049659               0.001150697               0.999999984              -0.000009732               0.001156058               0.999999984              -0.000307315               0.001157077               0.999999984              -0.000211393               0.001099203               0.999999984              -0.000177231               0.001071870               0.999999984              -0.000167771               0.001066238               0.999999984              -0.000167907               0.001074497               0.999999984              -0.000170919               0.001091239               0.999999984              -0.000173458               0.001112563               0.999999984              -0.000173928               0.001135997               0.999999984              -0.000170809               0.001159765               0.999999984              -0.000163523               0.001182828               0.999999984              -0.000151477               0.001204404               0.999999984              -0.000134296               0.001224080               0.999999984              -0.000111852               0.001241450               0.999999984              -0.000084015               0.001256555               0.999999984              -0.000050889               0.001269652               0.999999984              -0.000012969               0.001281215               0.999999984               0.000028801               0.001291835               0.999999984              -0.000249294               0.001216146               0.999999984              -0.000165461               0.001183134               0.999999984              -0.000132477               0.001164668               0.999999984              -0.000121340               0.001161278               0.999999984              -0.000119617               0.001169373               0.999999984              -0.000121231               0.001185603               0.999999984              -0.000123217               0.001207016               0.999999984              -0.000124002               0.001231395               0.999999984              -0.000122105               0.001257115               0.999999984              -0.000116661               0.001283123               0.999999984              -0.000107170               0.001308554               0.999999984              -0.000093407               0.001332842               0.999999984              -0.000074619               0.001355462               0.999999984              -0.000050179               0.001376181               0.999999984              -0.000019786               0.001394938               0.999999984               0.000016951               0.001412121               0.999999984               0.000059944               0.001428093               0.999999984              -0.000189039               0.001262927               0.999999984              -0.000122013               0.001252599               0.999999984              -0.000093342               0.001244595               0.999999984              -0.000082167               0.001245426               0.999999984              -0.000079182               0.001255092               0.999999984              -0.000079524               0.001271898               0.999999984              -0.000080760               0.001294033               0.999999984              -0.000081317               0.001319761               0.999999984              -0.000080103               0.001347569               0.999999984              -0.000076296               0.001376458               0.999999984              -0.000069336               0.001405602               0.999999984              -0.000058795               0.001434457               0.999999984              -0.000044062               0.001462412               0.999999984              -0.000024239               0.001489089               0.999999984               0.000001750               0.001514083               0.999999984               0.000034836               0.001537400               0.999999984               0.000076093               0.001559186               0.999999984              -0.000127035               0.001297005               0.999999984              -0.000080370               0.001304621               0.999999984              -0.000059145               0.001306207               0.999999984              -0.000050091               0.001311930               0.999999984              -0.000046993               0.001323952               0.999999984              -0.000046601               0.001342069               0.999999984              -0.000047059               0.001365299               0.999999984              -0.000047320               0.001392460               0.999999984              -0.000046622               0.001422221               0.999999984              -0.000044235               0.001453727               0.999999984              -0.000039709               0.001486317               0.999999984              -0.000032528               0.001519232               0.999999984              -0.000022212               0.001552049               0.999999984              -0.000008027               0.001584358               0.999999984               0.000011290               0.001615579               0.999999984               0.000037014               0.001645284               0.999999984               0.000070894               0.001673109               0.999999984              -0.000063817               0.001317682               0.999999984              -0.000039922               0.001336874               0.999999984              -0.000028589               0.001345093               0.999999984              -0.000023573               0.001354655               0.999999984              -0.000021649               0.001368886               0.999999984              -0.000021129               0.001388307               0.999999984              -0.000021195               0.001412504               0.999999984              -0.000021228               0.001440653               0.999999984              -0.000020957               0.001471800               0.999999984              -0.000019830               0.001505117               0.999999984              -0.000017631               0.001540139               0.999999984              -0.000014055               0.001576222               0.999999984              -0.000008646               0.001612725               0.999999984              -0.000001072               0.001649255               0.999999984               0.000009251               0.001685215               0.999999984               0.000023569               0.001719848               0.999999984               0.000043147               0.001752415               0.999999984               0.000000000               0.001324488               0.999999984               0.000000000               0.001347730               0.999999984               0.000000000               0.001358374               0.999999984              -0.000000000               0.001369309               0.999999984              -0.000000000               0.001384464               0.999999984               0.000000000               0.001404485               0.999999984               0.000000000               0.001429065               0.999999984               0.000000000               0.001457583               0.999999984               0.000000000               0.001489275               0.999999984               0.000000000               0.001523308               0.999999984              -0.000000000               0.001559204               0.999999984              -0.000000000               0.001596427               0.999999984              -0.000000000               0.001634359               0.999999984               0.000000000               0.001672409               0.999999984               0.000000000               0.001710042               0.999999984              -0.000000000               0.001746594               0.999999984              -0.000000000               0.001780993               0.999999984              -0.000676998               0.000000000               0.999999984              -0.000726071              -0.000000000               0.999999984              -0.000747421               0.000000000               0.999999984              -0.000759151               0.000000000               0.999999984              -0.000768194               0.000000000               0.999999984              -0.000777296               0.000000000               0.999999984              -0.000787356              -0.000000000               0.999999984              -0.000798654               0.000000000               0.999999984              -0.000811029               0.000000000               0.999999984              -0.000824244               0.000000000               0.999999984              -0.000838001              -0.000000000               0.999999984              -0.000852183              -0.000000000               0.999999984              -0.000866677              -0.000000000               0.999999984              -0.000881214               0.000000000               0.999999984              -0.000895311               0.000000000               0.999999984              -0.000908530               0.000000000               0.999999984              -0.000920211               0.000000000               0.999999984              -0.000673181              -0.000126899               0.999999984              -0.000718639              -0.000103629               0.999999984              -0.000737601              -0.000093709               0.999999984              -0.000747889              -0.000090470               0.999999984              -0.000755991              -0.000090900               0.999999984              -0.000764339              -0.000093191               0.999999984              -0.000773835              -0.000096319               0.999999984              -0.000784574              -0.000099771               0.999999984              -0.000796329              -0.000103052               0.999999984              -0.000808888              -0.000105724               0.999999984              -0.000821929              -0.000107564               0.999999984              -0.000835241              -0.000108642               0.999999984              -0.000848593              -0.000108641               0.999999984              -0.000861642              -0.000107024               0.999999984              -0.000874096              -0.000103226               0.999999984              -0.000885499              -0.000096603               0.999999984              -0.000895296              -0.000085937               0.999999984              -0.000662000              -0.000252723               0.999999984              -0.000696966              -0.000206734               0.999999984              -0.000709504              -0.000187958               0.999999984              -0.000715954              -0.000182512               0.999999984              -0.000721658              -0.000183962               0.999999984              -0.000728341              -0.000188919               0.999999984              -0.000736408              -0.000195372               0.999999984              -0.000745783              -0.000202296               0.999999984              -0.000755948              -0.000208844               0.999999984              -0.000766516              -0.000214236               0.999999984              -0.000777357              -0.000218028               0.999999984              -0.000788087              -0.000220174               0.999999984              -0.000798384              -0.000220139               0.999999984              -0.000807933              -0.000217083               0.999999984              -0.000816310              -0.000210225               0.999999984              -0.000823216              -0.000198380               0.999999984              -0.000828371              -0.000180341               0.999999984              -0.000643695              -0.000376285               0.999999984              -0.000661942              -0.000308855               0.999999984              -0.000665219              -0.000283241               0.999999984              -0.000666621              -0.000277164               0.999999984              -0.000669393              -0.000280708               0.999999984              -0.000674212              -0.000288900               0.999999984              -0.000680673              -0.000298912               0.999999984              -0.000688149              -0.000309291               0.999999984              -0.000696073              -0.000318943               0.999999984              -0.000704021              -0.000326854               0.999999984              -0.000711561              -0.000332587               0.999999984              -0.000718331              -0.000335812               0.999999984              -0.000723888              -0.000335921               0.999999984              -0.000727907              -0.000332043               0.999999984              -0.000730158              -0.000323158               0.999999984              -0.000730471              -0.000308435               0.999999984              -0.000728971              -0.000287248               0.999999984              -0.000618498              -0.000496334               0.999999984              -0.000615372              -0.000409718               0.999999984              -0.000608460              -0.000379715               0.999999984              -0.000605014              -0.000374661               0.999999984              -0.000605415              -0.000381242               0.999999984              -0.000608728              -0.000393149               0.999999984              -0.000613698              -0.000406868               0.999999984              -0.000619396              -0.000420475               0.999999984              -0.000625008              -0.000432819               0.999999984              -0.000629761              -0.000442843               0.999999984              -0.000633223              -0.000450057               0.999999984              -0.000634899              -0.000454071               0.999999984              -0.000634453              -0.000454257               0.999999984              -0.000631649              -0.000449894               0.999999984              -0.000626444              -0.000440228               0.999999984              -0.000619108              -0.000425025               0.999999984              -0.000610213              -0.000404601               0.999999984              -0.000586984              -0.000611693               0.999999984              -0.000559833              -0.000509233               0.999999984              -0.000543498              -0.000477205               0.999999984              -0.000536600              -0.000474504               0.999999984              -0.000535824              -0.000484680               0.999999984              -0.000538464              -0.000500327               0.999999984              -0.000542502              -0.000517411               0.999999984              -0.000546401              -0.000533754               0.999999984              -0.000549100              -0.000548223               0.999999984              -0.000549947              -0.000559833               0.999999984              -0.000548478              -0.000568179               0.999999984              -0.000544286              -0.000572649               0.999999984              -0.000537046              -0.000572699               0.999999984              -0.000526749              -0.000567980               0.999999984              -0.000513842              -0.000558367               0.999999984              -0.000498963              -0.000544480               0.999999984              -0.000482920              -0.000527301               0.999999984              -0.000549683              -0.000721309               0.999999984              -0.000497977              -0.000607407               0.999999984              -0.000474550              -0.000575302               0.999999984              -0.000466516              -0.000575656               0.999999984              -0.000466109              -0.000589390               0.999999984              -0.000468948              -0.000608331               0.999999984              -0.000472164              -0.000628118               0.999999984              -0.000473963              -0.000646547               0.999999984              -0.000473297              -0.000662579               0.999999984              -0.000469517              -0.000675445               0.999999984              -0.000462318              -0.000684520               0.999999984              -0.000451341              -0.000689069               0.999999984              -0.000436631              -0.000688792               0.999999984              -0.000418694              -0.000684073               0.999999984              -0.000398288              -0.000675453               0.999999984              -0.000376185              -0.000663867               0.999999984              -0.000353085              -0.000650426               0.999999984              -0.000507360              -0.000823959               0.999999984              -0.000432859              -0.000703886               0.999999984              -0.000405608              -0.000673215               0.999999984              -0.000398916              -0.000676501               0.999999984              -0.000400094              -0.000693252               0.999999984              -0.000403456              -0.000714913               0.999999984              -0.000405611              -0.000736886               0.999999984              -0.000404786              -0.000756930               0.999999984              -0.000400031              -0.000774136               0.999999984              -0.000390910              -0.000787680               0.999999984              -0.000377054              -0.000796964               0.999999984              -0.000358531              -0.000801180               0.999999984              -0.000335927              -0.000800811               0.999999984              -0.000310097              -0.000796721               0.999999984              -0.000281993              -0.000789824               0.999999984              -0.000252404              -0.000780959               0.999999984              -0.000221982              -0.000771035               0.999999984              -0.000461434              -0.000917826               0.999999984              -0.000366794              -0.000798577               0.999999984              -0.000340380              -0.000769539               0.999999984              -0.000336752              -0.000774960               0.999999984              -0.000340111              -0.000794150               0.999999984              -0.000343841              -0.000817963               0.999999984              -0.000344347              -0.000841768               0.999999984              -0.000340070              -0.000863266               0.999999984              -0.000330500              -0.000881188               0.999999984              -0.000315034              -0.000894861               0.999999984              -0.000293513              -0.000903695               0.999999984              -0.000266597              -0.000907817               0.999999984              -0.000235408              -0.000907944               0.999999984              -0.000201119              -0.000905271               0.999999984              -0.000164867              -0.000900766               0.999999984              -0.000127586              -0.000895175               0.999999984              -0.000089944              -0.000889066               0.999999984              -0.000414153              -0.001006361               0.999999984              -0.000312011              -0.000903446               0.999999984              -0.000282362              -0.000869446               0.999999984              -0.000277569              -0.000868440               0.999999984              -0.000280664              -0.000882779               0.999999984              -0.000284858              -0.000903687               0.999999984              -0.000286609              -0.000926579               0.999999984              -0.000284376              -0.000948778               0.999999984              -0.000277403              -0.000968947               0.999999984              -0.000265094              -0.000986088               0.999999984              -0.000246906              -0.000999828               0.999999984              -0.000223217              -0.001009802               0.999999984              -0.000194614              -0.001016444               0.999999984              -0.000161808              -0.001020135               0.999999984              -0.000126146              -0.001021901               0.999999984              -0.000088504              -0.001022314               0.999999984              -0.000049870              -0.001022127               0.999999984              -0.000362438              -0.001086729               0.999999984              -0.000260219              -0.001004679               0.999999984              -0.000227473              -0.000971770               0.999999984              -0.000220495              -0.000966767               0.999999984              -0.000222483              -0.000977233               0.999999984              -0.000226359              -0.000995651               0.999999984              -0.000228870              -0.001017565               0.999999984              -0.000228297              -0.001040296               0.999999984              -0.000223522              -0.001062289               0.999999984              -0.000213960              -0.001082486               0.999999984              -0.000198972              -0.001100311               0.999999984              -0.000178465              -0.001115336               0.999999984              -0.000152784              -0.001127545               0.999999984              -0.000122226              -0.001137132               0.999999984              -0.000087529              -0.001144652               0.999999984              -0.000049659              -0.001150697               0.999999984              -0.000009732              -0.001156058               0.999999984              -0.000307315              -0.001157077               0.999999984              -0.000211393              -0.001099203               0.999999984              -0.000177231              -0.001071870               0.999999984              -0.000167771              -0.001066238               0.999999984              -0.000167907              -0.001074497               0.999999984              -0.000170919              -0.001091239               0.999999984              -0.000173458              -0.001112563               0.999999984              -0.000173928              -0.001135997               0.999999984              -0.000170809              -0.001159765               0.999999984              -0.000163523              -0.001182828               0.999999984              -0.000151477              -0.001204404               0.999999984              -0.000134296              -0.001224080               0.999999984              -0.000111852              -0.001241450               0.999999984              -0.000084015              -0.001256555               0.999999984              -0.000050889              -0.001269652               0.999999984              -0.000012969              -0.001281215               0.999999984               0.000028801              -0.001291835               0.999999984              -0.000249294              -0.001216146               0.999999984              -0.000165461              -0.001183134               0.999999984              -0.000132477              -0.001164668               0.999999984              -0.000121340              -0.001161278               0.999999984              -0.000119617              -0.001169373               0.999999984              -0.000121231              -0.001185603               0.999999984              -0.000123217              -0.001207016               0.999999984              -0.000124002              -0.001231395               0.999999984              -0.000122105              -0.001257115               0.999999984              -0.000116661              -0.001283123               0.999999984              -0.000107170              -0.001308554               0.999999984              -0.000093407              -0.001332842               0.999999984              -0.000074619              -0.001355462               0.999999984              -0.000050179              -0.001376181               0.999999984              -0.000019786              -0.001394938               0.999999984               0.000016951              -0.001412121               0.999999984               0.000059944              -0.001428093               0.999999984              -0.000189039              -0.001262927               0.999999984              -0.000122013              -0.001252599               0.999999984              -0.000093342              -0.001244595               0.999999984              -0.000082167              -0.001245426               0.999999984              -0.000079182              -0.001255092               0.999999984              -0.000079524              -0.001271898               0.999999984              -0.000080760              -0.001294033               0.999999984              -0.000081317              -0.001319761               0.999999984              -0.000080103              -0.001347569               0.999999984              -0.000076296              -0.001376458               0.999999984              -0.000069336              -0.001405602               0.999999984              -0.000058795              -0.001434457               0.999999984              -0.000044062              -0.001462412               0.999999984              -0.000024239              -0.001489089               0.999999984               0.000001750              -0.001514083               0.999999984               0.000034836              -0.001537400               0.999999984               0.000076093              -0.001559186               0.999999984              -0.000127035              -0.001297005               0.999999984              -0.000080370              -0.001304621               0.999999984              -0.000059145              -0.001306207               0.999999984              -0.000050091              -0.001311930               0.999999984              -0.000046993              -0.001323952               0.999999984              -0.000046601              -0.001342069               0.999999984              -0.000047059              -0.001365299               0.999999984              -0.000047320              -0.001392460               0.999999984              -0.000046622              -0.001422221               0.999999984              -0.000044235              -0.001453727               0.999999984              -0.000039709              -0.001486317               0.999999984              -0.000032528              -0.001519232               0.999999984              -0.000022212              -0.001552049               0.999999984              -0.000008027              -0.001584358               0.999999984               0.000011290              -0.001615579               0.999999984               0.000037014              -0.001645284               0.999999984               0.000070894              -0.001673109               0.999999984              -0.000063817              -0.001317682               0.999999984              -0.000039922              -0.001336874               0.999999984              -0.000028589              -0.001345093               0.999999984              -0.000023573              -0.001354655               0.999999984              -0.000021649              -0.001368886               0.999999984              -0.000021129              -0.001388307               0.999999984              -0.000021195              -0.001412504               0.999999984              -0.000021228              -0.001440653               0.999999984              -0.000020957              -0.001471800               0.999999984              -0.000019830              -0.001505117               0.999999984              -0.000017631              -0.001540139               0.999999984              -0.000014055              -0.001576222               0.999999984              -0.000008646              -0.001612725               0.999999984              -0.000001072              -0.001649255               0.999999984               0.000009251              -0.001685215               0.999999984               0.000023569              -0.001719848               0.999999984               0.000043147              -0.001752415               0.999999984              -0.000000000              -0.001324488               0.999999984               0.000000000              -0.001347730               0.999999984              -0.000000000              -0.001358374               0.999999984               0.000000000              -0.001369309               0.999999984               0.000000000              -0.001384464               0.999999984              -0.000000000              -0.001404485               0.999999984               0.000000000              -0.001429065               0.999999984               0.000000000              -0.001457583               0.999999984               0.000000000              -0.001489275               0.999999984              -0.000000000              -0.001523308               0.999999984               0.000000000              -0.001559204               0.999999984               0.000000000              -0.001596427               0.999999984              -0.000000000              -0.001634359               0.999999984              -0.000000000              -0.001672409               0.999999984              -0.000000000              -0.001710042               0.999999984              -0.000000000              -0.001746594               0.999999984               0.000000000              -0.001780993               0.999999984               0.000676998               0.000000000               0.999999984               0.000726071               0.000000000               0.999999984               0.000747421               0.000000000               0.999999984               0.000759151               0.000000000               0.999999984               0.000768194               0.000000000               0.999999984               0.000777296               0.000000000               0.999999984               0.000787356               0.000000000               0.999999984               0.000798654              -0.000000000               0.999999984               0.000811029               0.000000000               0.999999984               0.000824244               0.000000000               0.999999984               0.000838001               0.000000000               0.999999984               0.000852183              -0.000000000               0.999999984               0.000866677              -0.000000000               0.999999984               0.000881214               0.000000000               0.999999984               0.000895311              -0.000000000               0.999999984               0.000908530               0.000000000               0.999999984               0.000920211               0.000000000               0.999999984               0.000673181              -0.000126899               0.999999984               0.000718639              -0.000103629               0.999999984               0.000737601              -0.000093709               0.999999984               0.000747889              -0.000090470               0.999999984               0.000755991              -0.000090900               0.999999984               0.000764339              -0.000093191               0.999999984               0.000773835              -0.000096319               0.999999984               0.000784574              -0.000099771               0.999999984               0.000796329              -0.000103052               0.999999984               0.000808888              -0.000105724               0.999999984               0.000821929              -0.000107564               0.999999984               0.000835241              -0.000108642               0.999999984               0.000848593              -0.000108641               0.999999984               0.000861642              -0.000107024               0.999999984               0.000874096              -0.000103226               0.999999984               0.000885499              -0.000096603               0.999999984               0.000895296              -0.000085937               0.999999984               0.000662000              -0.000252723               0.999999984               0.000696966              -0.000206734               0.999999984               0.000709504              -0.000187958               0.999999984               0.000715954              -0.000182512               0.999999984               0.000721658              -0.000183962               0.999999984               0.000728341              -0.000188919               0.999999984               0.000736408              -0.000195372               0.999999984               0.000745783              -0.000202296               0.999999984               0.000755948              -0.000208844               0.999999984               0.000766516              -0.000214236               0.999999984               0.000777357              -0.000218028               0.999999984               0.000788087              -0.000220174               0.999999984               0.000798384              -0.000220139               0.999999984               0.000807933              -0.000217083               0.999999984               0.000816310              -0.000210225               0.999999984               0.000823216              -0.000198380               0.999999984               0.000828371              -0.000180341               0.999999984               0.000643695              -0.000376285               0.999999984               0.000661942              -0.000308855               0.999999984               0.000665219              -0.000283241               0.999999984               0.000666621              -0.000277164               0.999999984               0.000669393              -0.000280708               0.999999984               0.000674212              -0.000288900               0.999999984               0.000680673              -0.000298912               0.999999984               0.000688149              -0.000309291               0.999999984               0.000696073              -0.000318943               0.999999984               0.000704021              -0.000326854               0.999999984               0.000711561              -0.000332587               0.999999984               0.000718331              -0.000335812               0.999999984               0.000723888              -0.000335921               0.999999984               0.000727907              -0.000332043               0.999999984               0.000730158              -0.000323158               0.999999984               0.000730471              -0.000308435               0.999999984               0.000728971              -0.000287248               0.999999984               0.000618498              -0.000496334               0.999999984               0.000615372              -0.000409718               0.999999984               0.000608460              -0.000379715               0.999999984               0.000605014              -0.000374661               0.999999984               0.000605415              -0.000381242               0.999999984               0.000608728              -0.000393149               0.999999984               0.000613698              -0.000406868               0.999999984               0.000619396              -0.000420475               0.999999984               0.000625008              -0.000432819               0.999999984               0.000629761              -0.000442843               0.999999984               0.000633223              -0.000450057               0.999999984               0.000634899              -0.000454071               0.999999984               0.000634453              -0.000454257               0.999999984               0.000631649              -0.000449894               0.999999984               0.000626444              -0.000440228               0.999999984               0.000619108              -0.000425025               0.999999984               0.000610213              -0.000404601               0.999999984               0.000586984              -0.000611693               0.999999984               0.000559833              -0.000509233               0.999999984               0.000543498              -0.000477205               0.999999984               0.000536600              -0.000474504               0.999999984               0.000535824              -0.000484680               0.999999984               0.000538464              -0.000500327               0.999999984               0.000542502              -0.000517411               0.999999984               0.000546401              -0.000533754               0.999999984               0.000549100              -0.000548223               0.999999984               0.000549947              -0.000559833               0.999999984               0.000548478              -0.000568179               0.999999984               0.000544286              -0.000572649               0.999999984               0.000537046              -0.000572699               0.999999984               0.000526749              -0.000567980               0.999999984               0.000513842              -0.000558367               0.999999984               0.000498963              -0.000544480               0.999999984               0.000482920              -0.000527301               0.999999984               0.000549683              -0.000721309               0.999999984               0.000497977              -0.000607407               0.999999984               0.000474550              -0.000575302               0.999999984               0.000466516              -0.000575656               0.999999984               0.000466109              -0.000589390               0.999999984               0.000468948              -0.000608331               0.999999984               0.000472164              -0.000628118               0.999999984               0.000473963              -0.000646547               0.999999984               0.000473297              -0.000662579               0.999999984               0.000469517              -0.000675445               0.999999984               0.000462318              -0.000684520               0.999999984               0.000451341              -0.000689069               0.999999984               0.000436631              -0.000688792               0.999999984               0.000418694              -0.000684073               0.999999984               0.000398288              -0.000675453               0.999999984               0.000376185              -0.000663867               0.999999984               0.000353085              -0.000650426               0.999999984               0.000507360              -0.000823959               0.999999984               0.000432859              -0.000703886               0.999999984               0.000405608              -0.000673215               0.999999984               0.000398916              -0.000676501               0.999999984               0.000400094              -0.000693252               0.999999984               0.000403456              -0.000714913               0.999999984               0.000405611              -0.000736886               0.999999984               0.000404786              -0.000756930               0.999999984               0.000400031              -0.000774136               0.999999984               0.000390910              -0.000787680               0.999999984               0.000377054              -0.000796964               0.999999984               0.000358531              -0.000801180               0.999999984               0.000335927              -0.000800811               0.999999984               0.000310097              -0.000796721               0.999999984               0.000281993              -0.000789824               0.999999984               0.000252404              -0.000780959               0.999999984               0.000221982              -0.000771035               0.999999984               0.000461434              -0.000917826               0.999999984               0.000366794              -0.000798577               0.999999984               0.000340380              -0.000769539               0.999999984               0.000336752              -0.000774960               0.999999984               0.000340111              -0.000794150               0.999999984               0.000343841              -0.000817963               0.999999984               0.000344347              -0.000841768               0.999999984               0.000340070              -0.000863266               0.999999984               0.000330500              -0.000881188               0.999999984               0.000315034              -0.000894861               0.999999984               0.000293513              -0.000903695               0.999999984               0.000266597              -0.000907817               0.999999984               0.000235408              -0.000907944               0.999999984               0.000201119              -0.000905271               0.999999984               0.000164867              -0.000900766               0.999999984               0.000127586              -0.000895175               0.999999984               0.000089944              -0.000889066               0.999999984               0.000414153              -0.001006361               0.999999984               0.000312011              -0.000903446               0.999999984               0.000282362              -0.000869446               0.999999984               0.000277569              -0.000868440               0.999999984               0.000280664              -0.000882779               0.999999984               0.000284858              -0.000903687               0.999999984               0.000286609              -0.000926579               0.999999984               0.000284376              -0.000948778               0.999999984               0.000277403              -0.000968947               0.999999984               0.000265094              -0.000986088               0.999999984               0.000246906              -0.000999828               0.999999984               0.000223217              -0.001009802               0.999999984               0.000194614              -0.001016444               0.999999984               0.000161808              -0.001020135               0.999999984               0.000126146              -0.001021901               0.999999984               0.000088504              -0.001022314               0.999999984               0.000049870              -0.001022127               0.999999984               0.000362438              -0.001086729               0.999999984               0.000260219              -0.001004679               0.999999984               0.000227473              -0.000971770               0.999999984               0.000220495              -0.000966767               0.999999984               0.000222483              -0.000977233               0.999999984               0.000226359              -0.000995651               0.999999984               0.000228870              -0.001017565               0.999999984               0.000228297              -0.001040296               0.999999984               0.000223522              -0.001062289               0.999999984               0.000213960              -0.001082486               0.999999984               0.000198972              -0.001100311               0.999999984               0.000178465              -0.001115336               0.999999984               0.000152784              -0.001127545               0.999999984               0.000122226              -0.001137132               0.999999984               0.000087529              -0.001144652               0.999999984               0.000049659              -0.001150697               0.999999984               0.000009732              -0.001156058               0.999999984               0.000307315              -0.001157077               0.999999984               0.000211393              -0.001099203               0.999999984               0.000177231              -0.001071870               0.999999984               0.000167771              -0.001066238               0.999999984               0.000167907              -0.001074497               0.999999984               0.000170919              -0.001091239               0.999999984               0.000173458              -0.001112563               0.999999984               0.000173928              -0.001135997               0.999999984               0.000170809              -0.001159765               0.999999984               0.000163523              -0.001182828               0.999999984               0.000151477              -0.001204404               0.999999984               0.000134296              -0.001224080               0.999999984               0.000111852              -0.001241450               0.999999984               0.000084015              -0.001256555               0.999999984               0.000050889              -0.001269652               0.999999984               0.000012969              -0.001281215               0.999999984              -0.000028801              -0.001291835               0.999999984               0.000249294              -0.001216146               0.999999984               0.000165461              -0.001183134               0.999999984               0.000132477              -0.001164668               0.999999984               0.000121340              -0.001161278               0.999999984               0.000119617              -0.001169373               0.999999984               0.000121231              -0.001185603               0.999999984               0.000123217              -0.001207016               0.999999984               0.000124002              -0.001231395               0.999999984               0.000122105              -0.001257115               0.999999984               0.000116661              -0.001283123               0.999999984               0.000107170              -0.001308554               0.999999984               0.000093407              -0.001332842               0.999999984               0.000074619              -0.001355462               0.999999984               0.000050179              -0.001376181               0.999999984               0.000019786              -0.001394938               0.999999984              -0.000016951              -0.001412121               0.999999984              -0.000059944              -0.001428093               0.999999984               0.000189039              -0.001262927               0.999999984               0.000122013              -0.001252599               0.999999984               0.000093342              -0.001244595               0.999999984               0.000082167              -0.001245426               0.999999984               0.000079182              -0.001255092               0.999999984               0.000079524              -0.001271898               0.999999984               0.000080760              -0.001294033               0.999999984               0.000081317              -0.001319761               0.999999984               0.000080103              -0.001347569               0.999999984               0.000076296              -0.001376458               0.999999984               0.000069336              -0.001405602               0.999999984               0.000058795              -0.001434457               0.999999984               0.000044062              -0.001462412               0.999999984               0.000024239              -0.001489089               0.999999984              -0.000001750              -0.001514083               0.999999984              -0.000034836              -0.001537400               0.999999984              -0.000076093              -0.001559186               0.999999984               0.000127035              -0.001297005               0.999999984               0.000080370              -0.001304621               0.999999984               0.000059145              -0.001306207               0.999999984               0.000050091              -0.001311930               0.999999984               0.000046993              -0.001323952               0.999999984               0.000046601              -0.001342069               0.999999984               0.000047059              -0.001365299               0.999999984               0.000047320              -0.001392460               0.999999984               0.000046622              -0.001422221               0.999999984               0.000044235              -0.001453727               0.999999984               0.000039709              -0.001486317               0.999999984               0.000032528              -0.001519232               0.999999984               0.000022212              -0.001552049               0.999999984               0.000008027              -0.001584358               0.999999984              -0.000011290              -0.001615579               0.999999984              -0.000037014              -0.001645284               0.999999984              -0.000070894              -0.001673109               0.999999984               0.000063817              -0.001317682               0.999999984               0.000039922              -0.001336874               0.999999984               0.000028589              -0.001345093               0.999999984               0.000023573              -0.001354655               0.999999984               0.000021649              -0.001368886               0.999999984               0.000021129              -0.001388307               0.999999984               0.000021195              -0.001412504               0.999999984               0.000021228              -0.001440653               0.999999984               0.000020957              -0.001471800               0.999999984               0.000019830              -0.001505117               0.999999984               0.000017631              -0.001540139               0.999999984               0.000014055              -0.001576222               0.999999984               0.000008646              -0.001612725               0.999999984               0.000001072              -0.001649255               0.999999984              -0.000009251              -0.001685215               0.999999984              -0.000023569              -0.001719848               0.999999984              -0.000043147              -0.001752415               0.999999984              -0.000000000              -0.001324488               0.999999984               0.000000000              -0.001347730               0.999999984              -0.000000000              -0.001358374               0.999999984               0.000000000              -0.001369309               0.999999984               0.000000000              -0.001384464               0.999999984              -0.000000000              -0.001404485               0.999999984               0.000000000              -0.001429065               0.999999984               0.000000000              -0.001457583               0.999999984               0.000000000              -0.001489275               0.999999984              -0.000000000              -0.001523308               0.999999984               0.000000000              -0.001559204               0.999999984               0.000000000              -0.001596427               0.999999984              -0.000000000              -0.001634359               0.999999984              -0.000000000              -0.001672409               0.999999984              -0.000000000              -0.001710042               0.999999984              -0.000000000              -0.001746594               0.999999984               0.000000000              -0.001780993               0.999999984               0.000676998               0.000000000               0.999999984               0.000726071               0.000000000               0.999999984               0.000747421               0.000000000               0.999999984               0.000759151               0.000000000               0.999999984               0.000768194               0.000000000               0.999999984               0.000777296               0.000000000               0.999999984               0.000787356               0.000000000               0.999999984               0.000798654              -0.000000000               0.999999984               0.000811029               0.000000000               0.999999984               0.000824244               0.000000000               0.999999984               0.000838001               0.000000000               0.999999984               0.000852183              -0.000000000               0.999999984               0.000866677              -0.000000000               0.999999984               0.000881214               0.000000000               0.999999984               0.000895311              -0.000000000               0.999999984               0.000908530               0.000000000               0.999999984               0.000920211               0.000000000               0.999999984               0.000673181               0.000126899               0.999999984               0.000718639               0.000103629               0.999999984               0.000737601               0.000093709               0.999999984               0.000747889               0.000090470               0.999999984               0.000755991               0.000090900               0.999999984               0.000764339               0.000093191               0.999999984               0.000773835               0.000096319               0.999999984               0.000784574               0.000099771               0.999999984               0.000796329               0.000103052               0.999999984               0.000808888               0.000105724               0.999999984               0.000821929               0.000107564               0.999999984               0.000835241               0.000108642               0.999999984               0.000848593               0.000108641               0.999999984               0.000861642               0.000107024               0.999999984               0.000874096               0.000103226               0.999999984               0.000885499               0.000096603               0.999999984               0.000895296               0.000085937               0.999999984               0.000662000               0.000252723               0.999999984               0.000696966               0.000206734               0.999999984               0.000709504               0.000187958               0.999999984               0.000715954               0.000182512               0.999999984               0.000721658               0.000183962               0.999999984               0.000728341               0.000188919               0.999999984               0.000736408               0.000195372               0.999999984               0.000745783               0.000202296               0.999999984               0.000755948               0.000208844               0.999999984               0.000766516               0.000214236               0.999999984               0.000777357               0.000218028               0.999999984               0.000788087               0.000220174               0.999999984               0.000798384               0.000220139               0.999999984               0.000807933               0.000217083               0.999999984               0.000816310               0.000210225               0.999999984               0.000823216               0.000198380               0.999999984               0.000828371               0.000180341               0.999999984               0.000643695               0.000376285               0.999999984               0.000661942               0.000308855               0.999999984               0.000665219               0.000283241               0.999999984               0.000666621               0.000277164               0.999999984               0.000669393               0.000280708               0.999999984               0.000674212               0.000288900               0.999999984               0.000680673               0.000298912               0.999999984               0.000688149               0.000309291               0.999999984               0.000696073               0.000318943               0.999999984               0.000704021               0.000326854               0.999999984               0.000711561               0.000332587               0.999999984               0.000718331               0.000335812               0.999999984               0.000723888               0.000335921               0.999999984               0.000727907               0.000332043               0.999999984               0.000730158               0.000323158               0.999999984               0.000730471               0.000308435               0.999999984               0.000728971               0.000287248               0.999999984               0.000618498               0.000496334               0.999999984               0.000615372               0.000409718               0.999999984               0.000608460               0.000379715               0.999999984               0.000605014               0.000374661               0.999999984               0.000605415               0.000381242               0.999999984               0.000608728               0.000393149               0.999999984               0.000613698               0.000406868               0.999999984               0.000619396               0.000420475               0.999999984               0.000625008               0.000432819               0.999999984               0.000629761               0.000442843               0.999999984               0.000633223               0.000450057               0.999999984               0.000634899               0.000454071               0.999999984               0.000634453               0.000454257               0.999999984               0.000631649               0.000449894               0.999999984               0.000626444               0.000440228               0.999999984               0.000619108               0.000425025               0.999999984               0.000610213               0.000404601               0.999999984               0.000586984               0.000611693               0.999999984               0.000559833               0.000509233               0.999999984               0.000543498               0.000477205               0.999999984               0.000536600               0.000474504               0.999999984               0.000535824               0.000484680               0.999999984               0.000538464               0.000500327               0.999999984               0.000542502               0.000517411               0.999999984               0.000546401               0.000533754               0.999999984               0.000549100               0.000548223               0.999999984               0.000549947               0.000559833               0.999999984               0.000548478               0.000568179               0.999999984               0.000544286               0.000572649               0.999999984               0.000537046               0.000572699               0.999999984               0.000526749               0.000567980               0.999999984               0.000513842               0.000558367               0.999999984               0.000498963               0.000544480               0.999999984               0.000482920               0.000527301               0.999999984               0.000549683               0.000721309               0.999999984               0.000497977               0.000607407               0.999999984               0.000474550               0.000575302               0.999999984               0.000466516               0.000575656               0.999999984               0.000466109               0.000589390               0.999999984               0.000468948               0.000608331               0.999999984               0.000472164               0.000628118               0.999999984               0.000473963               0.000646547               0.999999984               0.000473297               0.000662579               0.999999984               0.000469517               0.000675445               0.999999984               0.000462318               0.000684520               0.999999984               0.000451341               0.000689069               0.999999984               0.000436631               0.000688792               0.999999984               0.000418694               0.000684073               0.999999984               0.000398288               0.000675453               0.999999984               0.000376185               0.000663867               0.999999984               0.000353085               0.000650426               0.999999984               0.000507360               0.000823959               0.999999984               0.000432859               0.000703886               0.999999984               0.000405608               0.000673215               0.999999984               0.000398916               0.000676501               0.999999984               0.000400094               0.000693252               0.999999984               0.000403456               0.000714913               0.999999984               0.000405611               0.000736886               0.999999984               0.000404786               0.000756930               0.999999984               0.000400031               0.000774136               0.999999984               0.000390910               0.000787680               0.999999984               0.000377054               0.000796964               0.999999984               0.000358531               0.000801180               0.999999984               0.000335927               0.000800811               0.999999984               0.000310097               0.000796721               0.999999984               0.000281993               0.000789824               0.999999984               0.000252404               0.000780959               0.999999984               0.000221982               0.000771035               0.999999984               0.000461434               0.000917826               0.999999984               0.000366794               0.000798577               0.999999984               0.000340380               0.000769539               0.999999984               0.000336752               0.000774960               0.999999984               0.000340111               0.000794150               0.999999984               0.000343841               0.000817963               0.999999984               0.000344347               0.000841768               0.999999984               0.000340070               0.000863266               0.999999984               0.000330500               0.000881188               0.999999984               0.000315034               0.000894861               0.999999984               0.000293513               0.000903695               0.999999984               0.000266597               0.000907817               0.999999984               0.000235408               0.000907944               0.999999984               0.000201119               0.000905271               0.999999984               0.000164867               0.000900766               0.999999984               0.000127586               0.000895175               0.999999984               0.000089944               0.000889066               0.999999984               0.000414153               0.001006361               0.999999984               0.000312011               0.000903446               0.999999984               0.000282362               0.000869446               0.999999984               0.000277569               0.000868440               0.999999984               0.000280664               0.000882779               0.999999984               0.000284858               0.000903687               0.999999984               0.000286609               0.000926579               0.999999984               0.000284376               0.000948778               0.999999984               0.000277403               0.000968947               0.999999984               0.000265094               0.000986088               0.999999984               0.000246906               0.000999828               0.999999984               0.000223217               0.001009802               0.999999984               0.000194614               0.001016444               0.999999984               0.000161808               0.001020135               0.999999984               0.000126146               0.001021901               0.999999984               0.000088504               0.001022314               0.999999984               0.000049870               0.001022127               0.999999984               0.000362438               0.001086729               0.999999984               0.000260219               0.001004679               0.999999984               0.000227473               0.000971770               0.999999984               0.000220495               0.000966767               0.999999984               0.000222483               0.000977233               0.999999984               0.000226359               0.000995651               0.999999984               0.000228870               0.001017565               0.999999984               0.000228297               0.001040296               0.999999984               0.000223522               0.001062289               0.999999984               0.000213960               0.001082486               0.999999984               0.000198972               0.001100311               0.999999984               0.000178465               0.001115336               0.999999984               0.000152784               0.001127545               0.999999984               0.000122226               0.001137132               0.999999984               0.000087529               0.001144652               0.999999984               0.000049659               0.001150697               0.999999984               0.000009732               0.001156058               0.999999984               0.000307315               0.001157077               0.999999984               0.000211393               0.001099203               0.999999984               0.000177231               0.001071870               0.999999984               0.000167771               0.001066238               0.999999984               0.000167907               0.001074497               0.999999984               0.000170919               0.001091239               0.999999984               0.000173458               0.001112563               0.999999984               0.000173928               0.001135997               0.999999984               0.000170809               0.001159765               0.999999984               0.000163523               0.001182828               0.999999984               0.000151477               0.001204404               0.999999984               0.000134296               0.001224080               0.999999984               0.000111852               0.001241450               0.999999984               0.000084015               0.001256555               0.999999984               0.000050889               0.001269652               0.999999984               0.000012969               0.001281215               0.999999984              -0.000028801               0.001291835               0.999999984               0.000249294               0.001216146               0.999999984               0.000165461               0.001183134               0.999999984               0.000132477               0.001164668               0.999999984               0.000121340               0.001161278               0.999999984               0.000119617               0.001169373               0.999999984               0.000121231               0.001185603               0.999999984               0.000123217               0.001207016               0.999999984               0.000124002               0.001231395               0.999999984               0.000122105               0.001257115               0.999999984               0.000116661               0.001283123               0.999999984               0.000107170               0.001308554               0.999999984               0.000093407               0.001332842               0.999999984               0.000074619               0.001355462               0.999999984               0.000050179               0.001376181               0.999999984               0.000019786               0.001394938               0.999999984              -0.000016951               0.001412121               0.999999984              -0.000059944               0.001428093               0.999999984               0.000189039               0.001262927               0.999999984               0.000122013               0.001252599               0.999999984               0.000093342               0.001244595               0.999999984               0.000082167               0.001245426               0.999999984               0.000079182               0.001255092               0.999999984               0.000079524               0.001271898               0.999999984               0.000080760               0.001294033               0.999999984               0.000081317               0.001319761               0.999999984               0.000080103               0.001347569               0.999999984               0.000076296               0.001376458               0.999999984               0.000069336               0.001405602               0.999999984               0.000058795               0.001434457               0.999999984               0.000044062               0.001462412               0.999999984               0.000024239               0.001489089               0.999999984              -0.000001750               0.001514083               0.999999984              -0.000034836               0.001537400               0.999999984              -0.000076093               0.001559186               0.999999984               0.000127035               0.001297005               0.999999984               0.000080370               0.001304621               0.999999984               0.000059145               0.001306207               0.999999984               0.000050091               0.001311930               0.999999984               0.000046993               0.001323952               0.999999984               0.000046601               0.001342069               0.999999984               0.000047059               0.001365299               0.999999984               0.000047320               0.001392460               0.999999984               0.000046622               0.001422221               0.999999984               0.000044235               0.001453727               0.999999984               0.000039709               0.001486317               0.999999984               0.000032528               0.001519232               0.999999984               0.000022212               0.001552049               0.999999984               0.000008027               0.001584358               0.999999984              -0.000011290               0.001615579               0.999999984              -0.000037014               0.001645284               0.999999984              -0.000070894               0.001673109               0.999999984               0.000063817               0.001317682               0.999999984               0.000039922               0.001336874               0.999999984               0.000028589               0.001345093               0.999999984               0.000023573               0.001354655               0.999999984               0.000021649               0.001368886               0.999999984               0.000021129               0.001388307               0.999999984               0.000021195               0.001412504               0.999999984               0.000021228               0.001440653               0.999999984               0.000020957               0.001471800               0.999999984               0.000019830               0.001505117               0.999999984               0.000017631               0.001540139               0.999999984               0.000014055               0.001576222               0.999999984               0.000008646               0.001612725               0.999999984               0.000001072               0.001649255               0.999999984              -0.000009251               0.001685215               0.999999984              -0.000023569               0.001719848               0.999999984              -0.000043147               0.001752415               0.999999984               0.000000000               0.001324488               0.999999984               0.000000000               0.001347730               0.999999984               0.000000000               0.001358374               0.999999984              -0.000000000               0.001369309               0.999999984              -0.000000000               0.001384464               0.999999984               0.000000000               0.001404485               0.999999984               0.000000000               0.001429065               0.999999984               0.000000000               0.001457583               0.999999984               0.000000000               0.001489275               0.999999984               0.000000000               0.001523308               0.999999984              -0.000000000               0.001559204               0.999999984              -0.000000000               0.001596427               0.999999984              -0.000000000               0.001634359               0.999999984               0.000000000               0.001672409               0.999999984               0.000000000               0.001710042               0.999999984              -0.000000000               0.001746594               0.999999984              -0.000000000               0.001780993               0.999999984 </DataArray>
<DataArray type="Float64"                                    Name="stress"                                                      NumberOfComponents="10" format="ascii">
              0.002145299               0.023216169              -0.000000000              -0.002097529               0.008437822               0.006340293               0.000000000               0.000000000               0.000000000               0.000000000               0.002132700               0.018160306              -0.000000000              -0.001470272               0.006543466               0.005073194               0.000000000               0.000000000               0.000000000               0.000000000               0.002813593               0.014069890               0.000000000              -0.000703637               0.004924462               0.004220825               0.000000000               0.000000000               0.000000000               0.000000000               0.002713489               0.011778345               0.000000000              -0.000454734               0.004077654               0.003622920               0.000000000               0.000000000               0.000000000               0.000000000               0.002375191               0.010359695               0.000000000              -0.000404264               0.003587952               0.003183687               0.000000000               0.000000000               0.000000000               0.000000000               0.001987557               0.009392791              -0.000000000              -0.000428764               0.003273820               0.002845056               0.000000000               0.000000000               0.000000000               0.000000000               0.001619200               0.008673378              -0.000000000              -0.000476971               0.003050087               0.002573116               0.000000000               0.000000000               0.000000000               0.000000000               0.001298039               0.008100843               0.000000000              -0.000525839               0.002875534               0.002349694               0.000000000               0.000000000               0.000000000               0.000000000               0.001027206               0.007609657              -0.000000000              -0.000566004               0.002725195               0.002159191               0.000000000               0.000000000               0.000000000               0.000000000               0.000799646               0.007156043              -0.000000000              -0.000594637               0.002583536               0.001988899               0.000000000               0.000000000               0.000000000               0.000000000               0.000603135               0.006718401              -0.000000000              -0.000613623               0.002443986               0.001830363               0.000000000               0.000000000               0.000000000               0.000000000               0.000426276               0.006289372               0.000000000              -0.000626316               0.002305208               0.001678892               0.000000000               0.000000000               0.000000000               0.000000000               0.000272827               0.005854441               0.000000000              -0.000629494               0.002161292               0.001531798               0.000000000               0.000000000               0.000000000               0.000000000               0.000151640               0.005393644               0.000000000              -0.000617339               0.002003643               0.001386304               0.000000000               0.000000000               0.000000000               0.000000000               0.000064856               0.004886619               0.000000000              -0.000586505               0.001824358               0.001237853               0.000000000               0.000000000               0.000000000               0.000000000               0.000017402               0.004311452               0.000000000              -0.000532405               0.001614604               0.001082200               0.000000000               0.000000000               0.000000000               0.000000000              -0.000042178               0.003868187              -0.000000000              -0.000499339               0.001455829               0.000956490               0.000000000               0.000000000               0.000000000               0.000000000               0.002225317               0.022753982              -0.001587071              -0.002009749               0.008254501               0.006244752               0.000000000               0.000000000               0.000000000               0.000000000               0.002098386               0.017862068              -0.000791452              -0.001445860               0.006435916               0.004990056               0.000000000               0.000000000               0.000000000               0.000000000               0.002652904               0.013945676               0.000001332              -0.000748369               0.004897968               0.004149600               0.000000000               0.000000000               0.000000000               0.000000000               0.002501479               0.011747257               0.000335750              -0.000530351               0.004092497               0.003562146               0.000000000               0.000000000               0.000000000               0.000000000               0.002153172               0.010372691               0.000472379              -0.000489146               0.003620578               0.003131432               0.000000000               0.000000000               0.000000000               0.000000000               0.001771410               0.009424785               0.000516868              -0.000513818               0.003312836               0.002799018               0.000000000               0.000000000               0.000000000               0.000000000               0.001414992               0.008711467               0.000520308              -0.000558310               0.003089897               0.002531587               0.000000000               0.000000000               0.000000000               0.000000000               0.001112406               0.008139063               0.000504576              -0.000600229               0.002913070               0.002312841               0.000000000               0.000000000               0.000000000               0.000000000               0.000861413               0.007646800               0.000476909              -0.000632819               0.002759847               0.002127029               0.000000000               0.000000000               0.000000000               0.000000000               0.000649907               0.007193037               0.000443762              -0.000655413               0.002616126               0.001960713               0.000000000               0.000000000               0.000000000               0.000000000               0.000470954               0.006757538               0.000413479              -0.000668083               0.002475184               0.001807102               0.000000000               0.000000000               0.000000000               0.000000000               0.000317982               0.006331224               0.000384971              -0.000672158               0.002334440               0.001662281               0.000000000               0.000000000               0.000000000               0.000000000               0.000192687               0.005901019               0.000347766              -0.000665368               0.002188776               0.001523408               0.000000000               0.000000000               0.000000000               0.000000000               0.000096802               0.005450458               0.000297285              -0.000645005               0.002031803               0.001386798               0.000000000               0.000000000               0.000000000               0.000000000               0.000031856               0.004964936               0.000229649              -0.000608670               0.001857852               0.001249182               0.000000000               0.000000000               0.000000000               0.000000000               0.000004009               0.004428681               0.000132247              -0.000552081               0.001660239               0.001108159               0.000000000               0.000000000               0.000000000               0.000000000              -0.000042040               0.004027646               0.000082921              -0.000519219               0.001515608               0.000996389               0.000000000               0.000000000               0.000000000               0.000000000               0.002420766               0.021419061              -0.002961405              -0.001769592               0.007729479               0.005959887               0.000000000               0.000000000               0.000000000               0.000000000               0.001969127               0.017005006              -0.001477342              -0.001387200               0.006130679               0.004743479               0.000000000               0.000000000               0.000000000               0.000000000               0.002176993               0.013589471              -0.000015708              -0.000882309               0.004823882               0.003941572               0.000000000               0.000000000               0.000000000               0.000000000               0.001899669               0.011646196               0.000577492              -0.000743397               0.004129826               0.003386429               0.000000000               0.000000000               0.000000000               0.000000000               0.001529732               0.010393820               0.000808710              -0.000725577               0.003706431               0.002980854               0.000000000               0.000000000               0.000000000               0.000000000               0.001176109               0.009499956               0.000876834              -0.000746452               0.003415437               0.002668986               0.000000000               0.000000000               0.000000000               0.000000000               0.000867808               0.008805535               0.000875840              -0.000775262               0.003193570               0.002418307               0.000000000               0.000000000               0.000000000               0.000000000               0.000620299               0.008233379               0.000846211              -0.000796558               0.003009952               0.002213393               0.000000000               0.000000000               0.000000000               0.000000000               0.000430681               0.007736900               0.000797615              -0.000805605               0.002847476               0.002041871               0.000000000               0.000000000               0.000000000               0.000000000               0.000273618               0.007279937               0.000739603              -0.000807383               0.002695749               0.001888366               0.000000000               0.000000000               0.000000000               0.000000000               0.000145322               0.006847669               0.000685797              -0.000801461               0.002549687               0.001748226               0.000000000               0.000000000               0.000000000               0.000000000               0.000049700               0.006428761               0.000633299              -0.000784956               0.002404551               0.001619595               0.000000000               0.000000000               0.000000000               0.000000000              -0.000017443               0.006012776               0.000566329              -0.000758136               0.002256951               0.001498814               0.000000000               0.000000000               0.000000000               0.000000000              -0.000054008               0.005593410               0.000477412              -0.000719427               0.002104260               0.001384833               0.000000000               0.000000000               0.000000000               0.000000000              -0.000061065               0.005164042               0.000359071              -0.000668403               0.001944131               0.001275728               0.000000000               0.000000000               0.000000000               0.000000000              -0.000041892               0.004725181               0.000199881              -0.000606356               0.001777163               0.001170807               0.000000000               0.000000000               0.000000000               0.000000000              -0.000057886               0.004421549               0.000122140              -0.000574399               0.001665301               0.001090902               0.000000000               0.000000000               0.000000000               0.000000000               0.002623581               0.019369575              -0.003941804              -0.001437353               0.006935577               0.005498225               0.000000000               0.000000000               0.000000000               0.000000000               0.001711039               0.015706552              -0.001971928              -0.001321677               0.005676024               0.004354347               0.000000000               0.000000000               0.000000000               0.000000000               0.001432362               0.013043297              -0.000062057              -0.001093274               0.004712147               0.003618873               0.000000000               0.000000000               0.000000000               0.000000000               0.001009887               0.011454803               0.000670303              -0.001053140               0.004169276               0.003116136               0.000000000               0.000000000               0.000000000               0.000000000               0.000639094               0.010369535               0.000937352              -0.001056529               0.003808653               0.002752124               0.000000000               0.000000000               0.000000000               0.000000000               0.000347192               0.009550658               0.001006797              -0.001063633               0.003538065               0.002474432               0.000000000               0.000000000               0.000000000               0.000000000               0.000132327               0.008886725               0.000995901              -0.001061216               0.003315950               0.002254735               0.000000000               0.000000000               0.000000000               0.000000000              -0.000020334               0.008316591               0.000954462              -0.001047197               0.003121235               0.002074038               0.000000000               0.000000000               0.000000000               0.000000000              -0.000124187               0.007808730               0.000892976              -0.001022659               0.002943770               0.001921111               0.000000000               0.000000000               0.000000000               0.000000000              -0.000195098               0.007343276               0.000823963              -0.000991069               0.002778090               0.001787021               0.000000000               0.000000000               0.000000000               0.000000000              -0.000237825               0.006910801               0.000760283              -0.000953032               0.002621255               0.001668222               0.000000000               0.000000000               0.000000000               0.000000000              -0.000250550               0.006500737               0.000696426              -0.000906546               0.002469073               0.001562526               0.000000000               0.000000000               0.000000000               0.000000000              -0.000235323               0.006107698               0.000617429              -0.000851706               0.002319781               0.001468075               0.000000000               0.000000000               0.000000000               0.000000000              -0.000197634               0.005731062               0.000511665              -0.000790494               0.002173833               0.001383339               0.000000000               0.000000000               0.000000000               0.000000000              -0.000141360               0.005374103               0.000374049              -0.000724771               0.002032940               0.001308169               0.000000000               0.000000000               0.000000000               0.000000000              -0.000075170               0.005053120               0.000203375              -0.000659827               0.001904299               0.001244472               0.000000000               0.000000000               0.000000000               0.000000000              -0.000062870               0.004856772               0.000121649              -0.000630671               0.001829132               0.001198460               0.000000000               0.000000000               0.000000000               0.000000000               0.002690223               0.016845424              -0.004448789              -0.001096845               0.005980699               0.004883854               0.000000000               0.000000000               0.000000000               0.000000000               0.001297059               0.014134068              -0.002262314              -0.001280360               0.005138095               0.003857735               0.000000000               0.000000000               0.000000000               0.000000000               0.000507200               0.012363012              -0.000172696              -0.001355173               0.004572687               0.003217514               0.000000000               0.000000000               0.000000000               0.000000000              -0.000016666               0.011161199               0.000578594              -0.001401396               0.004187494               0.002786098               0.000000000               0.000000000               0.000000000               0.000000000              -0.000336695               0.010248098               0.000835357              -0.001407269               0.003885088               0.002477819               0.000000000               0.000000000               0.000000000               0.000000000              -0.000521571               0.009503837               0.000895894              -0.001383565               0.003629102               0.002245537               0.000000000               0.000000000               0.000000000               0.000000000              -0.000616418               0.008865059               0.000878051              -0.001339286               0.003401419               0.002062133               0.000000000               0.000000000               0.000000000               0.000000000              -0.000656464               0.008293954               0.000834871              -0.001282915               0.003192262               0.001909347               0.000000000               0.000000000               0.000000000               0.000000000              -0.000653481               0.007777646               0.000779821              -0.001217258               0.002998275               0.001781017               0.000000000               0.000000000               0.000000000               0.000000000              -0.000620472               0.007308368               0.000720593              -0.001146220               0.002818172               0.001671951               0.000000000               0.000000000               0.000000000               0.000000000              -0.000562574               0.006879679               0.000663944              -0.001070922               0.002650177               0.001579255               0.000000000               0.000000000               0.000000000               0.000000000              -0.000480192               0.006481272               0.000603285              -0.000990229               0.002490479               0.001500250               0.000000000               0.000000000               0.000000000               0.000000000              -0.000380481               0.006109754               0.000527553              -0.000906398               0.002338697               0.001432299               0.000000000               0.000000000               0.000000000               0.000000000              -0.000272295               0.005772514               0.000426566              -0.000823673               0.002198710               0.001375037               0.000000000               0.000000000               0.000000000               0.000000000              -0.000166608               0.005484277               0.000299778              -0.000748011               0.002077411               0.001329400               0.000000000               0.000000000               0.000000000               0.000000000              -0.000077244               0.005265014               0.000155809              -0.000687092               0.001984018               0.001296926               0.000000000               0.000000000               0.000000000               0.000000000              -0.000050080               0.005155059               0.000087968              -0.000663161               0.001939390               0.001276229               0.000000000               0.000000000               0.000000000               0.000000000               0.002496181               0.014116406              -0.004490152              -0.000828485               0.004981582               0.004153097               0.000000000               0.000000000               0.000000000               0.000000000               0.000722950               0.012462609              -0.002372241              -0.001286718               0.004583067               0.003296349               0.000000000               0.000000000               0.000000000               0.000000000              -0.000488290               0.011611237              -0.000366680              -0.001634509               0.004415210               0.002780701               0.000000000               0.000000000               0.000000000               0.000000000              -0.001019109               0.010773212               0.000312006              -0.001728813               0.004167306               0.002438493               0.000000000               0.000000000               0.000000000               0.000000000              -0.001226795               0.010009374               0.000536111              -0.001711216               0.003906830               0.002195614               0.000000000               0.000000000               0.000000000               0.000000000              -0.001273412               0.009321017               0.000592155              -0.001642653               0.003654525               0.002011873               0.000000000               0.000000000               0.000000000               0.000000000              -0.001231842               0.008697195               0.000585356              -0.001549086               0.003415398               0.001866312               0.000000000               0.000000000               0.000000000               0.000000000              -0.001142496               0.008131081               0.000563404              -0.001444818               0.003191939               0.001747121               0.000000000               0.000000000               0.000000000               0.000000000              -0.001027091               0.007619332               0.000535826              -0.001337572               0.002985610               0.001648037               0.000000000               0.000000000               0.000000000               0.000000000              -0.000896093               0.007160367               0.000503352              -0.001231078               0.002797124               0.001566047               0.000000000               0.000000000               0.000000000               0.000000000              -0.000750221               0.006744745               0.000466186              -0.001124423               0.002623034               0.001498610               0.000000000               0.000000000               0.000000000               0.000000000              -0.000589842               0.006361034               0.000418583              -0.001016317               0.002459096               0.001442778               0.000000000               0.000000000               0.000000000               0.000000000              -0.000425272               0.006012151               0.000357457              -0.000910994               0.002307695               0.001396701               0.000000000               0.000000000               0.000000000               0.000000000              -0.000274067               0.005713239               0.000277114              -0.000816928               0.002176703               0.001359775               0.000000000               0.000000000               0.000000000               0.000000000              -0.000149468               0.005481649               0.000182610              -0.000741255               0.002074283               0.001333028               0.000000000               0.000000000               0.000000000               0.000000000              -0.000061517               0.005327868               0.000088618              -0.000689051               0.002005622               0.001316571               0.000000000               0.000000000               0.000000000               0.000000000              -0.000035199               0.005261631               0.000047626              -0.000670902               0.001977494               0.001306592               0.000000000               0.000000000               0.000000000               0.000000000               0.001974406               0.011404884              -0.004138022              -0.000685210               0.004029992               0.003344782               0.000000000               0.000000000               0.000000000               0.000000000               0.000015214               0.010819258              -0.002350494              -0.001346700               0.004055283               0.002708582               0.000000000               0.000000000               0.000000000               0.000000000              -0.001446070               0.010825521              -0.000652862              -0.001895462               0.004240292               0.002344830               0.000000000               0.000000000               0.000000000               0.000000000              -0.001875922               0.010290265              -0.000091366              -0.001989749               0.004093304               0.002103555               0.000000000               0.000000000               0.000000000               0.000000000              -0.001919530               0.009643683               0.000108546              -0.001925279               0.003856289               0.001931009               0.000000000               0.000000000               0.000000000               0.000000000              -0.001808439               0.009005484               0.000181677              -0.001803846               0.003603080               0.001799234               0.000000000               0.000000000               0.000000000               0.000000000              -0.001627725               0.008406959               0.000209359              -0.001661263               0.003356046               0.001694783               0.000000000               0.000000000               0.000000000               0.000000000              -0.001418879               0.007860564               0.000226677              -0.001514646               0.003125044               0.001610397               0.000000000               0.000000000               0.000000000               0.000000000              -0.001200952               0.007369507               0.000238943              -0.001371542               0.002913659               0.001542116               0.000000000               0.000000000               0.000000000               0.000000000              -0.000984124               0.006928315               0.000241970              -0.001235083               0.002721109               0.001486027               0.000000000               0.000000000               0.000000000               0.000000000              -0.000770034               0.006525512               0.000231021              -0.001104449               0.002543298               0.001438850               0.000000000               0.000000000               0.000000000               0.000000000              -0.000562083               0.006156151               0.000204945              -0.000980297               0.002378795               0.001398498               0.000000000               0.000000000               0.000000000               0.000000000              -0.000374365               0.005835321               0.000168545              -0.000869800               0.002235021               0.001365221               0.000000000               0.000000000               0.000000000               0.000000000              -0.000221366               0.005578693               0.000122127              -0.000780347               0.002119661               0.001339315               0.000000000               0.000000000               0.000000000               0.000000000              -0.000108854               0.005393940               0.000070712              -0.000715061               0.002036316               0.001321255               0.000000000               0.000000000               0.000000000               0.000000000              -0.000039128               0.005273292               0.000028512              -0.000673833               0.001982357               0.001308525               0.000000000               0.000000000               0.000000000               0.000000000              -0.000023271               0.005216671               0.000015992              -0.000660809               0.001959142               0.001298333               0.000000000               0.000000000               0.000000000               0.000000000               0.001152287               0.008876399              -0.003497441              -0.000677444               0.003184584               0.002507140               0.000000000               0.000000000               0.000000000               0.000000000              -0.000775348               0.009298320              -0.002250426              -0.001453043               0.003583756               0.002130713               0.000000000               0.000000000               0.000000000               0.000000000              -0.002261318               0.010011120              -0.001022713              -0.002099379               0.004036800               0.001937420               0.000000000               0.000000000               0.000000000               0.000000000              -0.002503611               0.009702517              -0.000568459              -0.002151664               0.003951361               0.001799698               0.000000000               0.000000000               0.000000000               0.000000000              -0.002360181               0.009159683              -0.000359824              -0.002030023               0.003729871               0.001699848               0.000000000               0.000000000               0.000000000               0.000000000              -0.002095793               0.008581864              -0.000243272              -0.001858651               0.003480143               0.001621492               0.000000000               0.000000000               0.000000000               0.000000000              -0.001791632               0.008030378              -0.000166117              -0.001675655               0.003235318               0.001559662               0.000000000               0.000000000               0.000000000               0.000000000              -0.001487626               0.007523210              -0.000102853              -0.001498257               0.003007130               0.001508873               0.000000000               0.000000000               0.000000000               0.000000000              -0.001194459               0.007057348              -0.000048431              -0.001330087               0.002795788               0.001465701               0.000000000               0.000000000               0.000000000               0.000000000              -0.000915472               0.006629016              -0.000006151              -0.001171926               0.002600292               0.001428366               0.000000000               0.000000000               0.000000000               0.000000000              -0.000660035               0.006235834               0.000016669              -0.001026990               0.002420920               0.001393931               0.000000000               0.000000000               0.000000000               0.000000000              -0.000439434               0.005892101               0.000020459              -0.000901298               0.002264447               0.001363149               0.000000000               0.000000000               0.000000000               0.000000000              -0.000262775               0.005613212               0.000017709              -0.000800190               0.002137782               0.001337592               0.000000000               0.000000000               0.000000000               0.000000000              -0.000136573               0.005402702               0.000010949              -0.000726551               0.002043066               0.001316515               0.000000000               0.000000000               0.000000000               0.000000000              -0.000057896               0.005255432               0.000001292              -0.000678638               0.001978006               0.001299368               0.000000000               0.000000000               0.000000000               0.000000000              -0.000018552               0.005157320              -0.000004005              -0.000651620               0.001936296               0.001284676               0.000000000               0.000000000               0.000000000               0.000000000              -0.000015383               0.005107246               0.000000199              -0.000644173               0.001917123               0.001272950               0.000000000               0.000000000               0.000000000               0.000000000               0.000154766               0.006725373              -0.002690822              -0.000782635               0.002502646               0.001720011               0.000000000               0.000000000               0.000000000               0.000000000              -0.001541129               0.007937614              -0.002126099              -0.001570123               0.003169218               0.001599096               0.000000000               0.000000000               0.000000000               0.000000000              -0.002884277               0.009203729              -0.001461974              -0.002232065               0.003811900               0.001579836               0.000000000               0.000000000               0.000000000               0.000000000              -0.002921587               0.009135952              -0.001075363              -0.002237584               0.003791148               0.001553564               0.000000000               0.000000000               0.000000000               0.000000000              -0.002621702               0.008730554              -0.000831175              -0.002074452               0.003601639               0.001527187               0.000000000               0.000000000               0.000000000               0.000000000              -0.002237907               0.008239202              -0.000657182              -0.001869111               0.003369410               0.001500299               0.000000000               0.000000000               0.000000000               0.000000000              -0.001841178               0.007750044              -0.000523402              -0.001659193               0.003136386               0.001477193               0.000000000               0.000000000               0.000000000               0.000000000              -0.001467007               0.007286360              -0.000417427              -0.001460919               0.002915735               0.001454816               0.000000000               0.000000000               0.000000000               0.000000000              -0.001119476               0.006849934              -0.000327143              -0.001276042               0.002708636               0.001432594               0.000000000               0.000000000               0.000000000               0.000000000              -0.000800872               0.006437778              -0.000245405              -0.001105047               0.002514253               0.001409207               0.000000000               0.000000000               0.000000000               0.000000000              -0.000528712               0.006056856              -0.000178588              -0.000955372               0.002337389               0.001382017               0.000000000               0.000000000               0.000000000               0.000000000              -0.000312266               0.005733452              -0.000130879              -0.000833779               0.002189058               0.001355279               0.000000000               0.000000000               0.000000000               0.000000000              -0.000156142               0.005481356              -0.000093009              -0.000743721               0.002075007               0.001331287               0.000000000               0.000000000               0.000000000               0.000000000              -0.000062183               0.005294383              -0.000060208              -0.000685115               0.001993148               0.001308033               0.000000000               0.000000000               0.000000000               0.000000000              -0.000018677               0.005163628              -0.000035665              -0.000652456               0.001938677               0.001286222               0.000000000               0.000000000               0.000000000               0.000000000              -0.000012581               0.005075931              -0.000017160              -0.000639208               0.001905029               0.001265822               0.000000000               0.000000000               0.000000000               0.000000000              -0.000020540               0.005037130              -0.000007069              -0.000637342               0.001891474               0.001254132               0.000000000               0.000000000               0.000000000               0.000000000              -0.001019169               0.004720609              -0.001828431              -0.000972263               0.001897608               0.000925345               0.000000000               0.000000000               0.000000000               0.000000000              -0.002165858               0.006367981              -0.001982080              -0.001608191               0.002658702               0.001050511               0.000000000               0.000000000               0.000000000               0.000000000              -0.003227721               0.008030794              -0.001926613              -0.002214240               0.003414984               0.001200744               0.000000000               0.000000000               0.000000000               0.000000000              -0.003161421               0.008334508              -0.001620366              -0.002227341               0.003520588               0.001293247               0.000000000               0.000000000               0.000000000               0.000000000              -0.002803998               0.008185259              -0.001339848              -0.002074652               0.003419943               0.001345291               0.000000000               0.000000000               0.000000000               0.000000000              -0.002386582               0.007874995              -0.001110149              -0.001879338               0.003251418               0.001372080               0.000000000               0.000000000               0.000000000               0.000000000              -0.001963231               0.007513953              -0.000925457              -0.001675452               0.003063110               0.001387658               0.000000000               0.000000000               0.000000000               0.000000000              -0.001559805               0.007146313              -0.000776974              -0.001478212               0.002874818               0.001396606               0.000000000               0.000000000               0.000000000               0.000000000              -0.001193283               0.006784206              -0.000647648              -0.001295504               0.002693214               0.001397710               0.000000000               0.000000000               0.000000000               0.000000000              -0.000863502               0.006432881              -0.000524000              -0.001127921               0.002520246               0.001392325               0.000000000               0.000000000               0.000000000               0.000000000              -0.000579293               0.006098153              -0.000410532              -0.000979502               0.002359198               0.001379696               0.000000000               0.000000000               0.000000000               0.000000000              -0.000349786               0.005795351              -0.000313349              -0.000855586               0.002216960               0.001361373               0.000000000               0.000000000               0.000000000               0.000000000              -0.000179525               0.005538056              -0.000225878              -0.000759577               0.002099193               0.001339616               0.000000000               0.000000000               0.000000000               0.000000000              -0.000072740               0.005332430              -0.000148922              -0.000693830               0.002008735               0.001314906               0.000000000               0.000000000               0.000000000               0.000000000              -0.000024303               0.005178597              -0.000084527              -0.000656436               0.001944994               0.001288557               0.000000000               0.000000000               0.000000000               0.000000000              -0.000021624               0.005070856              -0.000032966              -0.000641964               0.001904257               0.001262292               0.000000000               0.000000000               0.000000000               0.000000000              -0.000032898               0.005028810              -0.000009953              -0.000640936               0.001889899               0.001248962               0.000000000               0.000000000               0.000000000               0.000000000              -0.002536859               0.002903875              -0.000966101              -0.001314304               0.001406049               0.000091745               0.000000000               0.000000000               0.000000000               0.000000000              -0.002866097               0.004790382              -0.001761916              -0.001673581               0.002154638               0.000481057               0.000000000               0.000000000               0.000000000               0.000000000              -0.003464634               0.006671091              -0.002291575              -0.002133119               0.002934714               0.000801594               0.000000000               0.000000000               0.000000000               0.000000000              -0.003309802               0.007327987              -0.002137115              -0.002157170               0.003161694               0.001004524               0.000000000               0.000000000               0.000000000               0.000000000              -0.002930912               0.007473507              -0.001858755              -0.002033276               0.003168902               0.001135626               0.000000000               0.000000000               0.000000000               0.000000000              -0.002503480               0.007388709              -0.001596308              -0.001862389               0.003083674               0.001221285               0.000000000               0.000000000               0.000000000               0.000000000              -0.002075567               0.007196618              -0.001375318              -0.001677911               0.002958152               0.001280241               0.000000000               0.000000000               0.000000000               0.000000000              -0.001663233               0.006960529              -0.001188377              -0.001493775               0.002818078               0.001324303               0.000000000               0.000000000               0.000000000               0.000000000              -0.001288261               0.006698744              -0.001020165              -0.001320438               0.002673038               0.001352601               0.000000000               0.000000000               0.000000000               0.000000000              -0.000948152               0.006428417              -0.000862070              -0.001159106               0.002529153               0.001370047               0.000000000               0.000000000               0.000000000               0.000000000              -0.000642893               0.006155871              -0.000711078              -0.001010566               0.002388792               0.001378225               0.000000000               0.000000000               0.000000000               0.000000000              -0.000384425               0.005889747              -0.000572491              -0.000880376               0.002256688               0.001376312               0.000000000               0.000000000               0.000000000               0.000000000              -0.000181277               0.005638857              -0.000439760              -0.000772834               0.002137212               0.001364377               0.000000000               0.000000000               0.000000000               0.000000000              -0.000039816               0.005419907              -0.000311853              -0.000692418               0.002037423               0.001345006               0.000000000               0.000000000               0.000000000               0.000000000               0.000029052               0.005237453              -0.000191303              -0.000643785               0.001960395               0.001316610               0.000000000               0.000000000               0.000000000               0.000000000               0.000032250               0.005100922              -0.000085035              -0.000625520               0.001908797               0.001283277               0.000000000               0.000000000               0.000000000               0.000000000               0.000008528               0.005039577              -0.000032732              -0.000626748               0.001888758               0.001262010               0.000000000               0.000000000               0.000000000               0.000000000              -0.004304955               0.001407862              -0.000177070              -0.001790338               0.001066060              -0.000724279               0.000000000               0.000000000               0.000000000               0.000000000              -0.003701469               0.003299357              -0.001443473              -0.001800467               0.001699929              -0.000100538               0.000000000               0.000000000               0.000000000               0.000000000              -0.003637215               0.005140220              -0.002439226              -0.002006479               0.002382215               0.000375736               0.000000000               0.000000000               0.000000000               0.000000000              -0.003310568               0.006038451              -0.002477671              -0.001996265               0.002678218               0.000681952               0.000000000               0.000000000               0.000000000               0.000000000              -0.002896098               0.006454578              -0.002259616              -0.001892855               0.002782456               0.000889600               0.000000000               0.000000000               0.000000000               0.000000000              -0.002467358               0.006610591              -0.002001504              -0.001751579               0.002787368               0.001035788               0.000000000               0.000000000               0.000000000               0.000000000              -0.002051582               0.006616487              -0.001766758              -0.001596401               0.002737607               0.001141206               0.000000000               0.000000000               0.000000000               0.000000000              -0.001652159               0.006536328              -0.001557097              -0.001436597               0.002657620               0.001221022               0.000000000               0.000000000               0.000000000               0.000000000              -0.001279215               0.006403029              -0.001364152              -0.001280082               0.002561015               0.001280934               0.000000000               0.000000000               0.000000000               0.000000000              -0.000937054               0.006238416              -0.001186187              -0.001131195               0.002456516               0.001325321               0.000000000               0.000000000               0.000000000               0.000000000              -0.000619261               0.006055597              -0.001017649              -0.000989170               0.002348236               0.001359065               0.000000000               0.000000000               0.000000000               0.000000000              -0.000330140               0.005859068              -0.000856652              -0.000856184               0.002238398               0.001382214               0.000000000               0.000000000               0.000000000               0.000000000              -0.000088890               0.005652734              -0.000692635              -0.000739924               0.002130867               0.001390943               0.000000000               0.000000000               0.000000000               0.000000000               0.000092918               0.005454282              -0.000520458              -0.000646940               0.002033722               0.001386783               0.000000000               0.000000000               0.000000000               0.000000000               0.000203165               0.005275385              -0.000342367              -0.000583235               0.001952856               0.001369621               0.000000000               0.000000000               0.000000000               0.000000000               0.000229135               0.005125823              -0.000166445              -0.000554801               0.001893524               0.001338723               0.000000000               0.000000000               0.000000000               0.000000000               0.000203946               0.005049161              -0.000075673              -0.000554664               0.001867925               0.001313261               0.000000000               0.000000000               0.000000000               0.000000000              -0.006181481               0.000310888               0.000429419              -0.002356914               0.000889261              -0.001467653               0.000000000               0.000000000               0.000000000               0.000000000              -0.004618644               0.001977336              -0.001069734              -0.001979155               0.001318821              -0.000660334               0.000000000               0.000000000               0.000000000               0.000000000              -0.003776197               0.003563933              -0.002341501              -0.001861562               0.001808485              -0.000053077               0.000000000               0.000000000               0.000000000               0.000000000              -0.003192228               0.004570822              -0.002555395              -0.001768435               0.002113069               0.000344634               0.000000000               0.000000000               0.000000000               0.000000000              -0.002704368               0.005197679              -0.002429902              -0.001663845               0.002287156               0.000623312               0.000000000               0.000000000               0.000000000               0.000000000              -0.002268012               0.005576058              -0.002211409              -0.001547509               0.002374503               0.000826994               0.000000000               0.000000000               0.000000000               0.000000000              -0.001866998               0.005783430              -0.001991582              -0.001423050               0.002402140               0.000979090               0.000000000               0.000000000               0.000000000               0.000000000              -0.001494169               0.005872199              -0.001784363              -0.001294336               0.002388825               0.001094489               0.000000000               0.000000000               0.000000000               0.000000000              -0.001135484               0.005887328              -0.001589157              -0.001161720               0.002349663               0.001187943               0.000000000               0.000000000               0.000000000               0.000000000              -0.000793831               0.005851939              -0.001408800              -0.001029177               0.002293685               0.001264509               0.000000000               0.000000000               0.000000000               0.000000000              -0.000468205               0.005779868              -0.001243287              -0.000898059               0.002225956               0.001327897               0.000000000               0.000000000               0.000000000               0.000000000              -0.000159869               0.005676743              -0.001081333              -0.000769542               0.002148743               0.001379200               0.000000000               0.000000000               0.000000000               0.000000000               0.000121524               0.005547912              -0.000907038              -0.000647916               0.002065257               0.001417341               0.000000000               0.000000000               0.000000000               0.000000000               0.000361300               0.005403496              -0.000715111              -0.000539948               0.001981130               0.001441182               0.000000000               0.000000000               0.000000000               0.000000000               0.000542352               0.005259404              -0.000499545              -0.000454042               0.001904465               0.001450422               0.000000000               0.000000000               0.000000000               0.000000000               0.000643106               0.005126088              -0.000259381              -0.000399595               0.001841877               0.001442282               0.000000000               0.000000000               0.000000000               0.000000000               0.000663323               0.005056408              -0.000132902              -0.000383304               0.001813220               0.001429916               0.000000000               0.000000000               0.000000000               0.000000000              -0.007978344              -0.000391405               0.000748228              -0.002942951               0.000850509              -0.002092442               0.000000000               0.000000000               0.000000000               0.000000000              -0.005532535               0.000910929              -0.000704574              -0.002188565               0.001033157              -0.001155407               0.000000000               0.000000000               0.000000000               0.000000000              -0.003902437               0.002104084              -0.001999629              -0.001726422               0.001276826              -0.000449596               0.000000000               0.000000000               0.000000000               0.000000000              -0.003007563               0.003100312              -0.002317938              -0.001515372               0.001538549               0.000023177               0.000000000               0.000000000               0.000000000               0.000000000              -0.002412071               0.003855333              -0.002282037              -0.001386441               0.001747244               0.000360803               0.000000000               0.000000000               0.000000000               0.000000000              -0.001948943               0.004408272              -0.002126582              -0.001281885               0.001896703               0.000614818               0.000000000               0.000000000               0.000000000               0.000000000              -0.001556581               0.004798417              -0.001945362              -0.001183518               0.001993962               0.000810444               0.000000000               0.000000000               0.000000000               0.000000000              -0.001206046               0.005053227              -0.001766552              -0.001083919               0.002045698               0.000961779               0.000000000               0.000000000               0.000000000               0.000000000              -0.000868854               0.005213091              -0.001596233              -0.000977455               0.002063498               0.001086043               0.000000000               0.000000000               0.000000000               0.000000000              -0.000534429               0.005310529              -0.001437303              -0.000864225               0.002058233               0.001194008               0.000000000               0.000000000               0.000000000               0.000000000              -0.000203264               0.005360515              -0.001290420              -0.000746287               0.002035582               0.001289295               0.000000000               0.000000000               0.000000000               0.000000000               0.000118827               0.005366876              -0.001145369              -0.000626298               0.001997707               0.001371408               0.000000000               0.000000000               0.000000000               0.000000000               0.000436743               0.005339173              -0.000988892              -0.000503617               0.001947579               0.001443962               0.000000000               0.000000000               0.000000000               0.000000000               0.000744635               0.005280127              -0.000806809              -0.000380777               0.001886950               0.001506173               0.000000000               0.000000000               0.000000000               0.000000000               0.001024566               0.005197088              -0.000587512              -0.000265423               0.001820820               0.001555397               0.000000000               0.000000000               0.000000000               0.000000000               0.001258992               0.005103110              -0.000319856              -0.000165766               0.001756275               0.001590509               0.000000000               0.000000000               0.000000000               0.000000000               0.001388907               0.005063045              -0.000178181              -0.000112040               0.001725012               0.001612971               0.000000000               0.000000000               0.000000000               0.000000000              -0.009491995              -0.000785070               0.000739477              -0.003461362               0.000892091              -0.002569271               0.000000000               0.000000000               0.000000000               0.000000000              -0.006327952               0.000137788              -0.000403181              -0.002390203               0.000842658              -0.001547545               0.000000000               0.000000000               0.000000000               0.000000000              -0.004018385               0.000922165              -0.001453136              -0.001622163               0.000848103              -0.000774060               0.000000000               0.000000000               0.000000000               0.000000000              -0.002819258               0.001836262              -0.001764792              -0.001286753               0.001040997              -0.000245756               0.000000000               0.000000000               0.000000000               0.000000000              -0.002100986               0.002645921              -0.001785186              -0.001118608               0.001254833               0.000136225               0.000000000               0.000000000               0.000000000               0.000000000              -0.001602514               0.003312788              -0.001693808              -0.001015040               0.001442597               0.000427558               0.000000000               0.000000000               0.000000000               0.000000000              -0.001210859               0.003839276              -0.001567760              -0.000933980               0.001591072               0.000657092               0.000000000               0.000000000               0.000000000               0.000000000              -0.000873647               0.004230309              -0.001438635              -0.000856405               0.001695557               0.000839152               0.000000000               0.000000000               0.000000000               0.000000000              -0.000554321               0.004516201              -0.001313802              -0.000772394               0.001762850               0.000990455               0.000000000               0.000000000               0.000000000               0.000000000              -0.000233008               0.004736143              -0.001195413              -0.000679395               0.001805163               0.001125768               0.000000000               0.000000000               0.000000000               0.000000000               0.000095989               0.004898632              -0.001085279              -0.000576332               0.001824971               0.001248639               0.000000000               0.000000000               0.000000000               0.000000000               0.000433638               0.005009770              -0.000976394              -0.000463607               0.001824442               0.001360836               0.000000000               0.000000000               0.000000000               0.000000000               0.000786061               0.005085812              -0.000859527              -0.000340953               0.001808905               0.001467952               0.000000000               0.000000000               0.000000000               0.000000000               0.001159079               0.005122452              -0.000718539              -0.000205652               0.001776017               0.001570366               0.000000000               0.000000000               0.000000000               0.000000000               0.001554151               0.005116651              -0.000537960              -0.000056775               0.001724458               0.001667683               0.000000000               0.000000000               0.000000000               0.000000000               0.001962333               0.005072274              -0.000299891               0.000101839               0.001656795               0.001758634               0.000000000               0.000000000               0.000000000               0.000000000               0.002250304               0.005070530              -0.000174855               0.000210046               0.001620144               0.001830190               0.000000000               0.000000000               0.000000000               0.000000000              -0.010506980              -0.000967253               0.000455199              -0.003819208               0.000950645              -0.002868563               0.000000000               0.000000000               0.000000000               0.000000000              -0.006875215              -0.000329716              -0.000174448              -0.002536989               0.000735753              -0.001801236               0.000000000               0.000000000               0.000000000               0.000000000              -0.004104734               0.000151317              -0.000762453              -0.001558189               0.000569831              -0.000988358               0.000000000               0.000000000               0.000000000               0.000000000              -0.002690038               0.000980934              -0.000953389              -0.001131379               0.000704099              -0.000427280               0.000000000               0.000000000               0.000000000               0.000000000              -0.001874405               0.001801465              -0.000981236              -0.000928083               0.000909843              -0.000018241               0.000000000               0.000000000               0.000000000               0.000000000              -0.001338798               0.002522783              -0.000942663              -0.000817395               0.001113384               0.000295989               0.000000000               0.000000000               0.000000000               0.000000000              -0.000938372               0.003125967              -0.000879694              -0.000742634               0.001289523               0.000546889               0.000000000               0.000000000               0.000000000               0.000000000              -0.000606923               0.003606895              -0.000812808              -0.000678457               0.001428439               0.000749982               0.000000000               0.000000000               0.000000000               0.000000000              -0.000304544               0.003981083              -0.000747464              -0.000611838               0.001530960               0.000919122               0.000000000               0.000000000               0.000000000               0.000000000               0.000002004               0.004286550              -0.000683931              -0.000535066               0.001607191               0.001072125               0.000000000               0.000000000               0.000000000               0.000000000               0.000326730               0.004537487              -0.000625131              -0.000444661               0.001660701               0.001216039               0.000000000               0.000000000               0.000000000               0.000000000               0.000675099               0.004729570              -0.000566404              -0.000338034               0.001689185               0.001351152               0.000000000               0.000000000               0.000000000               0.000000000               0.001057809               0.004877307              -0.000503127              -0.000212985               0.001696748               0.001483763               0.000000000               0.000000000               0.000000000               0.000000000               0.001486893               0.004984261              -0.000428026              -0.000065448               0.001683220               0.001617772               0.000000000               0.000000000               0.000000000               0.000000000               0.001976583               0.005039582              -0.000325310               0.000111269               0.001642754               0.001754023               0.000000000               0.000000000               0.000000000               0.000000000               0.002543189               0.005038730              -0.000180997               0.000323851               0.001571609               0.001895461               0.000000000               0.000000000               0.000000000               0.000000000               0.002984326               0.005072538              -0.000106522               0.000485050               0.001529146               0.002014196               0.000000000               0.000000000               0.000000000               0.000000000              -0.010863395              -0.001013254              -0.000000000              -0.003947114               0.000977947              -0.002969167               0.000000000               0.000000000               0.000000000               0.000000000              -0.007071011              -0.000483040               0.000000000              -0.002591248               0.000702731              -0.001888516               0.000000000               0.000000000               0.000000000               0.000000000              -0.004137121              -0.000116943              -0.000000000              -0.001536801               0.000473283              -0.001063518               0.000000000               0.000000000               0.000000000               0.000000000              -0.002647283               0.000677104              -0.000000000              -0.001077368               0.000584820              -0.000492548               0.000000000               0.000000000               0.000000000               0.000000000              -0.001794718               0.001498907               0.000000000              -0.000860381               0.000786424              -0.000073957               0.000000000               0.000000000               0.000000000               0.000000000              -0.001240236               0.002234443               0.000000000              -0.000744392               0.000992937               0.000248545               0.000000000               0.000000000               0.000000000               0.000000000              -0.000834477               0.002860507              -0.000000000              -0.000670491               0.001176990               0.000506499               0.000000000               0.000000000               0.000000000               0.000000000              -0.000502812               0.003374881              -0.000000000              -0.000610413               0.001328420               0.000718007               0.000000000               0.000000000               0.000000000               0.000000000              -0.000208121               0.003782217               0.000000000              -0.000550821               0.001444333               0.000893512               0.000000000               0.000000000               0.000000000               0.000000000               0.000090580               0.004116783               0.000000000              -0.000480629               0.001532457               0.001051828               0.000000000               0.000000000               0.000000000               0.000000000               0.000411286               0.004398671               0.000000000              -0.000395601               0.001598076               0.001202475               0.000000000               0.000000000               0.000000000               0.000000000               0.000762110               0.004621933               0.000000000              -0.000291950               0.001637946               0.001345996               0.000000000               0.000000000               0.000000000               0.000000000               0.001158281               0.004794381               0.000000000              -0.000164942               0.001653092               0.001488150               0.000000000               0.000000000               0.000000000               0.000000000               0.001611096               0.004923254               0.000000000              -0.000011246               0.001644817               0.001633571               0.000000000               0.000000000               0.000000000               0.000000000               0.002138362               0.005004455              -0.000000000               0.000176327               0.001609359               0.001785686               0.000000000               0.000000000               0.000000000               0.000000000               0.002772758               0.005025194              -0.000000000               0.000411631               0.001537838               0.001949469               0.000000000               0.000000000               0.000000000               0.000000000               0.003280114               0.005073736              -0.000000000               0.000595820               0.001492622               0.002088441               0.000000000               0.000000000               0.000000000               0.000000000               0.000000000               0.000000000               0.000000000               0.000000000               0.000000000               0.000000000               0.000000000               0.000000000               0.000000000               0.000000000               0.000000000               0.000000000               0.000000000               0.000000000               0.000000000               0.000000000               0.000000000               0.000000000               0.000000000               0.000000000               0.000000000               0.000000000               0.000000000               0.000000000               0.000000000               0.000000000               0.000000000               0.000000000               0.000000000               0.000000000               0.000000000               0.000000000               0.000000000               0.000000000               0.000000000               0.000000000               0.000000000               0.000000000               0.000000000               0.000000000               0.000000000               0.000000000               0.000000000               0.000000000               0.000000000               0.000000000               0.000000000               0.000000000               0.000000000               0.000000000               0.000000000               0.000000000               0.000000000               0.000000000               0.000000000               0.000000000               0.000000000               0.000000000               0.000000000               0.000000000               0.000000000               0.000000000               0.000000000               0.000000000               0.000000000               0.000000000               0.000000000               0.000000000               0.000000000               0.000000000               0.000000000               0.000000000               0.000000000               0.000000000               0.000000000               0.000000000               0.000000000               0.000000000               0.000000000               0.000000000               0.000000000               0.000000000               0.000000000               0.000000000               0.000000000               0.000000000               0.000000000               0.000000000               0.000000000               0.000000000               0.000000000               0.000000000               0.000000000               0.000000000               0.000000000               0.000000000               0.000000000               0.000000000               0.000000000               0.000000000               0.000000000               0.000000000               0.000000000               0.000000000               0.000000000               0.000000000               0.000000000               0.000000000               0.000000000               0.000000000               0.000000000               0.000000000               0.000000000               0.000000000               0.000000000               0.000000000               0.000000000               0.000000000               0.000000000               0.000000000               0.000000000               0.000000000               0.000000000               0.000000000               0.000000000               0.000000000               0.000000000               0.000000000               0.000000000               0.000000000               0.000000000               0.000000000               0.000000000               0.000000000               0.000000000               0.000000000               0.000000000               0.000000000               0.000000000               0.000000000               0.000000000               0.000000000               0.000000000               0.000000000               0.000000000               0.000000000               0.000000000               0.000000000               0.000000000               0.000000000               0.000000000               0.000000000               0.000000000               0.000000000               0.000000000               0.000000000               0.000000000               0.000000000               0.000000000               0.000000000               0.000000000               0.000000000               0.000000000               0.000000000               0.000000000               0.000000000               0.000000000               0.000000000               0.000000000               0.000000000               0.002225317               0.022753982               0.001587071              -0.002009749               0.008254501               0.006244752               0.000000000               0.000000000               0.000000000               0.000000000               0.002098386               0.017862068               0.000791452              -0.001445860               0.006435916               0.004990056               0.000000000               0.000000000               0.000000000               0.000000000               0.002652904               0.013945676              -0.000001332              -0.000748369               0.004897968               0.004149600               0.000000000               0.000000000               0.000000000               0.000000000               0.002501479               0.011747257              -0.000335750              -0.000530351               0.004092497               0.003562146               0.000000000               0.000000000               0.000000000               0.000000000               0.002153172               0.010372691              -0.000472379              -0.000489146               0.003620578               0.003131432               0.000000000               0.000000000               0.000000000               0.000000000               0.001771410               0.009424785              -0.000516868              -0.000513818               0.003312836               0.002799018               0.000000000               0.000000000               0.000000000               0.000000000               0.001414992               0.008711467              -0.000520308              -0.000558310               0.003089897               0.002531587               0.000000000               0.000000000               0.000000000               0.000000000               0.001112406               0.008139063              -0.000504576              -0.000600229               0.002913070               0.002312841               0.000000000               0.000000000               0.000000000               0.000000000               0.000861413               0.007646800              -0.000476909              -0.000632819               0.002759847               0.002127029               0.000000000               0.000000000               0.000000000               0.000000000               0.000649907               0.007193037              -0.000443762              -0.000655413               0.002616126               0.001960713               0.000000000               0.000000000               0.000000000               0.000000000               0.000470954               0.006757538              -0.000413479              -0.000668083               0.002475184               0.001807102               0.000000000               0.000000000               0.000000000               0.000000000               0.000317982               0.006331224              -0.000384971              -0.000672158               0.002334440               0.001662281               0.000000000               0.000000000               0.000000000               0.000000000               0.000192687               0.005901019              -0.000347766              -0.000665368               0.002188776               0.001523408               0.000000000               0.000000000               0.000000000               0.000000000               0.000096802               0.005450458              -0.000297285              -0.000645005               0.002031803               0.001386798               0.000000000               0.000000000               0.000000000               0.000000000               0.000031856               0.004964936              -0.000229649              -0.000608670               0.001857852               0.001249182               0.000000000               0.000000000               0.000000000               0.000000000               0.000004009               0.004428681              -0.000132247              -0.000552081               0.001660239               0.001108159               0.000000000               0.000000000               0.000000000               0.000000000              -0.000042040               0.004027646              -0.000082921              -0.000519219               0.001515608               0.000996389               0.000000000               0.000000000               0.000000000               0.000000000               0.002420766               0.021419061               0.002961405              -0.001769592               0.007729479               0.005959887               0.000000000               0.000000000               0.000000000               0.000000000               0.001969127               0.017005006               0.001477342              -0.001387200               0.006130679               0.004743479               0.000000000               0.000000000               0.000000000               0.000000000               0.002176993               0.013589471               0.000015708              -0.000882309               0.004823882               0.003941572               0.000000000               0.000000000               0.000000000               0.000000000               0.001899669               0.011646196              -0.000577492              -0.000743397               0.004129826               0.003386429               0.000000000               0.000000000               0.000000000               0.000000000               0.001529732               0.010393820              -0.000808710              -0.000725577               0.003706431               0.002980854               0.000000000               0.000000000               0.000000000               0.000000000               0.001176109               0.009499956              -0.000876834              -0.000746452               0.003415437               0.002668986               0.000000000               0.000000000               0.000000000               0.000000000               0.000867808               0.008805535              -0.000875840              -0.000775262               0.003193570               0.002418307               0.000000000               0.000000000               0.000000000               0.000000000               0.000620299               0.008233379              -0.000846211              -0.000796558               0.003009952               0.002213393               0.000000000               0.000000000               0.000000000               0.000000000               0.000430681               0.007736900              -0.000797615              -0.000805605               0.002847476               0.002041871               0.000000000               0.000000000               0.000000000               0.000000000               0.000273618               0.007279937              -0.000739603              -0.000807383               0.002695749               0.001888366               0.000000000               0.000000000               0.000000000               0.000000000               0.000145322               0.006847669              -0.000685797              -0.000801461               0.002549687               0.001748226               0.000000000               0.000000000               0.000000000               0.000000000               0.000049700               0.006428761              -0.000633299              -0.000784956               0.002404551               0.001619595               0.000000000               0.000000000               0.000000000               0.000000000              -0.000017443               0.006012776              -0.000566329              -0.000758136               0.002256951               0.001498814               0.000000000               0.000000000               0.000000000               0.000000000              -0.000054008               0.005593410              -0.000477412              -0.000719427               0.002104260               0.001384833               0.000000000               0.000000000               0.000000000               0.000000000              -0.000061065               0.005164042              -0.000359071              -0.000668403               0.001944131               0.001275728               0.000000000               0.000000000               0.000000000               0.000000000              -0.000041892               0.004725181              -0.000199881              -0.000606356               0.001777163               0.001170807               0.000000000               0.000000000               0.000000000               0.000000000              -0.000057886               0.004421549              -0.000122140              -0.000574399               0.001665301               0.001090902               0.000000000               0.000000000               0.000000000               0.000000000               0.002623581               0.019369575               0.003941804              -0.001437353               0.006935577               0.005498225               0.000000000               0.000000000               0.000000000               0.000000000               0.001711039               0.015706552               0.001971928              -0.001321677               0.005676024               0.004354347               0.000000000               0.000000000               0.000000000               0.000000000               0.001432362               0.013043297               0.000062057              -0.001093274               0.004712147               0.003618873               0.000000000               0.000000000               0.000000000               0.000000000               0.001009887               0.011454803              -0.000670303              -0.001053140               0.004169276               0.003116136               0.000000000               0.000000000               0.000000000               0.000000000               0.000639094               0.010369535              -0.000937352              -0.001056529               0.003808653               0.002752124               0.000000000               0.000000000               0.000000000               0.000000000               0.000347192               0.009550658              -0.001006797              -0.001063633               0.003538065               0.002474432               0.000000000               0.000000000               0.000000000               0.000000000               0.000132327               0.008886725              -0.000995901              -0.001061216               0.003315950               0.002254735               0.000000000               0.000000000               0.000000000               0.000000000              -0.000020334               0.008316591              -0.000954462              -0.001047197               0.003121235               0.002074038               0.000000000               0.000000000               0.000000000               0.000000000              -0.000124187               0.007808730              -0.000892976              -0.001022659               0.002943770               0.001921111               0.000000000               0.000000000               0.000000000               0.000000000              -0.000195098               0.007343276              -0.000823963              -0.000991069               0.002778090               0.001787021               0.000000000               0.000000000               0.000000000               0.000000000              -0.000237825               0.006910801              -0.000760283              -0.000953032               0.002621255               0.001668222               0.000000000               0.000000000               0.000000000               0.000000000              -0.000250550               0.006500737              -0.000696426              -0.000906546               0.002469073               0.001562526               0.000000000               0.000000000               0.000000000               0.000000000              -0.000235323               0.006107698              -0.000617429              -0.000851706               0.002319781               0.001468075               0.000000000               0.000000000               0.000000000               0.000000000              -0.000197634               0.005731062              -0.000511665              -0.000790494               0.002173833               0.001383339               0.000000000               0.000000000               0.000000000               0.000000000              -0.000141360               0.005374103              -0.000374049              -0.000724771               0.002032940               0.001308169               0.000000000               0.000000000               0.000000000               0.000000000              -0.000075170               0.005053120              -0.000203375              -0.000659827               0.001904299               0.001244472               0.000000000               0.000000000               0.000000000               0.000000000              -0.000062870               0.004856772              -0.000121649              -0.000630671               0.001829132               0.001198460               0.000000000               0.000000000               0.000000000               0.000000000               0.002690223               0.016845424               0.004448789              -0.001096845               0.005980699               0.004883854               0.000000000               0.000000000               0.000000000               0.000000000               0.001297059               0.014134068               0.002262314              -0.001280360               0.005138095               0.003857735               0.000000000               0.000000000               0.000000000               0.000000000               0.000507200               0.012363012               0.000172696              -0.001355173               0.004572687               0.003217514               0.000000000               0.000000000               0.000000000               0.000000000              -0.000016666               0.011161199              -0.000578594              -0.001401396               0.004187494               0.002786098               0.000000000               0.000000000               0.000000000               0.000000000              -0.000336695               0.010248098              -0.000835357              -0.001407269               0.003885088               0.002477819               0.000000000               0.000000000               0.000000000               0.000000000              -0.000521571               0.009503837              -0.000895894              -0.001383565               0.003629102               0.002245537               0.000000000               0.000000000               0.000000000               0.000000000              -0.000616418               0.008865059              -0.000878051              -0.001339286               0.003401419               0.002062133               0.000000000               0.000000000               0.000000000               0.000000000              -0.000656464               0.008293954              -0.000834871              -0.001282915               0.003192262               0.001909347               0.000000000               0.000000000               0.000000000               0.000000000              -0.000653481               0.007777646              -0.000779821              -0.001217258               0.002998275               0.001781017               0.000000000               0.000000000               0.000000000               0.000000000              -0.000620472               0.007308368              -0.000720593              -0.001146220               0.002818172               0.001671951               0.000000000               0.000000000               0.000000000               0.000000000              -0.000562574               0.006879679              -0.000663944              -0.001070922               0.002650177               0.001579255               0.000000000               0.000000000               0.000000000               0.000000000              -0.000480192               0.006481272              -0.000603285              -0.000990229               0.002490479               0.001500250               0.000000000               0.000000000               0.000000000               0.000000000              -0.000380481               0.006109754              -0.000527553              -0.000906398               0.002338697               0.001432299               0.000000000               0.000000000               0.000000000               0.000000000              -0.000272295               0.005772514              -0.000426566              -0.000823673               0.002198710               0.001375037               0.000000000               0.000000000               0.000000000               0.000000000              -0.000166608               0.005484277              -0.000299778              -0.000748011               0.002077411               0.001329400               0.000000000               0.000000000               0.000000000               0.000000000              -0.000077244               0.005265014              -0.000155809              -0.000687092               0.001984018               0.001296926               0.000000000               0.000000000               0.000000000               0.000000000              -0.000050080               0.005155059              -0.000087968              -0.000663161               0.001939390               0.001276229               0.000000000               0.000000000               0.000000000               0.000000000               0.002496181               0.014116406               0.004490152              -0.000828485               0.004981582               0.004153097               0.000000000               0.000000000               0.000000000               0.000000000               0.000722950               0.012462609               0.002372241              -0.001286718               0.004583067               0.003296349               0.000000000               0.000000000               0.000000000               0.000000000              -0.000488290               0.011611237               0.000366680              -0.001634509               0.004415210               0.002780701               0.000000000               0.000000000               0.000000000               0.000000000              -0.001019109               0.010773212              -0.000312006              -0.001728813               0.004167306               0.002438493               0.000000000               0.000000000               0.000000000               0.000000000              -0.001226795               0.010009374              -0.000536111              -0.001711216               0.003906830               0.002195614               0.000000000               0.000000000               0.000000000               0.000000000              -0.001273412               0.009321017              -0.000592155              -0.001642653               0.003654525               0.002011873               0.000000000               0.000000000               0.000000000               0.000000000              -0.001231842               0.008697195              -0.000585356              -0.001549086               0.003415398               0.001866312               0.000000000               0.000000000               0.000000000               0.000000000              -0.001142496               0.008131081              -0.000563404              -0.001444818               0.003191939               0.001747121               0.000000000               0.000000000               0.000000000               0.000000000              -0.001027091               0.007619332              -0.000535826              -0.001337572               0.002985610               0.001648037               0.000000000               0.000000000               0.000000000               0.000000000              -0.000896093               0.007160367              -0.000503352              -0.001231078               0.002797124               0.001566047               0.000000000               0.000000000               0.000000000               0.000000000              -0.000750221               0.006744745              -0.000466186              -0.001124423               0.002623034               0.001498610               0.000000000               0.000000000               0.000000000               0.000000000              -0.000589842               0.006361034              -0.000418583              -0.001016317               0.002459096               0.001442778               0.000000000               0.000000000               0.000000000               0.000000000              -0.000425272               0.006012151              -0.000357457              -0.000910994               0.002307695               0.001396701               0.000000000               0.000000000               0.000000000               0.000000000              -0.000274067               0.005713239              -0.000277114              -0.000816928               0.002176703               0.001359775               0.000000000               0.000000000               0.000000000               0.000000000              -0.000149468               0.005481649              -0.000182610              -0.000741255               0.002074283               0.001333028               0.000000000               0.000000000               0.000000000               0.000000000              -0.000061517               0.005327868              -0.000088618              -0.000689051               0.002005622               0.001316571               0.000000000               0.000000000               0.000000000               0.000000000              -0.000035199               0.005261631              -0.000047626              -0.000670902               0.001977494               0.001306592               0.000000000               0.000000000               0.000000000               0.000000000               0.001974406               0.011404884               0.004138022              -0.000685210               0.004029992               0.003344782               0.000000000               0.000000000               0.000000000               0.000000000               0.000015214               0.010819258               0.002350494              -0.001346700               0.004055283               0.002708582               0.000000000               0.000000000               0.000000000               0.000000000              -0.001446070               0.010825521               0.000652862              -0.001895462               0.004240292               0.002344830               0.000000000               0.000000000               0.000000000               0.000000000              -0.001875922               0.010290265               0.000091366              -0.001989749               0.004093304               0.002103555               0.000000000               0.000000000               0.000000000               0.000000000              -0.001919530               0.009643683              -0.000108546              -0.001925279               0.003856289               0.001931009               0.000000000               0.000000000               0.000000000               0.000000000              -0.001808439               0.009005484              -0.000181677              -0.001803846               0.003603080               0.001799234               0.000000000               0.000000000               0.000000000               0.000000000              -0.001627725               0.008406959              -0.000209359              -0.001661263               0.003356046               0.001694783               0.000000000               0.000000000               0.000000000               0.000000000              -0.001418879               0.007860564              -0.000226677              -0.001514646               0.003125044               0.001610397               0.000000000               0.000000000               0.000000000               0.000000000              -0.001200952               0.007369507              -0.000238943              -0.001371542               0.002913659               0.001542116               0.000000000               0.000000000               0.000000000               0.000000000              -0.000984124               0.006928315              -0.000241970              -0.001235083               0.002721109               0.001486027               0.000000000               0.000000000               0.000000000               0.000000000              -0.000770034               0.006525512              -0.000231021              -0.001104449               0.002543298               0.001438850               0.000000000               0.000000000               0.000000000               0.000000000              -0.000562083               0.006156151              -0.000204945              -0.000980297               0.002378795               0.001398498               0.000000000               0.000000000               0.000000000               0.000000000              -0.000374365               0.005835321              -0.000168545              -0.000869800               0.002235021               0.001365221               0.000000000               0.000000000               0.000000000               0.000000000              -0.000221366               0.005578693              -0.000122127              -0.000780347               0.002119661               0.001339315               0.000000000               0.000000000               0.000000000               0.000000000              -0.000108854               0.005393940              -0.000070712              -0.000715061               0.002036316               0.001321255               0.000000000               0.000000000               0.000000000               0.000000000              -0.000039128               0.005273292              -0.000028512              -0.000673833               0.001982357               0.001308525               0.000000000               0.000000000               0.000000000               0.000000000              -0.000023271               0.005216671              -0.000015992              -0.000660809               0.001959142               0.001298333               0.000000000               0.000000000               0.000000000               0.000000000               0.001152287               0.008876399               0.003497441              -0.000677444               0.003184584               0.002507140               0.000000000               0.000000000               0.000000000               0.000000000              -0.000775348               0.009298320               0.002250426              -0.001453043               0.003583756               0.002130713               0.000000000               0.000000000               0.000000000               0.000000000              -0.002261318               0.010011120               0.001022713              -0.002099379               0.004036800               0.001937420               0.000000000               0.000000000               0.000000000               0.000000000              -0.002503611               0.009702517               0.000568459              -0.002151664               0.003951361               0.001799698               0.000000000               0.000000000               0.000000000               0.000000000              -0.002360181               0.009159683               0.000359824              -0.002030023               0.003729871               0.001699848               0.000000000               0.000000000               0.000000000               0.000000000              -0.002095793               0.008581864               0.000243272              -0.001858651               0.003480143               0.001621492               0.000000000               0.000000000               0.000000000               0.000000000              -0.001791632               0.008030378               0.000166117              -0.001675655               0.003235318               0.001559662               0.000000000               0.000000000               0.000000000               0.000000000              -0.001487626               0.007523210               0.000102853              -0.001498257               0.003007130               0.001508873               0.000000000               0.000000000               0.000000000               0.000000000              -0.001194459               0.007057348               0.000048431              -0.001330087               0.002795788               0.001465701               0.000000000               0.000000000               0.000000000               0.000000000              -0.000915472               0.006629016               0.000006151              -0.001171926               0.002600292               0.001428366               0.000000000               0.000000000               0.000000000               0.000000000              -0.000660035               0.006235834              -0.000016669              -0.001026990               0.002420920               0.001393931               0.000000000               0.000000000               0.000000000               0.000000000              -0.000439434               0.005892101              -0.000020459              -0.000901298               0.002264447               0.001363149               0.000000000               0.000000000               0.000000000               0.000000000              -0.000262775               0.005613212              -0.000017709              -0.000800190               0.002137782               0.001337592               0.000000000               0.000000000               0.000000000               0.000000000              -0.000136573               0.005402702              -0.000010949              -0.000726551               0.002043066               0.001316515               0.000000000               0.000000000               0.000000000               0.000000000              -0.000057896               0.005255432              -0.000001292              -0.000678638               0.001978006               0.001299368               0.000000000               0.000000000               0.000000000               0.000000000              -0.000018552               0.005157320               0.000004005              -0.000651620               0.001936296               0.001284676               0.000000000               0.000000000               0.000000000               0.000000000              -0.000015383               0.005107246              -0.000000199              -0.000644173               0.001917123               0.001272950               0.000000000               0.000000000               0.000000000               0.000000000               0.000154766               0.006725373               0.002690822              -0.000782635               0.002502646               0.001720011               0.000000000               0.000000000               0.000000000               0.000000000              -0.001541129               0.007937614               0.002126099              -0.001570123               0.003169218               0.001599096               0.000000000               0.000000000               0.000000000               0.000000000              -0.002884277               0.009203729               0.001461974              -0.002232065               0.003811900               0.001579836               0.000000000               0.000000000               0.000000000               0.000000000              -0.002921587               0.009135952               0.001075363              -0.002237584               0.003791148               0.001553564               0.000000000               0.000000000               0.000000000               0.000000000              -0.002621702               0.008730554               0.000831175              -0.002074452               0.003601639               0.001527187               0.000000000               0.000000000               0.000000000               0.000000000              -0.002237907               0.008239202               0.000657182              -0.001869111               0.003369410               0.001500299               0.000000000               0.000000000               0.000000000               0.000000000              -0.001841178               0.007750044               0.000523402              -0.001659193               0.003136386               0.001477193               0.000000000               0.000000000               0.000000000               0.000000000              -0.001467007               0.007286360               0.000417427              -0.001460919               0.002915735               0.001454816               0.000000000               0.000000000               0.000000000               0.000000000              -0.001119476               0.006849934               0.000327143              -0.001276042               0.002708636               0.001432594               0.000000000               0.000000000               0.000000000               0.000000000              -0.000800872               0.006437778               0.000245405              -0.001105047               0.002514253               0.001409207               0.000000000               0.000000000               0.000000000               0.000000000              -0.000528712               0.006056856               0.000178588              -0.000955372               0.002337389               0.001382017               0.000000000               0.000000000               0.000000000               0.000000000              -0.000312266               0.005733452               0.000130879              -0.000833779               0.002189058               0.001355279               0.000000000               0.000000000               0.000000000               0.000000000              -0.000156142               0.005481356               0.000093009              -0.000743721               0.002075007               0.001331287               0.000000000               0.000000000               0.000000000               0.000000000              -0.000062183               0.005294383               0.000060208              -0.000685115               0.001993148               0.001308033               0.000000000               0.000000000               0.000000000               0.000000000              -0.000018677               0.005163628               0.000035665              -0.000652456               0.001938677               0.001286222               0.000000000               0.000000000               0.000000000               0.000000000              -0.000012581               0.005075931               0.000017160              -0.000639208               0.001905029               0.001265822               0.000000000               0.000000000               0.000000000               0.000000000              -0.000020540               0.005037130               0.000007069              -0.000637342               0.001891474               0.001254132               0.000000000               0.000000000               0.000000000               0.000000000              -0.001019169               0.004720609               0.001828431              -0.000972263               0.001897608               0.000925345               0.000000000               0.000000000               0.000000000               0.000000000              -0.002165858               0.006367981               0.001982080              -0.001608191               0.002658702               0.001050511               0.000000000               0.000000000               0.000000000               0.000000000              -0.003227721               0.008030794               0.001926613              -0.002214240               0.003414984               0.001200744               0.000000000               0.000000000               0.000000000               0.000000000              -0.003161421               0.008334508               0.001620366              -0.002227341               0.003520588               0.001293247               0.000000000               0.000000000               0.000000000               0.000000000              -0.002803998               0.008185259               0.001339848              -0.002074652               0.003419943               0.001345291               0.000000000               0.000000000               0.000000000               0.000000000              -0.002386582               0.007874995               0.001110149              -0.001879338               0.003251418               0.001372080               0.000000000               0.000000000               0.000000000               0.000000000              -0.001963231               0.007513953               0.000925457              -0.001675452               0.003063110               0.001387658               0.000000000               0.000000000               0.000000000               0.000000000              -0.001559805               0.007146313               0.000776974              -0.001478212               0.002874818               0.001396606               0.000000000               0.000000000               0.000000000               0.000000000              -0.001193283               0.006784206               0.000647648              -0.001295504               0.002693214               0.001397710               0.000000000               0.000000000               0.000000000               0.000000000              -0.000863502               0.006432881               0.000524000              -0.001127921               0.002520246               0.001392325               0.000000000               0.000000000               0.000000000               0.000000000              -0.000579293               0.006098153               0.000410532              -0.000979502               0.002359198               0.001379696               0.000000000               0.000000000               0.000000000               0.000000000              -0.000349786               0.005795351               0.000313349              -0.000855586               0.002216960               0.001361373               0.000000000               0.000000000               0.000000000               0.000000000              -0.000179525               0.005538056               0.000225878              -0.000759577               0.002099193               0.001339616               0.000000000               0.000000000               0.000000000               0.000000000              -0.000072740               0.005332430               0.000148922              -0.000693830               0.002008735               0.001314906               0.000000000               0.000000000               0.000000000               0.000000000              -0.000024303               0.005178597               0.000084527              -0.000656436               0.001944994               0.001288557               0.000000000               0.000000000               0.000000000               0.000000000              -0.000021624               0.005070856               0.000032966              -0.000641964               0.001904257               0.001262292               0.000000000               0.000000000               0.000000000               0.000000000              -0.000032898               0.005028810               0.000009953              -0.000640936               0.001889899               0.001248962               0.000000000               0.000000000               0.000000000               0.000000000              -0.002536859               0.002903875               0.000966101              -0.001314304               0.001406049               0.000091745               0.000000000               0.000000000               0.000000000               0.000000000              -0.002866097               0.004790382               0.001761916              -0.001673581               0.002154638               0.000481057               0.000000000               0.000000000               0.000000000               0.000000000              -0.003464634               0.006671091               0.002291575              -0.002133119               0.002934714               0.000801594               0.000000000               0.000000000               0.000000000               0.000000000              -0.003309802               0.007327987               0.002137115              -0.002157170               0.003161694               0.001004524               0.000000000               0.000000000               0.000000000               0.000000000              -0.002930912               0.007473507               0.001858755              -0.002033276               0.003168902               0.001135626               0.000000000               0.000000000               0.000000000               0.000000000              -0.002503480               0.007388709               0.001596308              -0.001862389               0.003083674               0.001221285               0.000000000               0.000000000               0.000000000               0.000000000              -0.002075567               0.007196618               0.001375318              -0.001677911               0.002958152               0.001280241               0.000000000               0.000000000               0.000000000               0.000000000              -0.001663233               0.006960529               0.001188377              -0.001493775               0.002818078               0.001324303               0.000000000               0.000000000               0.000000000               0.000000000              -0.001288261               0.006698744               0.001020165              -0.001320438               0.002673038               0.001352601               0.000000000               0.000000000               0.000000000               0.000000000              -0.000948152               0.006428417               0.000862070              -0.001159106               0.002529153               0.001370047               0.000000000               0.000000000               0.000000000               0.000000000              -0.000642893               0.006155871               0.000711078              -0.001010566               0.002388792               0.001378225               0.000000000               0.000000000               0.000000000               0.000000000              -0.000384425               0.005889747               0.000572491              -0.000880376               0.002256688               0.001376312               0.000000000               0.000000000               0.000000000               0.000000000              -0.000181277               0.005638857               0.000439760              -0.000772834               0.002137212               0.001364377               0.000000000               0.000000000               0.000000000               0.000000000              -0.000039816               0.005419907               0.000311853              -0.000692418               0.002037423               0.001345006               0.000000000               0.000000000               0.000000000               0.000000000               0.000029052               0.005237453               0.000191303              -0.000643785               0.001960395               0.001316610               0.000000000               0.000000000               0.000000000               0.000000000               0.000032250               0.005100922               0.000085035              -0.000625520               0.001908797               0.001283277               0.000000000               0.000000000               0.000000000               0.000000000               0.000008528               0.005039577               0.000032732              -0.000626748               0.001888758               0.001262010               0.000000000               0.000000000               0.000000000               0.000000000              -0.004304955               0.001407862               0.000177070              -0.001790338               0.001066060              -0.000724279               0.000000000               0.000000000               0.000000000               0.000000000              -0.003701469               0.003299357               0.001443473              -0.001800467               0.001699929              -0.000100538               0.000000000               0.000000000               0.000000000               0.000000000              -0.003637215               0.005140220               0.002439226              -0.002006479               0.002382215               0.000375736               0.000000000               0.000000000               0.000000000               0.000000000              -0.003310568               0.006038451               0.002477671              -0.001996265               0.002678218               0.000681952               0.000000000               0.000000000               0.000000000               0.000000000              -0.002896098               0.006454578               0.002259616              -0.001892855               0.002782456               0.000889600               0.000000000               0.000000000               0.000000000               0.000000000              -0.002467358               0.006610591               0.002001504              -0.001751579               0.002787368               0.001035788               0.000000000               0.000000000               0.000000000               0.000000000              -0.002051582               0.006616487               0.001766758              -0.001596401               0.002737607               0.001141206               0.000000000               0.000000000               0.000000000               0.000000000              -0.001652159               0.006536328               0.001557097              -0.001436597               0.002657620               0.001221022               0.000000000               0.000000000               0.000000000               0.000000000              -0.001279215               0.006403029               0.001364152              -0.001280082               0.002561015               0.001280934               0.000000000               0.000000000               0.000000000               0.000000000              -0.000937054               0.006238416               0.001186187              -0.001131195               0.002456516               0.001325321               0.000000000               0.000000000               0.000000000               0.000000000              -0.000619261               0.006055597               0.001017649              -0.000989170               0.002348236               0.001359065               0.000000000               0.000000000               0.000000000               0.000000000              -0.000330140               0.005859068               0.000856652              -0.000856184               0.002238398               0.001382214               0.000000000               0.000000000               0.000000000               0.000000000              -0.000088890               0.005652734               0.000692635              -0.000739924               0.002130867               0.001390943               0.000000000               0.000000000               0.000000000               0.000000000               0.000092918               0.005454282               0.000520458              -0.000646940               0.002033722               0.001386783               0.000000000               0.000000000               0.000000000               0.000000000               0.000203165               0.005275385               0.000342367              -0.000583235               0.001952856               0.001369621               0.000000000               0.000000000               0.000000000               0.000000000               0.000229135               0.005125823               0.000166445              -0.000554801               0.001893524               0.001338723               0.000000000               0.000000000               0.000000000               0.000000000               0.000203946               0.005049161               0.000075673              -0.000554664               0.001867925               0.001313261               0.000000000               0.000000000               0.000000000               0.000000000              -0.006181481               0.000310888              -0.000429419              -0.002356914               0.000889261              -0.001467653               0.000000000               0.000000000               0.000000000               0.000000000              -0.004618644               0.001977336               0.001069734              -0.001979155               0.001318821              -0.000660334               0.000000000               0.000000000               0.000000000               0.000000000              -0.003776197               0.003563933               0.002341501              -0.001861562               0.001808485              -0.000053077               0.000000000               0.000000000               0.000000000               0.000000000              -0.003192228               0.004570822               0.002555395              -0.001768435               0.002113069               0.000344634               0.000000000               0.000000000               0.000000000               0.000000000              -0.002704368               0.005197679               0.002429902              -0.001663845               0.002287156               0.000623312               0.000000000               0.000000000               0.000000000               0.000000000              -0.002268012               0.005576058               0.002211409              -0.001547509               0.002374503               0.000826994               0.000000000               0.000000000               0.000000000               0.000000000              -0.001866998               0.005783430               0.001991582              -0.001423050               0.002402140               0.000979090               0.000000000               0.000000000               0.000000000               0.000000000              -0.001494169               0.005872199               0.001784363              -0.001294336               0.002388825               0.001094489               0.000000000               0.000000000               0.000000000               0.000000000              -0.001135484               0.005887328               0.001589157              -0.001161720               0.002349663               0.001187943               0.000000000               0.000000000               0.000000000               0.000000000              -0.000793831               0.005851939               0.001408800              -0.001029177               0.002293685               0.001264509               0.000000000               0.000000000               0.000000000               0.000000000              -0.000468205               0.005779868               0.001243287              -0.000898059               0.002225956               0.001327897               0.000000000               0.000000000               0.000000000               0.000000000              -0.000159869               0.005676743               0.001081333              -0.000769542               0.002148743               0.001379200               0.000000000               0.000000000               0.000000000               0.000000000               0.000121524               0.005547912               0.000907038              -0.000647916               0.002065257               0.001417341               0.000000000               0.000000000               0.000000000               0.000000000               0.000361300               0.005403496               0.000715111              -0.000539948               0.001981130               0.001441182               0.000000000               0.000000000               0.000000000               0.000000000               0.000542352               0.005259404               0.000499545              -0.000454042               0.001904465               0.001450422               0.000000000               0.000000000               0.000000000               0.000000000               0.000643106               0.005126088               0.000259381              -0.000399595               0.001841877               0.001442282               0.000000000               0.000000000               0.000000000               0.000000000               0.000663323               0.005056408               0.000132902              -0.000383304               0.001813220               0.001429916               0.000000000               0.000000000               0.000000000               0.000000000              -0.007978344              -0.000391405              -0.000748228              -0.002942951               0.000850509              -0.002092442               0.000000000               0.000000000               0.000000000               0.000000000              -0.005532535               0.000910929               0.000704574              -0.002188565               0.001033157              -0.001155407               0.000000000               0.000000000               0.000000000               0.000000000              -0.003902437               0.002104084               0.001999629              -0.001726422               0.001276826              -0.000449596               0.000000000               0.000000000               0.000000000               0.000000000              -0.003007563               0.003100312               0.002317938              -0.001515372               0.001538549               0.000023177               0.000000000               0.000000000               0.000000000               0.000000000              -0.002412071               0.003855333               0.002282037              -0.001386441               0.001747244               0.000360803               0.000000000               0.000000000               0.000000000               0.000000000              -0.001948943               0.004408272               0.002126582              -0.001281885               0.001896703               0.000614818               0.000000000               0.000000000               0.000000000               0.000000000              -0.001556581               0.004798417               0.001945362              -0.001183518               0.001993962               0.000810444               0.000000000               0.000000000               0.000000000               0.000000000              -0.001206046               0.005053227               0.001766552              -0.001083919               0.002045698               0.000961779               0.000000000               0.000000000               0.000000000               0.000000000              -0.000868854               0.005213091               0.001596233              -0.000977455               0.002063498               0.001086043               0.000000000               0.000000000               0.000000000               0.000000000              -0.000534429               0.005310529               0.001437303              -0.000864225               0.002058233               0.001194008               0.000000000               0.000000000               0.000000000               0.000000000              -0.000203264               0.005360515               0.001290420              -0.000746287               0.002035582               0.001289295               0.000000000               0.000000000               0.000000000               0.000000000               0.000118827               0.005366876               0.001145369              -0.000626298               0.001997707               0.001371408               0.000000000               0.000000000               0.000000000               0.000000000               0.000436743               0.005339173               0.000988892              -0.000503617               0.001947579               0.001443962               0.000000000               0.000000000               0.000000000               0.000000000               0.000744635               0.005280127               0.000806809              -0.000380777               0.001886950               0.001506173               0.000000000               0.000000000               0.000000000               0.000000000               0.001024566               0.005197088               0.000587512              -0.000265423               0.001820820               0.001555397               0.000000000               0.000000000               0.000000000               0.000000000               0.001258992               0.005103110               0.000319856              -0.000165766               0.001756275               0.001590509               0.000000000               0.000000000               0.000000000               0.000000000               0.001388907               0.005063045               0.000178181              -0.000112040               0.001725012               0.001612971               0.000000000               0.000000000               0.000000000               0.000000000              -0.009491995              -0.000785070              -0.000739477              -0.003461362               0.000892091              -0.002569271               0.000000000               0.000000000               0.000000000               0.000000000              -0.006327952               0.000137788               0.000403181              -0.002390203               0.000842658              -0.001547545               0.000000000               0.000000000               0.000000000               0.000000000              -0.004018385               0.000922165               0.001453136              -0.001622163               0.000848103              -0.000774060               0.000000000               0.000000000               0.000000000               0.000000000              -0.002819258               0.001836262               0.001764792              -0.001286753               0.001040997              -0.000245756               0.000000000               0.000000000               0.000000000               0.000000000              -0.002100986               0.002645921               0.001785186              -0.001118608               0.001254833               0.000136225               0.000000000               0.000000000               0.000000000               0.000000000              -0.001602514               0.003312788               0.001693808              -0.001015040               0.001442597               0.000427558               0.000000000               0.000000000               0.000000000               0.000000000              -0.001210859               0.003839276               0.001567760              -0.000933980               0.001591072               0.000657092               0.000000000               0.000000000               0.000000000               0.000000000              -0.000873647               0.004230309               0.001438635              -0.000856405               0.001695557               0.000839152               0.000000000               0.000000000               0.000000000               0.000000000              -0.000554321               0.004516201               0.001313802              -0.000772394               0.001762850               0.000990455               0.000000000               0.000000000               0.000000000               0.000000000              -0.000233008               0.004736143               0.001195413              -0.000679395               0.001805163               0.001125768               0.000000000               0.000000000               0.000000000               0.000000000               0.000095989               0.004898632               0.001085279              -0.000576332               0.001824971               0.001248639               0.000000000               0.000000000               0.000000000               0.000000000               0.000433638               0.005009770               0.000976394              -0.000463607               0.001824442               0.001360836               0.000000000               0.000000000               0.000000000               0.000000000               0.000786061               0.005085812               0.000859527              -0.000340953               0.001808905               0.001467952               0.000000000               0.000000000               0.000000000               0.000000000               0.001159079               0.005122452               0.000718539              -0.000205652               0.001776017               0.001570366               0.000000000               0.000000000               0.000000000               0.000000000               0.001554151               0.005116651               0.000537960              -0.000056775               0.001724458               0.001667683               0.000000000               0.000000000               0.000000000               0.000000000               0.001962333               0.005072274               0.000299891               0.000101839               0.001656795               0.001758634               0.000000000               0.000000000               0.000000000               0.000000000               0.002250304               0.005070530               0.000174855               0.000210046               0.001620144               0.001830190               0.000000000               0.000000000               0.000000000               0.000000000              -0.010506980              -0.000967253              -0.000455199              -0.003819208               0.000950645              -0.002868563               0.000000000               0.000000000               0.000000000               0.000000000              -0.006875215              -0.000329716               0.000174448              -0.002536989               0.000735753              -0.001801236               0.000000000               0.000000000               0.000000000               0.000000000              -0.004104734               0.000151317               0.000762453              -0.001558189               0.000569831              -0.000988358               0.000000000               0.000000000               0.000000000               0.000000000              -0.002690038               0.000980934               0.000953389              -0.001131379               0.000704099              -0.000427280               0.000000000               0.000000000               0.000000000               0.000000000              -0.001874405               0.001801465               0.000981236              -0.000928083               0.000909843              -0.000018241               0.000000000               0.000000000               0.000000000               0.000000000              -0.001338798               0.002522783               0.000942663              -0.000817395               0.001113384               0.000295989               0.000000000               0.000000000               0.000000000               0.000000000              -0.000938372               0.003125967               0.000879694              -0.000742634               0.001289523               0.000546889               0.000000000               0.000000000               0.000000000               0.000000000              -0.000606923               0.003606895               0.000812808              -0.000678457               0.001428439               0.000749982               0.000000000               0.000000000               0.000000000               0.000000000              -0.000304544               0.003981083               0.000747464              -0.000611838               0.001530960               0.000919122               0.000000000               0.000000000               0.000000000               0.000000000               0.000002004               0.004286550               0.000683931              -0.000535066               0.001607191               0.001072125               0.000000000               0.000000000               0.000000000               0.000000000               0.000326730               0.004537487               0.000625131              -0.000444661               0.001660701               0.001216039               0.000000000               0.000000000               0.000000000               0.000000000               0.000675099               0.004729570               0.000566404              -0.000338034               0.001689185               0.001351152               0.000000000               0.000000000               0.000000000               0.000000000               0.001057809               0.004877307               0.000503127              -0.000212985               0.001696748               0.001483763               0.000000000               0.000000000               0.000000000               0.000000000               0.001486893               0.004984261               0.000428026              -0.000065448               0.001683220               0.001617772               0.000000000               0.000000000               0.000000000               0.000000000               0.001976583               0.005039582               0.000325310               0.000111269               0.001642754               0.001754023               0.000000000               0.000000000               0.000000000               0.000000000               0.002543189               0.005038730               0.000180997               0.000323851               0.001571609               0.001895461               0.000000000               0.000000000               0.000000000               0.000000000               0.002984326               0.005072538               0.000106522               0.000485050               0.001529146               0.002014196               0.000000000               0.000000000               0.000000000               0.000000000              -0.010863395              -0.001013254              -0.000000000              -0.003947114               0.000977947              -0.002969167               0.000000000               0.000000000               0.000000000               0.000000000              -0.007071011              -0.000483040              -0.000000000              -0.002591248               0.000702731              -0.001888516               0.000000000               0.000000000               0.000000000               0.000000000              -0.004137121              -0.000116943              -0.000000000              -0.001536801               0.000473283              -0.001063518               0.000000000               0.000000000               0.000000000               0.000000000              -0.002647283               0.000677104              -0.000000000              -0.001077368               0.000584820              -0.000492548               0.000000000               0.000000000               0.000000000               0.000000000              -0.001794718               0.001498907               0.000000000              -0.000860381               0.000786424              -0.000073957               0.000000000               0.000000000               0.000000000               0.000000000              -0.001240236               0.002234443               0.000000000              -0.000744392               0.000992937               0.000248545               0.000000000               0.000000000               0.000000000               0.000000000              -0.000834477               0.002860507              -0.000000000              -0.000670491               0.001176990               0.000506499               0.000000000               0.000000000               0.000000000               0.000000000              -0.000502812               0.003374881              -0.000000000              -0.000610413               0.001328420               0.000718007               0.000000000               0.000000000               0.000000000               0.000000000              -0.000208121               0.003782217               0.000000000              -0.000550821               0.001444333               0.000893512               0.000000000               0.000000000               0.000000000               0.000000000               0.000090580               0.004116783              -0.000000000              -0.000480629               0.001532457               0.001051828               0.000000000               0.000000000               0.000000000               0.000000000               0.000411286               0.004398671              -0.000000000              -0.000395601               0.001598076               0.001202475               0.000000000               0.000000000               0.000000000               0.000000000               0.000762110               0.004621933               0.000000000              -0.000291950               0.001637946               0.001345996               0.000000000               0.000000000               0.000000000               0.000000000               0.001158281               0.004794381              -0.000000000              -0.000164942               0.001653092               0.001488150               0.000000000               0.000000000               0.000000000               0.000000000               0.001611096               0.004923254              -0.000000000              -0.000011246               0.001644817               0.001633571               0.000000000               0.000000000               0.000000000               0.000000000               0.002138362               0.005004455              -0.000000000               0.000176327               0.001609359               0.001785686               0.000000000               0.000000000               0.000000000               0.000000000               0.002772758               0.005025194              -0.000000000               0.000411631               0.001537838               0.001949469               0.000000000               0.000000000               0.000000000               0.000000000               0.003280114               0.005073736              -0.000000000               0.000595820               0.001492622               0.002088441               0.000000000               0.000000000               0.000000000               0.000000000               0.002145299               0.023216169              -0.000000000              -0.002097529               0.008437822               0.006340293               0.000000000               0.000000000               0.000000000               0.000000000               0.002132700               0.018160306              -0.000000000              -0.001470272               0.006543466               0.005073194               0.000000000               0.000000000               0.000000000               0.000000000               0.002813593               0.014069890               0.000000000              -0.000703637               0.004924462               0.004220825               0.000000000               0.000000000               0.000000000               0.000000000               0.002713489               0.011778345               0.000000000              -0.000454734               0.004077654               0.003622920               0.000000000               0.000000000               0.000000000               0.000000000               0.002375191               0.010359695               0.000000000              -0.000404264               0.003587952               0.003183687               0.000000000               0.000000000               0.000000000               0.000000000               0.001987557               0.009392791              -0.000000000              -0.000428764               0.003273820               0.002845056               0.000000000               0.000000000               0.000000000               0.000000000               0.001619200               0.008673378              -0.000000000              -0.000476971               0.003050087               0.002573116               0.000000000               0.000000000               0.000000000               0.000000000               0.001298039               0.008100843               0.000000000              -0.000525839               0.002875534               0.002349694               0.000000000               0.000000000               0.000000000               0.000000000               0.001027206               0.007609657              -0.000000000              -0.000566004               0.002725195               0.002159191               0.000000000               0.000000000               0.000000000               0.000000000               0.000799646               0.007156043               0.000000000              -0.000594637               0.002583536               0.001988899               0.000000000               0.000000000               0.000000000               0.000000000               0.000603135               0.006718401               0.000000000              -0.000613623               0.002443986               0.001830363               0.000000000               0.000000000               0.000000000               0.000000000               0.000426276               0.006289372               0.000000000              -0.000626316               0.002305208               0.001678892               0.000000000               0.000000000               0.000000000               0.000000000               0.000272827               0.005854441               0.000000000              -0.000629494               0.002161292               0.001531798               0.000000000               0.000000000               0.000000000               0.000000000               0.000151640               0.005393644               0.000000000              -0.000617339               0.002003643               0.001386304               0.000000000               0.000000000               0.000000000               0.000000000               0.000064856               0.004886619              -0.000000000              -0.000586505               0.001824358               0.001237853               0.000000000               0.000000000               0.000000000               0.000000000               0.000017402               0.004311452              -0.000000000              -0.000532405               0.001614604               0.001082200               0.000000000               0.000000000               0.000000000               0.000000000              -0.000042178               0.003868187               0.000000000              -0.000499339               0.001455829               0.000956490               0.000000000               0.000000000               0.000000000               0.000000000               0.002225317               0.022753982              -0.001587071              -0.002009749               0.008254501               0.006244752               0.000000000               0.000000000               0.000000000               0.000000000               0.002098386               0.017862068              -0.000791452              -0.001445860               0.006435916               0.004990056               0.000000000               0.000000000               0.000000000               0.000000000               0.002652904               0.013945676               0.000001332              -0.000748369               0.004897968               0.004149600               0.000000000               0.000000000               0.000000000               0.000000000               0.002501479               0.011747257               0.000335750              -0.000530351               0.004092497               0.003562146               0.000000000               0.000000000               0.000000000               0.000000000               0.002153172               0.010372691               0.000472379              -0.000489146               0.003620578               0.003131432               0.000000000               0.000000000               0.000000000               0.000000000               0.001771410               0.009424785               0.000516868              -0.000513818               0.003312836               0.002799018               0.000000000               0.000000000               0.000000000               0.000000000               0.001414992               0.008711467               0.000520308              -0.000558310               0.003089897               0.002531587               0.000000000               0.000000000               0.000000000               0.000000000               0.001112406               0.008139063               0.000504576              -0.000600229               0.002913070               0.002312841               0.000000000               0.000000000               0.000000000               0.000000000               0.000861413               0.007646800               0.000476909              -0.000632819               0.002759847               0.002127029               0.000000000               0.000000000               0.000000000               0.000000000               0.000649907               0.007193037               0.000443762              -0.000655413               0.002616126               0.001960713               0.000000000               0.000000000               0.000000000               0.000000000               0.000470954               0.006757538               0.000413479              -0.000668083               0.002475184               0.001807102               0.000000000               0.000000000               0.000000000               0.000000000               0.000317982               0.006331224               0.000384971              -0.000672158               0.002334440               0.001662281               0.000000000               0.000000000               0.000000000               0.000000000               0.000192687               0.005901019               0.000347766              -0.000665368               0.002188776               0.001523408               0.000000000               0.000000000               0.000000000               0.000000000               0.000096802               0.005450458               0.000297285              -0.000645005               0.002031803               0.001386798               0.000000000               0.000000000               0.000000000               0.000000000               0.000031856               0.004964936               0.000229649              -0.000608670               0.001857852               0.001249182               0.000000000               0.000000000               0.000000000               0.000000000               0.000004009               0.004428681               0.000132247              -0.000552081               0.001660239               0.001108159               0.000000000               0.000000000               0.000000000               0.000000000              -0.000042040               0.004027646               0.000082921              -0.000519219               0.001515608               0.000996389               0.000000000               0.000000000               0.000000000               0.000000000               0.002420766               0.021419061              -0.002961405              -0.001769592               0.007729479               0.005959887               0.000000000               0.000000000               0.000000000               0.000000000               0.001969127               0.017005006              -0.001477342              -0.001387200               0.006130679               0.004743479               0.000000000               0.000000000               0.000000000               0.000000000               0.002176993               0.013589471              -0.000015708              -0.000882309               0.004823882               0.003941572               0.000000000               0.000000000               0.000000000               0.000000000               0.001899669               0.011646196               0.000577492              -0.000743397               0.004129826               0.003386429               0.000000000               0.000000000               0.000000000               0.000000000               0.001529732               0.010393820               0.000808710              -0.000725577               0.003706431               0.002980854               0.000000000               0.000000000               0.000000000               0.000000000               0.001176109               0.009499956               0.000876834              -0.000746452               0.003415437               0.002668986               0.000000000               0.000000000               0.000000000               0.000000000               0.000867808               0.008805535               0.000875840              -0.000775262               0.003193570               0.002418307               0.000000000               0.000000000               0.000000000               0.000000000               0.000620299               0.008233379               0.000846211              -0.000796558               0.003009952               0.002213393               0.000000000               0.000000000               0.000000000               0.000000000               0.000430681               0.007736900               0.000797615              -0.000805605               0.002847476               0.002041871               0.000000000               0.000000000               0.000000000               0.000000000               0.000273618               0.007279937               0.000739603              -0.000807383               0.002695749               0.001888366               0.000000000               0.000000000               0.000000000               0.000000000               0.000145322               0.006847669               0.000685797              -0.000801461               0.002549687               0.001748226               0.000000000               0.000000000               0.000000000               0.000000000               0.000049700               0.006428761               0.000633299              -0.000784956               0.002404551               0.001619595               0.000000000               0.000000000               0.000000000               0.000000000              -0.000017443               0.006012776               0.000566329              -0.000758136               0.002256951               0.001498814               0.000000000               0.000000000               0.000000000               0.000000000              -0.000054008               0.005593410               0.000477412              -0.000719427               0.002104260               0.001384833               0.000000000               0.000000000               0.000000000               0.000000000              -0.000061065               0.005164042               0.000359071              -0.000668403               0.001944131               0.001275728               0.000000000               0.000000000               0.000000000               0.000000000              -0.000041892               0.004725181               0.000199881              -0.000606356               0.001777163               0.001170807               0.000000000               0.000000000               0.000000000               0.000000000              -0.000057886               0.004421549               0.000122140              -0.000574399               0.001665301               0.001090902               0.000000000               0.000000000               0.000000000               0.000000000               0.002623581               0.019369575              -0.003941804              -0.001437353               0.006935577               0.005498225               0.000000000               0.000000000               0.000000000               0.000000000               0.001711039               0.015706552              -0.001971928              -0.001321677               0.005676024               0.004354347               0.000000000               0.000000000               0.000000000               0.000000000               0.001432362               0.013043297              -0.000062057              -0.001093274               0.004712147               0.003618873               0.000000000               0.000000000               0.000000000               0.000000000               0.001009887               0.011454803               0.000670303              -0.001053140               0.004169276               0.003116136               0.000000000               0.000000000               0.000000000               0.000000000               0.000639094               0.010369535               0.000937352              -0.001056529               0.003808653               0.002752124               0.000000000               0.000000000               0.000000000               0.000000000               0.000347192               0.009550658               0.001006797              -0.001063633               0.003538065               0.002474432               0.000000000               0.000000000               0.000000000               0.000000000               0.000132327               0.008886725               0.000995901              -0.001061216               0.003315950               0.002254735               0.000000000               0.000000000               0.000000000               0.000000000              -0.000020334               0.008316591               0.000954462              -0.001047197               0.003121235               0.002074038               0.000000000               0.000000000               0.000000000               0.000000000              -0.000124187               0.007808730               0.000892976              -0.001022659               0.002943770               0.001921111               0.000000000               0.000000000               0.000000000               0.000000000              -0.000195098               0.007343276               0.000823963              -0.000991069               0.002778090               0.001787021               0.000000000               0.000000000               0.000000000               0.000000000              -0.000237825               0.006910801               0.000760283              -0.000953032               0.002621255               0.001668222               0.000000000               0.000000000               0.000000000               0.000000000              -0.000250550               0.006500737               0.000696426              -0.000906546               0.002469073               0.001562526               0.000000000               0.000000000               0.000000000               0.000000000              -0.000235323               0.006107698               0.000617429              -0.000851706               0.002319781               0.001468075               0.000000000               0.000000000               0.000000000               0.000000000              -0.000197634               0.005731062               0.000511665              -0.000790494               0.002173833               0.001383339               0.000000000               0.000000000               0.000000000               0.000000000              -0.000141360               0.005374103               0.000374049              -0.000724771               0.002032940               0.001308169               0.000000000               0.000000000               0.000000000               0.000000000              -0.000075170               0.005053120               0.000203375              -0.000659827               0.001904299               0.001244472               0.000000000               0.000000000               0.000000000               0.000000000              -0.000062870               0.004856772               0.000121649              -0.000630671               0.001829132               0.001198460               0.000000000               0.000000000               0.000000000               0.000000000               0.002690223               0.016845424              -0.004448789              -0.001096845               0.005980699               0.004883854               0.000000000               0.000000000               0.000000000               0.000000000               0.001297059               0.014134068              -0.002262314              -0.001280360               0.005138095               0.003857735               0.000000000               0.000000000               0.000000000               0.000000000               0.000507200               0.012363012              -0.000172696              -0.001355173               0.004572687               0.003217514               0.000000000               0.000000000               0.000000000               0.000000000              -0.000016666               0.011161199               0.000578594              -0.001401396               0.004187494               0.002786098               0.000000000               0.000000000               0.000000000               0.000000000              -0.000336695               0.010248098               0.000835357              -0.001407269               0.003885088               0.002477819               0.000000000               0.000000000               0.000000000               0.000000000              -0.000521571               0.009503837               0.000895894              -0.001383565               0.003629102               0.002245537               0.000000000               0.000000000               0.000000000               0.000000000              -0.000616418               0.008865059               0.000878051              -0.001339286               0.003401419               0.002062133               0.000000000               0.000000000               0.000000000               0.000000000              -0.000656464               0.008293954               0.000834871              -0.001282915               0.003192262               0.001909347               0.000000000               0.000000000               0.000000000               0.000000000              -0.000653481               0.007777646               0.000779821              -0.001217258               0.002998275               0.001781017               0.000000000               0.000000000               0.000000000               0.000000000              -0.000620472               0.007308368               0.000720593              -0.001146220               0.002818172               0.001671951               0.000000000               0.000000000               0.000000000               0.000000000              -0.000562574               0.006879679               0.000663944              -0.001070922               0.002650177               0.001579255               0.000000000               0.000000000               0.000000000               0.000000000              -0.000480192               0.006481272               0.000603285              -0.000990229               0.002490479               0.001500250               0.000000000               0.000000000               0.000000000               0.000000000              -0.000380481               0.006109754               0.000527553              -0.000906398               0.002338697               0.001432299               0.000000000               0.000000000               0.000000000               0.000000000              -0.000272295               0.005772514               0.000426566              -0.000823673               0.002198710               0.001375037               0.000000000               0.000000000               0.000000000               0.000000000              -0.000166608               0.005484277               0.000299778              -0.000748011               0.002077411               0.001329400               0.000000000               0.000000000               0.000000000               0.000000000              -0.000077244               0.005265014               0.000155809              -0.000687092               0.001984018               0.001296926               0.000000000               0.000000000               0.000000000               0.000000000              -0.000050080               0.005155059               0.000087968              -0.000663161               0.001939390               0.001276229               0.000000000               0.000000000               0.000000000               0.000000000               0.002496181               0.014116406              -0.004490152              -0.000828485               0.004981582               0.004153097               0.000000000               0.000000000               0.000000000               0.000000000               0.000722950               0.012462609              -0.002372241              -0.001286718               0.004583067               0.003296349               0.000000000               0.000000000               0.000000000               0.000000000              -0.000488290               0.011611237              -0.000366680              -0.001634509               0.004415210               0.002780701               0.000000000               0.000000000               0.000000000               0.000000000              -0.001019109               0.010773212               0.000312006              -0.001728813               0.004167306               0.002438493               0.000000000               0.000000000               0.000000000               0.000000000              -0.001226795               0.010009374               0.000536111              -0.001711216               0.003906830               0.002195614               0.000000000               0.000000000               0.000000000               0.000000000              -0.001273412               0.009321017               0.000592155              -0.001642653               0.003654525               0.002011873               0.000000000               0.000000000               0.000000000               0.000000000              -0.001231842               0.008697195               0.000585356              -0.001549086               0.003415398               0.001866312               0.000000000               0.000000000               0.000000000               0.000000000              -0.001142496               0.008131081               0.000563404              -0.001444818               0.003191939               0.001747121               0.000000000               0.000000000               0.000000000               0.000000000              -0.001027091               0.007619332               0.000535826              -0.001337572               0.002985610               0.001648037               0.000000000               0.000000000               0.000000000               0.000000000              -0.000896093               0.007160367               0.000503352              -0.001231078               0.002797124               0.001566047               0.000000000               0.000000000               0.000000000               0.000000000              -0.000750221               0.006744745               0.000466186              -0.001124423               0.002623034               0.001498610               0.000000000               0.000000000               0.000000000               0.000000000              -0.000589842               0.006361034               0.000418583              -0.001016317               0.002459096               0.001442778               0.000000000               0.000000000               0.000000000               0.000000000              -0.000425272               0.006012151               0.000357457              -0.000910994               0.002307695               0.001396701               0.000000000               0.000000000               0.000000000               0.000000000              -0.000274067               0.005713239               0.000277114              -0.000816928               0.002176703               0.001359775               0.000000000               0.000000000               0.000000000               0.000000000              -0.000149468               0.005481649               0.000182610              -0.000741255               0.002074283               0.001333028               0.000000000               0.000000000               0.000000000               0.000000000              -0.000061517               0.005327868               0.000088618              -0.000689051               0.002005622               0.001316571               0.000000000               0.000000000               0.000000000               0.000000000              -0.000035199               0.005261631               0.000047626              -0.000670902               0.001977494               0.001306592               0.000000000               0.000000000               0.000000000               0.000000000               0.001974406               0.011404884              -0.004138022              -0.000685210               0.004029992               0.003344782               0.000000000               0.000000000               0.000000000               0.000000000               0.000015214               0.010819258              -0.002350494              -0.001346700               0.004055283               0.002708582               0.000000000               0.000000000               0.000000000               0.000000000              -0.001446070               0.010825521              -0.000652862              -0.001895462               0.004240292               0.002344830               0.000000000               0.000000000               0.000000000               0.000000000              -0.001875922               0.010290265              -0.000091366              -0.001989749               0.004093304               0.002103555               0.000000000               0.000000000               0.000000000               0.000000000              -0.001919530               0.009643683               0.000108546              -0.001925279               0.003856289               0.001931009               0.000000000               0.000000000               0.000000000               0.000000000              -0.001808439               0.009005484               0.000181677              -0.001803846               0.003603080               0.001799234               0.000000000               0.000000000               0.000000000               0.000000000              -0.001627725               0.008406959               0.000209359              -0.001661263               0.003356046               0.001694783               0.000000000               0.000000000               0.000000000               0.000000000              -0.001418879               0.007860564               0.000226677              -0.001514646               0.003125044               0.001610397               0.000000000               0.000000000               0.000000000               0.000000000              -0.001200952               0.007369507               0.000238943              -0.001371542               0.002913659               0.001542116               0.000000000               0.000000000               0.000000000               0.000000000              -0.000984124               0.006928315               0.000241970              -0.001235083               0.002721109               0.001486027               0.000000000               0.000000000               0.000000000               0.000000000              -0.000770034               0.006525512               0.000231021              -0.001104449               0.002543298               0.001438850               0.000000000               0.000000000               0.000000000               0.000000000              -0.000562083               0.006156151               0.000204945              -0.000980297               0.002378795               0.001398498               0.000000000               0.000000000               0.000000000               0.000000000              -0.000374365               0.005835321               0.000168545              -0.000869800               0.002235021               0.001365221               0.000000000               0.000000000               0.000000000               0.000000000              -0.000221366               0.005578693               0.000122127              -0.000780347               0.002119661               0.001339315               0.000000000               0.000000000               0.000000000               0.000000000              -0.000108854               0.005393940               0.000070712              -0.000715061               0.002036316               0.001321255               0.000000000               0.000000000               0.000000000               0.000000000              -0.000039128               0.005273292               0.000028512              -0.000673833               0.001982357               0.001308525               0.000000000               0.000000000               0.000000000               0.000000000              -0.000023271               0.005216671               0.000015992              -0.000660809               0.001959142               0.001298333               0.000000000               0.000000000               0.000000000               0.000000000               0.001152287               0.008876399              -0.003497441              -0.000677444               0.003184584               0.002507140               0.000000000               0.000000000               0.000000000               0.000000000              -0.000775348               0.009298320              -0.002250426              -0.001453043               0.003583756               0.002130713               0.000000000               0.000000000               0.000000000               0.000000000              -0.002261318               0.010011120              -0.001022713              -0.002099379               0.004036800               0.001937420               0.000000000               0.000000000               0.000000000               0.000000000              -0.002503611               0.009702517              -0.000568459              -0.002151664               0.003951361               0.001799698               0.000000000               0.000000000               0.000000000               0.000000000              -0.002360181               0.009159683              -0.000359824              -0.002030023               0.003729871               0.001699848               0.000000000               0.000000000               0.000000000               0.000000000              -0.002095793               0.008581864              -0.000243272              -0.001858651               0.003480143               0.001621492               0.000000000               0.000000000               0.000000000               0.000000000              -0.001791632               0.008030378              -0.000166117              -0.001675655               0.003235318               0.001559662               0.000000000               0.000000000               0.000000000               0.000000000              -0.001487626               0.007523210              -0.000102853              -0.001498257               0.003007130               0.001508873               0.000000000               0.000000000               0.000000000               0.000000000              -0.001194459               0.007057348              -0.000048431              -0.001330087               0.002795788               0.001465701               0.000000000               0.000000000               0.000000000               0.000000000              -0.000915472               0.006629016              -0.000006151              -0.001171926               0.002600292               0.001428366               0.000000000               0.000000000               0.000000000               0.000000000              -0.000660035               0.006235834               0.000016669              -0.001026990               0.002420920               0.001393931               0.000000000               0.000000000               0.000000000               0.000000000              -0.000439434               0.005892101               0.000020459              -0.000901298               0.002264447               0.001363149               0.000000000               0.000000000               0.000000000               0.000000000              -0.000262775               0.005613212               0.000017709              -0.000800190               0.002137782               0.001337592               0.000000000               0.000000000               0.000000000               0.000000000              -0.000136573               0.005402702               0.000010949              -0.000726551               0.002043066               0.001316515               0.000000000               0.000000000               0.000000000               0.000000000              -0.000057896               0.005255432               0.000001292              -0.000678638               0.001978006               0.001299368               0.000000000               0.000000000               0.000000000               0.000000000              -0.000018552               0.005157320              -0.000004005              -0.000651620               0.001936296               0.001284676               0.000000000               0.000000000               0.000000000               0.000000000              -0.000015383               0.005107246               0.000000199              -0.000644173               0.001917123               0.001272950               0.000000000               0.000000000               0.000000000               0.000000000               0.000154766               0.006725373              -0.002690822              -0.000782635               0.002502646               0.001720011               0.000000000               0.000000000               0.000000000               0.000000000              -0.001541129               0.007937614              -0.002126099              -0.001570123               0.003169218               0.001599096               0.000000000               0.000000000               0.000000000               0.000000000              -0.002884277               0.009203729              -0.001461974              -0.002232065               0.003811900               0.001579836               0.000000000               0.000000000               0.000000000               0.000000000              -0.002921587               0.009135952              -0.001075363              -0.002237584               0.003791148               0.001553564               0.000000000               0.000000000               0.000000000               0.000000000              -0.002621702               0.008730554              -0.000831175              -0.002074452               0.003601639               0.001527187               0.000000000               0.000000000               0.000000000               0.000000000              -0.002237907               0.008239202              -0.000657182              -0.001869111               0.003369410               0.001500299               0.000000000               0.000000000               0.000000000               0.000000000              -0.001841178               0.007750044              -0.000523402              -0.001659193               0.003136386               0.001477193               0.000000000               0.000000000               0.000000000               0.000000000              -0.001467007               0.007286360              -0.000417427              -0.001460919               0.002915735               0.001454816               0.000000000               0.000000000               0.000000000               0.000000000              -0.001119476               0.006849934              -0.000327143              -0.001276042               0.002708636               0.001432594               0.000000000               0.000000000               0.000000000               0.000000000              -0.000800872               0.006437778              -0.000245405              -0.001105047               0.002514253               0.001409207               0.000000000               0.000000000               0.000000000               0.000000000              -0.000528712               0.006056856              -0.000178588              -0.000955372               0.002337389               0.001382017               0.000000000               0.000000000               0.000000000               0.000000000              -0.000312266               0.005733452              -0.000130879              -0.000833779               0.002189058               0.001355279               0.000000000               0.000000000               0.000000000               0.000000000              -0.000156142               0.005481356              -0.000093009              -0.000743721               0.002075007               0.001331287               0.000000000               0.000000000               0.000000000               0.000000000              -0.000062183               0.005294383              -0.000060208              -0.000685115               0.001993148               0.001308033               0.000000000               0.000000000               0.000000000               0.000000000              -0.000018677               0.005163628              -0.000035665              -0.000652456               0.001938677               0.001286222               0.000000000               0.000000000               0.000000000               0.000000000              -0.000012581               0.005075931              -0.000017160              -0.000639208               0.001905029               0.001265822               0.000000000               0.000000000               0.000000000               0.000000000              -0.000020540               0.005037130              -0.000007069              -0.000637342               0.001891474               0.001254132               0.000000000               0.000000000               0.000000000               0.000000000              -0.001019169               0.004720609              -0.001828431              -0.000972263               0.001897608               0.000925345               0.000000000               0.000000000               0.000000000               0.000000000              -0.002165858               0.006367981              -0.001982080              -0.001608191               0.002658702               0.001050511               0.000000000               0.000000000               0.000000000               0.000000000              -0.003227721               0.008030794              -0.001926613              -0.002214240               0.003414984               0.001200744               0.000000000               0.000000000               0.000000000               0.000000000              -0.003161421               0.008334508              -0.001620366              -0.002227341               0.003520588               0.001293247               0.000000000               0.000000000               0.000000000               0.000000000              -0.002803998               0.008185259              -0.001339848              -0.002074652               0.003419943               0.001345291               0.000000000               0.000000000               0.000000000               0.000000000              -0.002386582               0.007874995              -0.001110149              -0.001879338               0.003251418               0.001372080               0.000000000               0.000000000               0.000000000               0.000000000              -0.001963231               0.007513953              -0.000925457              -0.001675452               0.003063110               0.001387658               0.000000000               0.000000000               0.000000000               0.000000000              -0.001559805               0.007146313              -0.000776974              -0.001478212               0.002874818               0.001396606               0.000000000               0.000000000               0.000000000               0.000000000              -0.001193283               0.006784206              -0.000647648              -0.001295504               0.002693214               0.001397710               0.000000000               0.000000000               0.000000000               0.000000000              -0.000863502               0.006432881              -0.000524000              -0.001127921               0.002520246               0.001392325               0.000000000               0.000000000               0.000000000               0.000000000              -0.000579293               0.006098153              -0.000410532              -0.000979502               0.002359198               0.001379696               0.000000000               0.000000000               0.000000000               0.000000000              -0.000349786               0.005795351              -0.000313349              -0.000855586               0.002216960               0.001361373               0.000000000               0.000000000               0.000000000               0.000000000              -0.000179525               0.005538056              -0.000225878              -0.000759577               0.002099193               0.001339616               0.000000000               0.000000000               0.000000000               0.000000000              -0.000072740               0.005332430              -0.000148922              -0.000693830               0.002008735               0.001314906               0.000000000               0.000000000               0.000000000               0.000000000              -0.000024303               0.005178597              -0.000084527              -0.000656436               0.001944994               0.001288557               0.000000000               0.000000000               0.000000000               0.000000000              -0.000021624               0.005070856              -0.000032966              -0.000641964               0.001904257               0.001262292               0.000000000               0.000000000               0.000000000               0.000000000              -0.000032898               0.005028810              -0.000009953              -0.000640936               0.001889899               0.001248962               0.000000000               0.000000000               0.000000000               0.000000000              -0.002536859               0.002903875              -0.000966101              -0.001314304               0.001406049               0.000091745               0.000000000               0.000000000               0.000000000               0.000000000              -0.002866097               0.004790382              -0.001761916              -0.001673581               0.002154638               0.000481057               0.000000000               0.000000000               0.000000000               0.000000000              -0.003464634               0.006671091              -0.002291575              -0.002133119               0.002934714               0.000801594               0.000000000               0.000000000               0.000000000               0.000000000              -0.003309802               0.007327987              -0.002137115              -0.002157170               0.003161694               0.001004524               0.000000000               0.000000000               0.000000000               0.000000000              -0.002930912               0.007473507              -0.001858755              -0.002033276               0.003168902               0.001135626               0.000000000               0.000000000               0.000000000               0.000000000              -0.002503480               0.007388709              -0.001596308              -0.001862389               0.003083674               0.001221285               0.000000000               0.000000000               0.000000000               0.000000000              -0.002075567               0.007196618              -0.001375318              -0.001677911               0.002958152               0.001280241               0.000000000               0.000000000               0.000000000               0.000000000              -0.001663233               0.006960529              -0.001188377              -0.001493775               0.002818078               0.001324303               0.000000000               0.000000000               0.000000000               0.000000000              -0.001288261               0.006698744              -0.001020165              -0.001320438               0.002673038               0.001352601               0.000000000               0.000000000               0.000000000               0.000000000              -0.000948152               0.006428417              -0.000862070              -0.001159106               0.002529153               0.001370047               0.000000000               0.000000000               0.000000000               0.000000000              -0.000642893               0.006155871              -0.000711078              -0.001010566               0.002388792               0.001378225               0.000000000               0.000000000               0.000000000               0.000000000              -0.000384425               0.005889747              -0.000572491              -0.000880376               0.002256688               0.001376312               0.000000000               0.000000000               0.000000000               0.000000000              -0.000181277               0.005638857              -0.000439760              -0.000772834               0.002137212               0.001364377               0.000000000               0.000000000               0.000000000               0.000000000              -0.000039816               0.005419907              -0.000311853              -0.000692418               0.002037423               0.001345006               0.000000000               0.000000000               0.000000000               0.000000000               0.000029052               0.005237453              -0.000191303              -0.000643785               0.001960395               0.001316610               0.000000000               0.000000000               0.000000000               0.000000000               0.000032250               0.005100922              -0.000085035              -0.000625520               0.001908797               0.001283277               0.000000000               0.000000000               0.000000000               0.000000000               0.000008528               0.005039577              -0.000032732              -0.000626748               0.001888758               0.001262010               0.000000000               0.000000000               0.000000000               0.000000000              -0.004304955               0.001407862              -0.000177070              -0.001790338               0.001066060              -0.000724279               0.000000000               0.000000000               0.000000000               0.000000000              -0.003701469               0.003299357              -0.001443473              -0.001800467               0.001699929              -0.000100538               0.000000000               0.000000000               0.000000000               0.000000000              -0.003637215               0.005140220              -0.002439226              -0.002006479               0.002382215               0.000375736               0.000000000               0.000000000               0.000000000               0.000000000              -0.003310568               0.006038451              -0.002477671              -0.001996265               0.002678218               0.000681952               0.000000000               0.000000000               0.000000000               0.000000000              -0.002896098               0.006454578              -0.002259616              -0.001892855               0.002782456               0.000889600               0.000000000               0.000000000               0.000000000               0.000000000              -0.002467358               0.006610591              -0.002001504              -0.001751579               0.002787368               0.001035788               0.000000000               0.000000000               0.000000000               0.000000000              -0.002051582               0.006616487              -0.001766758              -0.001596401               0.002737607               0.001141206               0.000000000               0.000000000               0.000000000               0.000000000              -0.001652159               0.006536328              -0.001557097              -0.001436597               0.002657620               0.001221022               0.000000000               0.000000000               0.000000000               0.000000000              -0.001279215               0.006403029              -0.001364152              -0.001280082               0.002561015               0.001280934               0.000000000               0.000000000               0.000000000               0.000000000              -0.000937054               0.006238416              -0.001186187              -0.001131195               0.002456516               0.001325321               0.000000000               0.000000000               0.000000000               0.000000000              -0.000619261               0.006055597              -0.001017649              -0.000989170               0.002348236               0.001359065               0.000000000               0.000000000               0.000000000               0.000000000              -0.000330140               0.005859068              -0.000856652              -0.000856184               0.002238398               0.001382214               0.000000000               0.000000000               0.000000000               0.000000000              -0.000088890               0.005652734              -0.000692635              -0.000739924               0.002130867               0.001390943               0.000000000               0.000000000               0.000000000               0.000000000               0.000092918               0.005454282              -0.000520458              -0.000646940               0.002033722               0.001386783               0.000000000               0.000000000               0.000000000               0.000000000               0.000203165               0.005275385              -0.000342367              -0.000583235               0.001952856               0.001369621               0.000000000               0.000000000               0.000000000               0.000000000               0.000229135               0.005125823              -0.000166445              -0.000554801               0.001893524               0.001338723               0.000000000               0.000000000               0.000000000               0.000000000               0.000203946               0.005049161              -0.000075673              -0.000554664               0.001867925               0.001313261               0.000000000               0.000000000               0.000000000               0.000000000              -0.006181481               0.000310888               0.000429419              -0.002356914               0.000889261              -0.001467653               0.000000000               0.000000000               0.000000000               0.000000000              -0.004618644               0.001977336              -0.001069734              -0.001979155               0.001318821              -0.000660334               0.000000000               0.000000000               0.000000000               0.000000000              -0.003776197               0.003563933              -0.002341501              -0.001861562               0.001808485              -0.000053077               0.000000000               0.000000000               0.000000000               0.000000000              -0.003192228               0.004570822              -0.002555395              -0.001768435               0.002113069               0.000344634               0.000000000               0.000000000               0.000000000               0.000000000              -0.002704368               0.005197679              -0.002429902              -0.001663845               0.002287156               0.000623312               0.000000000               0.000000000               0.000000000               0.000000000              -0.002268012               0.005576058              -0.002211409              -0.001547509               0.002374503               0.000826994               0.000000000               0.000000000               0.000000000               0.000000000              -0.001866998               0.005783430              -0.001991582              -0.001423050               0.002402140               0.000979090               0.000000000               0.000000000               0.000000000               0.000000000              -0.001494169               0.005872199              -0.001784363              -0.001294336               0.002388825               0.001094489               0.000000000               0.000000000               0.000000000               0.000000000              -0.001135484               0.005887328              -0.001589157              -0.001161720               0.002349663               0.001187943               0.000000000               0.000000000               0.000000000               0.000000000              -0.000793831               0.005851939              -0.001408800              -0.001029177               0.002293685               0.001264509               0.000000000               0.000000000               0.000000000               0.000000000              -0.000468205               0.005779868              -0.001243287              -0.000898059               0.002225956               0.001327897               0.000000000               0.000000000               0.000000000               0.000000000              -0.000159869               0.005676743              -0.001081333              -0.000769542               0.002148743               0.001379200               0.000000000               0.000000000               0.000000000               0.000000000               0.000121524               0.005547912              -0.000907038              -0.000647916               0.002065257               0.001417341               0.000000000               0.000000000               0.000000000               0.000000000               0.000361300               0.005403496              -0.000715111              -0.000539948               0.001981130               0.001441182               0.000000000               0.000000000               0.000000000               0.000000000               0.000542352               0.005259404              -0.000499545              -0.000454042               0.001904465               0.001450422               0.000000000               0.000000000               0.000000000               0.000000000               0.000643106               0.005126088              -0.000259381              -0.000399595               0.001841877               0.001442282               0.000000000               0.000000000               0.000000000               0.000000000               0.000663323               0.005056408              -0.000132902              -0.000383304               0.001813220               0.001429916               0.000000000               0.000000000               0.000000000               0.000000000              -0.007978344              -0.000391405               0.000748228              -0.002942951               0.000850509              -0.002092442               0.000000000               0.000000000               0.000000000               0.000000000              -0.005532535               0.000910929              -0.000704574              -0.002188565               0.001033157              -0.001155407               0.000000000               0.000000000               0.000000000               0.000000000              -0.003902437               0.002104084              -0.001999629              -0.001726422               0.001276826              -0.000449596               0.000000000               0.000000000               0.000000000               0.000000000              -0.003007563               0.003100312              -0.002317938              -0.001515372               0.001538549               0.000023177               0.000000000               0.000000000               0.000000000               0.000000000              -0.002412071               0.003855333              -0.002282037              -0.001386441               0.001747244               0.000360803               0.000000000               0.000000000               0.000000000               0.000000000              -0.001948943               0.004408272              -0.002126582              -0.001281885               0.001896703               0.000614818               0.000000000               0.000000000               0.000000000               0.000000000              -0.001556581               0.004798417              -0.001945362              -0.001183518               0.001993962               0.000810444               0.000000000               0.000000000               0.000000000               0.000000000              -0.001206046               0.005053227              -0.001766552              -0.001083919               0.002045698               0.000961779               0.000000000               0.000000000               0.000000000               0.000000000              -0.000868854               0.005213091              -0.001596233              -0.000977455               0.002063498               0.001086043               0.000000000               0.000000000               0.000000000               0.000000000              -0.000534429               0.005310529              -0.001437303              -0.000864225               0.002058233               0.001194008               0.000000000               0.000000000               0.000000000               0.000000000              -0.000203264               0.005360515              -0.001290420              -0.000746287               0.002035582               0.001289295               0.000000000               0.000000000               0.000000000               0.000000000               0.000118827               0.005366876              -0.001145369              -0.000626298               0.001997707               0.001371408               0.000000000               0.000000000               0.000000000               0.000000000               0.000436743               0.005339173              -0.000988892              -0.000503617               0.001947579               0.001443962               0.000000000               0.000000000               0.000000000               0.000000000               0.000744635               0.005280127              -0.000806809              -0.000380777               0.001886950               0.001506173               0.000000000               0.000000000               0.000000000               0.000000000               0.001024566               0.005197088              -0.000587512              -0.000265423               0.001820820               0.001555397               0.000000000               0.000000000               0.000000000               0.000000000               0.001258992               0.005103110              -0.000319856              -0.000165766               0.001756275               0.001590509               0.000000000               0.000000000               0.000000000               0.000000000               0.001388907               0.005063045              -0.000178181              -0.000112040               0.001725012               0.001612971               0.000000000               0.000000000               0.000000000               0.000000000              -0.009491995              -0.000785070               0.000739477              -0.003461362               0.000892091              -0.002569271               0.000000000               0.000000000               0.000000000               0.000000000              -0.006327952               0.000137788              -0.000403181              -0.002390203               0.000842658              -0.001547545               0.000000000               0.000000000               0.000000000               0.000000000              -0.004018385               0.000922165              -0.001453136              -0.001622163               0.000848103              -0.000774060               0.000000000               0.000000000               0.000000000               0.000000000              -0.002819258               0.001836262              -0.001764792              -0.001286753               0.001040997              -0.000245756               0.000000000               0.000000000               0.000000000               0.000000000              -0.002100986               0.002645921              -0.001785186              -0.001118608               0.001254833               0.000136225               0.000000000               0.000000000               0.000000000               0.000000000              -0.001602514               0.003312788              -0.001693808              -0.001015040               0.001442597               0.000427558               0.000000000               0.000000000               0.000000000               0.000000000              -0.001210859               0.003839276              -0.001567760              -0.000933980               0.001591072               0.000657092               0.000000000               0.000000000               0.000000000               0.000000000              -0.000873647               0.004230309              -0.001438635              -0.000856405               0.001695557               0.000839152               0.000000000               0.000000000               0.000000000               0.000000000              -0.000554321               0.004516201              -0.001313802              -0.000772394               0.001762850               0.000990455               0.000000000               0.000000000               0.000000000               0.000000000              -0.000233008               0.004736143              -0.001195413              -0.000679395               0.001805163               0.001125768               0.000000000               0.000000000               0.000000000               0.000000000               0.000095989               0.004898632              -0.001085279              -0.000576332               0.001824971               0.001248639               0.000000000               0.000000000               0.000000000               0.000000000               0.000433638               0.005009770              -0.000976394              -0.000463607               0.001824442               0.001360836               0.000000000               0.000000000               0.000000000               0.000000000               0.000786061               0.005085812              -0.000859527              -0.000340953               0.001808905               0.001467952               0.000000000               0.000000000               0.000000000               0.000000000               0.001159079               0.005122452              -0.000718539              -0.000205652               0.001776017               0.001570366               0.000000000               0.000000000               0.000000000               0.000000000               0.001554151               0.005116651              -0.000537960              -0.000056775               0.001724458               0.001667683               0.000000000               0.000000000               0.000000000               0.000000000               0.001962333               0.005072274              -0.000299891               0.000101839               0.001656795               0.001758634               0.000000000               0.000000000               0.000000000               0.000000000               0.002250304               0.005070530              -0.000174855               0.000210046               0.001620144               0.001830190               0.000000000               0.000000000               0.000000000               0.000000000              -0.010506980              -0.000967253               0.000455199              -0.003819208               0.000950645              -0.002868563               0.000000000               0.000000000               0.000000000               0.000000000              -0.006875215              -0.000329716              -0.000174448              -0.002536989               0.000735753              -0.001801236               0.000000000               0.000000000               0.000000000               0.000000000              -0.004104734               0.000151317              -0.000762453              -0.001558189               0.000569831              -0.000988358               0.000000000               0.000000000               0.000000000               0.000000000              -0.002690038               0.000980934              -0.000953389              -0.001131379               0.000704099              -0.000427280               0.000000000               0.000000000               0.000000000               0.000000000              -0.001874405               0.001801465              -0.000981236              -0.000928083               0.000909843              -0.000018241               0.000000000               0.000000000               0.000000000               0.000000000              -0.001338798               0.002522783              -0.000942663              -0.000817395               0.001113384               0.000295989               0.000000000               0.000000000               0.000000000               0.000000000              -0.000938372               0.003125967              -0.000879694              -0.000742634               0.001289523               0.000546889               0.000000000               0.000000000               0.000000000               0.000000000              -0.000606923               0.003606895              -0.000812808              -0.000678457               0.001428439               0.000749982               0.000000000               0.000000000               0.000000000               0.000000000              -0.000304544               0.003981083              -0.000747464              -0.000611838               0.001530960               0.000919122               0.000000000               0.000000000               0.000000000               0.000000000               0.000002004               0.004286550              -0.000683931              -0.000535066               0.001607191               0.001072125               0.000000000               0.000000000               0.000000000               0.000000000               0.000326730               0.004537487              -0.000625131              -0.000444661               0.001660701               0.001216039               0.000000000               0.000000000               0.000000000               0.000000000               0.000675099               0.004729570              -0.000566404              -0.000338034               0.001689185               0.001351152               0.000000000               0.000000000               0.000000000               0.000000000               0.001057809               0.004877307              -0.000503127              -0.000212985               0.001696748               0.001483763               0.000000000               0.000000000               0.000000000               0.000000000               0.001486893               0.004984261              -0.000428026              -0.000065448               0.001683220               0.001617772               0.000000000               0.000000000               0.000000000               0.000000000               0.001976583               0.005039582              -0.000325310               0.000111269               0.001642754               0.001754023               0.000000000               0.000000000               0.000000000               0.000000000               0.002543189               0.005038730              -0.000180997               0.000323851               0.001571609               0.001895461               0.000000000               0.000000000               0.000000000               0.000000000               0.002984326               0.005072538              -0.000106522               0.000485050               0.001529146               0.002014196               0.000000000               0.000000000               0.000000000               0.000000000               0.000000000               0.000000000               0.000000000               0.000000000               0.000000000               0.000000000               0.000000000               0.000000000               0.000000000               0.000000000               0.000000000               0.000000000               0.000000000               0.000000000               0.000000000               0.000000000               0.000000000               0.000000000               0.000000000               0.000000000               0.000000000               0.000000000               0.000000000               0.000000000               0.000000000               0.000000000               0.000000000               0.000000000               0.000000000               0.000000000               0.000000000               0.000000000               0.000000000               0.000000000               0.000000000               0.000000000               0.000000000               0.000000000               0.000000000               0.000000000               0.000000000               0.000000000               0.000000000               0.000000000               0.000000000               0.000000000               0.000000000               0.000000000               0.000000000               0.000000000               0.000000000               0.000000000               0.000000000               0.000000000               0.000000000               0.000000000               0.000000000               0.000000000               0.000000000               0.000000000               0.000000000               0.000000000               0.000000000               0.000000000               0.000000000               0.000000000               0.000000000               0.000000000               0.000000000               0.000000000               0.000000000               0.000000000               0.000000000               0.000000000               0.000000000               0.000000000               0.000000000               0.000000000               0.000000000               0.000000000               0.000000000               0.000000000               0.000000000               0.000000000               0.000000000               0.000000000               0.000000000               0.000000000               0.000000000               0.000000000               0.000000000               0.000000000               0.000000000               0.000000000               0.000000000               0.000000000               0.000000000               0.000000000               0.000000000               0.000000000               0.000000000               0.000000000               0.000000000               0.000000000               0.000000000               0.000000000               0.000000000               0.000000000               0.000000000               0.000000000               0.000000000               0.000000000               0.000000000               0.000000000               0.000000000               0.000000000               0.000000000               0.000000000               0.000000000               0.000000000               0.000000000               0.000000000               0.000000000               0.000000000               0.000000000               0.000000000               0.000000000               0.000000000               0.000000000               0.000000000               0.000000000               0.000000000               0.000000000               0.000000000               0.000000000               0.000000000               0.000000000               0.000000000               0.000000000               0.000000000               0.000000000               0.000000000               0.000000000               0.000000000               0.000000000               0.000000000               0.000000000               0.000000000               0.000000000               0.000000000               0.000000000               0.000000000               0.000000000               0.000000000               0.000000000               0.000000000               0.000000000               0.000000000               0.000000000               0.000000000               0.000000000               0.000000000               0.000000000               0.000000000               0.000000000               0.000000000               0.000000000               0.000000000               0.000000000               0.000000000               0.000000000               0.000000000               0.000000000               0.000000000               0.000000000               0.000000000               0.000000000               0.000000000               0.000000000               0.000000000               0.000000000               0.000000000               0.000000000               0.000000000               0.000000000               0.000000000               0.000000000               0.000000000               0.000000000               0.000000000               0.000000000               0.000000000               0.000000000               0.000000000               0.000000000               0.000000000               0.000000000               0.000000000               0.000000000               0.000000000               0.000000000               0.000000000               0.000000000               0.000000000               0.000000000               0.000000000               0.000000000               0.000000000               0.000000000               0.000000000               0.000000000               0.000000000               0.000000000               0.000000000               0.000000000               0.000000000               0.000000000               0.000000000               0.000000000               0.000000000               0.000000000               0.000000000               0.000000000               0.000000000               0.000000000               0.000000000               0.000000000               0.000000000               0.000000000               0.000000000               0.000000000               0.000000000               0.000000000               0.000000000               0.000000000               0.000000000               0.000000000               0.000000000               0.000000000               0.000000000               0.000000000               0.000000000               0.000000000               0.000000000               0.000000000               0.000000000               0.000000000               0.000000000               0.000000000               0.000000000               0.000000000               0.000000000               0.000000000               0.000000000               0.000000000               0.000000000               0.000000000               0.000000000               0.000000000               0.000000000               0.000000000               0.000000000               0.000000000               0.000000000               0.000000000               0.000000000               0.000000000               0.000000000               0.000000000               0.000000000               0.000000000               0.000000000               0.000000000               0.000000000               0.000000000               0.000000000               0.000000000               0.000000000               0.000000000               0.000000000               0.000000000               0.000000000               0.000000000               0.000000000               0.000000000               0.000000000               0.000000000               0.000000000               0.000000000               0.000000000               0.000000000               0.000000000               0.000000000               0.000000000               0.000000000               0.000000000               0.000000000               0.000000000               0.000000000               0.000000000               0.000000000               0.000000000               0.000000000               0.000000000               0.000000000               0.000000000               0.000000000               0.000000000               0.000000000               0.000000000               0.000000000               0.000000000               0.000000000               0.000000000               0.000000000               0.000000000               0.000000000               0.000000000               0.000000000               0.000000000               0.000000000               0.000000000               0.000000000               0.000000000               0.000000000               0.000000000               0.000000000               0.000000000               0.000000000               0.000000000               0.000000000               0.000000000               0.000000000               0.000000000               0.000000000               0.000000000               0.000000000               0.000000000               0.000000000               0.000000000               0.002225317               0.022753982               0.001587071              -0.002009749               0.008254501               0.006244752               0.000000000               0.000000000               0.000000000               0.000000000               0.002098386               0.017862068               0.000791452              -0.001445860               0.006435916               0.004990056               0.000000000               0.000000000               0.000000000               0.000000000               0.002652904               0.013945676              -0.000001332              -0.000748369               0.004897968               0.004149600               0.000000000               0.000000000               0.000000000               0.000000000               0.002501479               0.011747257              -0.000335750              -0.000530351               0.004092497               0.003562146               0.000000000               0.000000000               0.000000000               0.000000000               0.002153172               0.010372691              -0.000472379              -0.000489146               0.003620578               0.003131432               0.000000000               0.000000000               0.000000000               0.000000000               0.001771410               0.009424785              -0.000516868              -0.000513818               0.003312836               0.002799018               0.000000000               0.000000000               0.000000000               0.000000000               0.001414992               0.008711467              -0.000520308              -0.000558310               0.003089897               0.002531587               0.000000000               0.000000000               0.000000000               0.000000000               0.001112406               0.008139063              -0.000504576              -0.000600229               0.002913070               0.002312841               0.000000000               0.000000000               0.000000000               0.000000000               0.000861413               0.007646800              -0.000476909              -0.000632819               0.002759847               0.002127029               0.000000000               0.000000000               0.000000000               0.000000000               0.000649907               0.007193037              -0.000443762              -0.000655413               0.002616126               0.001960713               0.000000000               0.000000000               0.000000000               0.000000000               0.000470954               0.006757538              -0.000413479              -0.000668083               0.002475184               0.001807102               0.000000000               0.000000000               0.000000000               0.000000000               0.000317982               0.006331224              -0.000384971              -0.000672158               0.002334440               0.001662281               0.000000000               0.000000000               0.000000000               0.000000000               0.000192687               0.005901019              -0.000347766              -0.000665368               0.002188776               0.001523408               0.000000000               0.000000000               0.000000000               0.000000000               0.000096802               0.005450458              -0.000297285              -0.000645005               0.002031803               0.001386798               0.000000000               0.000000000               0.000000000               0.000000000               0.000031856               0.004964936              -0.000229649              -0.000608670               0.001857852               0.001249182               0.000000000               0.000000000               0.000000000               0.000000000               0.000004009               0.004428681              -0.000132247              -0.000552081               0.001660239               0.001108159               0.000000000               0.000000000               0.000000000               0.000000000              -0.000042040               0.004027646              -0.000082921              -0.000519219               0.001515608               0.000996389               0.000000000               0.000000000               0.000000000               0.000000000               0.002420766               0.021419061               0.002961405              -0.001769592               0.007729479               0.005959887               0.000000000               0.000000000               0.000000000               0.000000000               0.001969127               0.017005006               0.001477342              -0.001387200               0.006130679               0.004743479               0.000000000               0.000000000               0.000000000               0.000000000               0.002176993               0.013589471               0.000015708              -0.000882309               0.004823882               0.003941572               0.000000000               0.000000000               0.000000000               0.000000000               0.001899669               0.011646196              -0.000577492              -0.000743397               0.004129826               0.003386429               0.000000000               0.000000000               0.000000000               0.000000000               0.001529732               0.010393820              -0.000808710              -0.000725577               0.003706431               0.002980854               0.000000000               0.000000000               0.000000000               0.000000000               0.001176109               0.009499956              -0.000876834              -0.000746452               0.003415437               0.002668986               0.000000000               0.000000000               0.000000000               0.000000000               0.000867808               0.008805535              -0.000875840              -0.000775262               0.003193570               0.002418307               0.000000000               0.000000000               0.000000000               0.000000000               0.000620299               0.008233379              -0.000846211              -0.000796558               0.003009952               0.002213393               0.000000000               0.000000000               0.000000000               0.000000000               0.000430681               0.007736900              -0.000797615              -0.000805605               0.002847476               0.002041871               0.000000000               0.000000000               0.000000000               0.000000000               0.000273618               0.007279937              -0.000739603              -0.000807383               0.002695749               0.001888366               0.000000000               0.000000000               0.000000000               0.000000000               0.000145322               0.006847669              -0.000685797              -0.000801461               0.002549687               0.001748226               0.000000000               0.000000000               0.000000000               0.000000000               0.000049700               0.006428761              -0.000633299              -0.000784956               0.002404551               0.001619595               0.000000000               0.000000000               0.000000000               0.000000000              -0.000017443               0.006012776              -0.000566329              -0.000758136               0.002256951               0.001498814               0.000000000               0.000000000               0.000000000               0.000000000              -0.000054008               0.005593410              -0.000477412              -0.000719427               0.002104260               0.001384833               0.000000000               0.000000000               0.000000000               0.000000000              -0.000061065               0.005164042              -0.000359071              -0.000668403               0.001944131               0.001275728               0.000000000               0.000000000               0.000000000               0.000000000              -0.000041892               0.004725181              -0.000199881              -0.000606356               0.001777163               0.001170807               0.000000000               0.000000000               0.000000000               0.000000000              -0.000057886               0.004421549              -0.000122140              -0.000574399               0.001665301               0.001090902               0.000000000               0.000000000               0.000000000               0.000000000               0.002623581               0.019369575               0.003941804              -0.001437353               0.006935577               0.005498225               0.000000000               0.000000000               0.000000000               0.000000000               0.001711039               0.015706552               0.001971928              -0.001321677               0.005676024               0.004354347               0.000000000               0.000000000               0.000000000               0.000000000               0.001432362               0.013043297               0.000062057              -0.001093274               0.004712147               0.003618873               0.000000000               0.000000000               0.000000000               0.000000000               0.001009887               0.011454803              -0.000670303              -0.001053140               0.004169276               0.003116136               0.000000000               0.000000000               0.000000000               0.000000000               0.000639094               0.010369535              -0.000937352              -0.001056529               0.003808653               0.002752124               0.000000000               0.000000000               0.000000000               0.000000000               0.000347192               0.009550658              -0.001006797              -0.001063633               0.003538065               0.002474432               0.000000000               0.000000000               0.000000000               0.000000000               0.000132327               0.008886725              -0.000995901              -0.001061216               0.003315950               0.002254735               0.000000000               0.000000000               0.000000000               0.000000000              -0.000020334               0.008316591              -0.000954462              -0.001047197               0.003121235               0.002074038               0.000000000               0.000000000               0.000000000               0.000000000              -0.000124187               0.007808730              -0.000892976              -0.001022659               0.002943770               0.001921111               0.000000000               0.000000000               0.000000000               0.000000000              -0.000195098               0.007343276              -0.000823963              -0.000991069               0.002778090               0.001787021               0.000000000               0.000000000               0.000000000               0.000000000              -0.000237825               0.006910801              -0.000760283              -0.000953032               0.002621255               0.001668222               0.000000000               0.000000000               0.000000000               0.000000000              -0.000250550               0.006500737              -0.000696426              -0.000906546               0.002469073               0.001562526               0.000000000               0.000000000               0.000000000               0.000000000              -0.000235323               0.006107698              -0.000617429              -0.000851706               0.002319781               0.001468075               0.000000000               0.000000000               0.000000000               0.000000000              -0.000197634               0.005731062              -0.000511665              -0.000790494               0.002173833               0.001383339               0.000000000               0.000000000               0.000000000               0.000000000              -0.000141360               0.005374103              -0.000374049              -0.000724771               0.002032940               0.001308169               0.000000000               0.000000000               0.000000000               0.000000000              -0.000075170               0.005053120              -0.000203375              -0.000659827               0.001904299               0.001244472               0.000000000               0.000000000               0.000000000               0.000000000              -0.000062870               0.004856772              -0.000121649              -0.000630671               0.001829132               0.001198460               0.000000000               0.000000000               0.000000000               0.000000000               0.002690223               0.016845424               0.004448789              -0.001096845               0.005980699               0.004883854               0.000000000               0.000000000               0.000000000               0.000000000               0.001297059               0.014134068               0.002262314              -0.001280360               0.005138095               0.003857735               0.000000000               0.000000000               0.000000000               0.000000000               0.000507200               0.012363012               0.000172696              -0.001355173               0.004572687               0.003217514               0.000000000               0.000000000               0.000000000               0.000000000              -0.000016666               0.011161199              -0.000578594              -0.001401396               0.004187494               0.002786098               0.000000000               0.000000000               0.000000000               0.000000000              -0.000336695               0.010248098              -0.000835357              -0.001407269               0.003885088               0.002477819               0.000000000               0.000000000               0.000000000               0.000000000              -0.000521571               0.009503837              -0.000895894              -0.001383565               0.003629102               0.002245537               0.000000000               0.000000000               0.000000000               0.000000000              -0.000616418               0.008865059              -0.000878051              -0.001339286               0.003401419               0.002062133               0.000000000               0.000000000               0.000000000               0.000000000              -0.000656464               0.008293954              -0.000834871              -0.001282915               0.003192262               0.001909347               0.000000000               0.000000000               0.000000000               0.000000000              -0.000653481               0.007777646              -0.000779821              -0.001217258               0.002998275               0.001781017               0.000000000               0.000000000               0.000000000               0.000000000              -0.000620472               0.007308368              -0.000720593              -0.001146220               0.002818172               0.001671951               0.000000000               0.000000000               0.000000000               0.000000000              -0.000562574               0.006879679              -0.000663944              -0.001070922               0.002650177               0.001579255               0.000000000               0.000000000               0.000000000               0.000000000              -0.000480192               0.006481272              -0.000603285              -0.000990229               0.002490479               0.001500250               0.000000000               0.000000000               0.000000000               0.000000000              -0.000380481               0.006109754              -0.000527553              -0.000906398               0.002338697               0.001432299               0.000000000               0.000000000               0.000000000               0.000000000              -0.000272295               0.005772514              -0.000426566              -0.000823673               0.002198710               0.001375037               0.000000000               0.000000000               0.000000000               0.000000000              -0.000166608               0.005484277              -0.000299778              -0.000748011               0.002077411               0.001329400               0.000000000               0.000000000               0.000000000               0.000000000              -0.000077244               0.005265014              -0.000155809              -0.000687092               0.001984018               0.001296926               0.000000000               0.000000000               0.000000000               0.000000000              -0.000050080               0.005155059              -0.000087968              -0.000663161               0.001939390               0.001276229               0.000000000               0.000000000               0.000000000               0.000000000               0.002496181               0.014116406               0.004490152              -0.000828485               0.004981582               0.004153097               0.000000000               0.000000000               0.000000000               0.000000000               0.000722950               0.012462609               0.002372241              -0.001286718               0.004583067               0.003296349               0.000000000               0.000000000               0.000000000               0.000000000              -0.000488290               0.011611237               0.000366680              -0.001634509               0.004415210               0.002780701               0.000000000               0.000000000               0.000000000               0.000000000              -0.001019109               0.010773212              -0.000312006              -0.001728813               0.004167306               0.002438493               0.000000000               0.000000000               0.000000000               0.000000000              -0.001226795               0.010009374              -0.000536111              -0.001711216               0.003906830               0.002195614               0.000000000               0.000000000               0.000000000               0.000000000              -0.001273412               0.009321017              -0.000592155              -0.001642653               0.003654525               0.002011873               0.000000000               0.000000000               0.000000000               0.000000000              -0.001231842               0.008697195              -0.000585356              -0.001549086               0.003415398               0.001866312               0.000000000               0.000000000               0.000000000               0.000000000              -0.001142496               0.008131081              -0.000563404              -0.001444818               0.003191939               0.001747121               0.000000000               0.000000000               0.000000000               0.000000000              -0.001027091               0.007619332              -0.000535826              -0.001337572               0.002985610               0.001648037               0.000000000               0.000000000               0.000000000               0.000000000              -0.000896093               0.007160367              -0.000503352              -0.001231078               0.002797124               0.001566047               0.000000000               0.000000000               0.000000000               0.000000000              -0.000750221               0.006744745              -0.000466186              -0.001124423               0.002623034               0.001498610               0.000000000               0.000000000               0.000000000               0.000000000              -0.000589842               0.006361034              -0.000418583              -0.001016317               0.002459096               0.001442778               0.000000000               0.000000000               0.000000000               0.000000000              -0.000425272               0.006012151              -0.000357457              -0.000910994               0.002307695               0.001396701               0.000000000               0.000000000               0.000000000               0.000000000              -0.000274067               0.005713239              -0.000277114              -0.000816928               0.002176703               0.001359775               0.000000000               0.000000000               0.000000000               0.000000000              -0.000149468               0.005481649              -0.000182610              -0.000741255               0.002074283               0.001333028               0.000000000               0.000000000               0.000000000               0.000000000              -0.000061517               0.005327868              -0.000088618              -0.000689051               0.002005622               0.001316571               0.000000000               0.000000000               0.000000000               0.000000000              -0.000035199               0.005261631              -0.000047626              -0.000670902               0.001977494               0.001306592               0.000000000               0.000000000               0.000000000               0.000000000               0.001974406               0.011404884               0.004138022              -0.000685210               0.004029992               0.003344782               0.000000000               0.000000000               0.000000000               0.000000000               0.000015214               0.010819258               0.002350494              -0.001346700               0.004055283               0.002708582               0.000000000               0.000000000               0.000000000               0.000000000              -0.001446070               0.010825521               0.000652862              -0.001895462               0.004240292               0.002344830               0.000000000               0.000000000               0.000000000               0.000000000              -0.001875922               0.010290265               0.000091366              -0.001989749               0.004093304               0.002103555               0.000000000               0.000000000               0.000000000               0.000000000              -0.001919530               0.009643683              -0.000108546              -0.001925279               0.003856289               0.001931009               0.000000000               0.000000000               0.000000000               0.000000000              -0.001808439               0.009005484              -0.000181677              -0.001803846               0.003603080               0.001799234               0.000000000               0.000000000               0.000000000               0.000000000              -0.001627725               0.008406959              -0.000209359              -0.001661263               0.003356046               0.001694783               0.000000000               0.000000000               0.000000000               0.000000000              -0.001418879               0.007860564              -0.000226677              -0.001514646               0.003125044               0.001610397               0.000000000               0.000000000               0.000000000               0.000000000              -0.001200952               0.007369507              -0.000238943              -0.001371542               0.002913659               0.001542116               0.000000000               0.000000000               0.000000000               0.000000000              -0.000984124               0.006928315              -0.000241970              -0.001235083               0.002721109               0.001486027               0.000000000               0.000000000               0.000000000               0.000000000              -0.000770034               0.006525512              -0.000231021              -0.001104449               0.002543298               0.001438850               0.000000000               0.000000000               0.000000000               0.000000000              -0.000562083               0.006156151              -0.000204945              -0.000980297               0.002378795               0.001398498               0.000000000               0.000000000               0.000000000               0.000000000              -0.000374365               0.005835321              -0.000168545              -0.000869800               0.002235021               0.001365221               0.000000000               0.000000000               0.000000000               0.000000000              -0.000221366               0.005578693              -0.000122127              -0.000780347               0.002119661               0.001339315               0.000000000               0.000000000               0.000000000               0.000000000              -0.000108854               0.005393940              -0.000070712              -0.000715061               0.002036316               0.001321255               0.000000000               0.000000000               0.000000000               0.000000000              -0.000039128               0.005273292              -0.000028512              -0.000673833               0.001982357               0.001308525               0.000000000               0.000000000               0.000000000               0.000000000              -0.000023271               0.005216671              -0.000015992              -0.000660809               0.001959142               0.001298333               0.000000000               0.000000000               0.000000000               0.000000000               0.001152287               0.008876399               0.003497441              -0.000677444               0.003184584               0.002507140               0.000000000               0.000000000               0.000000000               0.000000000              -0.000775348               0.009298320               0.002250426              -0.001453043               0.003583756               0.002130713               0.000000000               0.000000000               0.000000000               0.000000000              -0.002261318               0.010011120               0.001022713              -0.002099379               0.004036800               0.001937420               0.000000000               0.000000000               0.000000000               0.000000000              -0.002503611               0.009702517               0.000568459              -0.002151664               0.003951361               0.001799698               0.000000000               0.000000000               0.000000000               0.000000000              -0.002360181               0.009159683               0.000359824              -0.002030023               0.003729871               0.001699848               0.000000000               0.000000000               0.000000000               0.000000000              -0.002095793               0.008581864               0.000243272              -0.001858651               0.003480143               0.001621492               0.000000000               0.000000000               0.000000000               0.000000000              -0.001791632               0.008030378               0.000166117              -0.001675655               0.003235318               0.001559662               0.000000000               0.000000000               0.000000000               0.000000000              -0.001487626               0.007523210               0.000102853              -0.001498257               0.003007130               0.001508873               0.000000000               0.000000000               0.000000000               0.000000000              -0.001194459               0.007057348               0.000048431              -0.001330087               0.002795788               0.001465701               0.000000000               0.000000000               0.000000000               0.000000000              -0.000915472               0.006629016               0.000006151              -0.001171926               0.002600292               0.001428366               0.000000000               0.000000000               0.000000000               0.000000000              -0.000660035               0.006235834              -0.000016669              -0.001026990               0.002420920               0.001393931               0.000000000               0.000000000               0.000000000               0.000000000              -0.000439434               0.005892101              -0.000020459              -0.000901298               0.002264447               0.001363149               0.000000000               0.000000000               0.000000000               0.000000000              -0.000262775               0.005613212              -0.000017709              -0.000800190               0.002137782               0.001337592               0.000000000               0.000000000               0.000000000               0.000000000              -0.000136573               0.005402702              -0.000010949              -0.000726551               0.002043066               0.001316515               0.000000000               0.000000000               0.000000000               0.000000000              -0.000057896               0.005255432              -0.000001292              -0.000678638               0.001978006               0.001299368               0.000000000               0.000000000               0.000000000               0.000000000              -0.000018552               0.005157320               0.000004005              -0.000651620               0.001936296               0.001284676               0.000000000               0.000000000               0.000000000               0.000000000              -0.000015383               0.005107246              -0.000000199              -0.000644173               0.001917123               0.001272950               0.000000000               0.000000000               0.000000000               0.000000000               0.000154766               0.006725373               0.002690822              -0.000782635               0.002502646               0.001720011               0.000000000               0.000000000               0.000000000               0.000000000              -0.001541129               0.007937614               0.002126099              -0.001570123               0.003169218               0.001599096               0.000000000               0.000000000               0.000000000               0.000000000              -0.002884277               0.009203729               0.001461974              -0.002232065               0.003811900               0.001579836               0.000000000               0.000000000               0.000000000               0.000000000              -0.002921587               0.009135952               0.001075363              -0.002237584               0.003791148               0.001553564               0.000000000               0.000000000               0.000000000               0.000000000              -0.002621702               0.008730554               0.000831175              -0.002074452               0.003601639               0.001527187               0.000000000               0.000000000               0.000000000               0.000000000              -0.002237907               0.008239202               0.000657182              -0.001869111               0.003369410               0.001500299               0.000000000               0.000000000               0.000000000               0.000000000              -0.001841178               0.007750044               0.000523402              -0.001659193               0.003136386               0.001477193               0.000000000               0.000000000               0.000000000               0.000000000              -0.001467007               0.007286360               0.000417427              -0.001460919               0.002915735               0.001454816               0.000000000               0.000000000               0.000000000               0.000000000              -0.001119476               0.006849934               0.000327143              -0.001276042               0.002708636               0.001432594               0.000000000               0.000000000               0.000000000               0.000000000              -0.000800872               0.006437778               0.000245405              -0.001105047               0.002514253               0.001409207               0.000000000               0.000000000               0.000000000               0.000000000              -0.000528712               0.006056856               0.000178588              -0.000955372               0.002337389               0.001382017               0.000000000               0.000000000               0.000000000               0.000000000              -0.000312266               0.005733452               0.000130879              -0.000833779               0.002189058               0.001355279               0.000000000               0.000000000               0.000000000               0.000000000              -0.000156142               0.005481356               0.000093009              -0.000743721               0.002075007               0.001331287               0.000000000               0.000000000               0.000000000               0.000000000              -0.000062183               0.005294383               0.000060208              -0.000685115               0.001993148               0.001308033               0.000000000               0.000000000               0.000000000               0.000000000              -0.000018677               0.005163628               0.000035665              -0.000652456               0.001938677               0.001286222               0.000000000               0.000000000               0.000000000               0.000000000              -0.000012581               0.005075931               0.000017160              -0.000639208               0.001905029               0.001265822               0.000000000               0.000000000               0.000000000               0.000000000              -0.000020540               0.005037130               0.000007069              -0.000637342               0.001891474               0.001254132               0.000000000               0.000000000               0.000000000               0.000000000              -0.001019169               0.004720609               0.001828431              -0.000972263               0.001897608               0.000925345               0.000000000               0.000000000               0.000000000               0.000000000              -0.002165858               0.006367981               0.001982080              -0.001608191               0.002658702               0.001050511               0.000000000               0.000000000               0.000000000               0.000000000              -0.003227721               0.008030794               0.001926613              -0.002214240               0.003414984               0.001200744               0.000000000               0.000000000               0.000000000               0.000000000              -0.003161421               0.008334508               0.001620366              -0.002227341               0.003520588               0.001293247               0.000000000               0.000000000               0.000000000               0.000000000              -0.002803998               0.008185259               0.001339848              -0.002074652               0.003419943               0.001345291               0.000000000               0.000000000               0.000000000               0.000000000              -0.002386582               0.007874995               0.001110149              -0.001879338               0.003251418               0.001372080               0.000000000               0.000000000               0.000000000               0.000000000              -0.001963231               0.007513953               0.000925457              -0.001675452               0.003063110               0.001387658               0.000000000               0.000000000               0.000000000               0.000000000              -0.001559805               0.007146313               0.000776974              -0.001478212               0.002874818               0.001396606               0.000000000               0.000000000               0.000000000               0.000000000              -0.001193283               0.006784206               0.000647648              -0.001295504               0.002693214               0.001397710               0.000000000               0.000000000               0.000000000               0.000000000              -0.000863502               0.006432881               0.000524000              -0.001127921               0.002520246               0.001392325               0.000000000               0.000000000               0.000000000               0.000000000              -0.000579293               0.006098153               0.000410532              -0.000979502               0.002359198               0.001379696               0.000000000               0.000000000               0.000000000               0.000000000              -0.000349786               0.005795351               0.000313349              -0.000855586               0.002216960               0.001361373               0.000000000               0.000000000               0.000000000               0.000000000              -0.000179525               0.005538056               0.000225878              -0.000759577               0.002099193               0.001339616               0.000000000               0.000000000               0.000000000               0.000000000              -0.000072740               0.005332430               0.000148922              -0.000693830               0.002008735               0.001314906               0.000000000               0.000000000               0.000000000               0.000000000              -0.000024303               0.005178597               0.000084527              -0.000656436               0.001944994               0.001288557               0.000000000               0.000000000               0.000000000               0.000000000              -0.000021624               0.005070856               0.000032966              -0.000641964               0.001904257               0.001262292               0.000000000               0.000000000               0.000000000               0.000000000              -0.000032898               0.005028810               0.000009953              -0.000640936               0.001889899               0.001248962               0.000000000               0.000000000               0.000000000               0.000000000              -0.002536859               0.002903875               0.000966101              -0.001314304               0.001406049               0.000091745               0.000000000               0.000000000               0.000000000               0.000000000              -0.002866097               0.004790382               0.001761916              -0.001673581               0.002154638               0.000481057               0.000000000               0.000000000               0.000000000               0.000000000              -0.003464634               0.006671091               0.002291575              -0.002133119               0.002934714               0.000801594               0.000000000               0.000000000               0.000000000               0.000000000              -0.003309802               0.007327987               0.002137115              -0.002157170               0.003161694               0.001004524               0.000000000               0.000000000               0.000000000               0.000000000              -0.002930912               0.007473507               0.001858755              -0.002033276               0.003168902               0.001135626               0.000000000               0.000000000               0.000000000               0.000000000              -0.002503480               0.007388709               0.001596308              -0.001862389               0.003083674               0.001221285               0.000000000               0.000000000               0.000000000               0.000000000              -0.002075567               0.007196618               0.001375318              -0.001677911               0.002958152               0.001280241               0.000000000               0.000000000               0.000000000               0.000000000              -0.001663233               0.006960529               0.001188377              -0.001493775               0.002818078               0.001324303               0.000000000               0.000000000               0.000000000               0.000000000              -0.001288261               0.006698744               0.001020165              -0.001320438               0.002673038               0.001352601               0.000000000               0.000000000               0.000000000               0.000000000              -0.000948152               0.006428417               0.000862070              -0.001159106               0.002529153               0.001370047               0.000000000               0.000000000               0.000000000               0.000000000              -0.000642893               0.006155871               0.000711078              -0.001010566               0.002388792               0.001378225               0.000000000               0.000000000               0.000000000               0.000000000              -0.000384425               0.005889747               0.000572491              -0.000880376               0.002256688               0.001376312               0.000000000               0.000000000               0.000000000               0.000000000              -0.000181277               0.005638857               0.000439760              -0.000772834               0.002137212               0.001364377               0.000000000               0.000000000               0.000000000               0.000000000              -0.000039816               0.005419907               0.000311853              -0.000692418               0.002037423               0.001345006               0.000000000               0.000000000               0.000000000               0.000000000               0.000029052               0.005237453               0.000191303              -0.000643785               0.001960395               0.001316610               0.000000000               0.000000000               0.000000000               0.000000000               0.000032250               0.005100922               0.000085035              -0.000625520               0.001908797               0.001283277               0.000000000               0.000000000               0.000000000               0.000000000               0.000008528               0.005039577               0.000032732              -0.000626748               0.001888758               0.001262010               0.000000000               0.000000000               0.000000000               0.000000000              -0.004304955               0.001407862               0.000177070              -0.001790338               0.001066060              -0.000724279               0.000000000               0.000000000               0.000000000               0.000000000              -0.003701469               0.003299357               0.001443473              -0.001800467               0.001699929              -0.000100538               0.000000000               0.000000000               0.000000000               0.000000000              -0.003637215               0.005140220               0.002439226              -0.002006479               0.002382215               0.000375736               0.000000000               0.000000000               0.000000000               0.000000000              -0.003310568               0.006038451               0.002477671              -0.001996265               0.002678218               0.000681952               0.000000000               0.000000000               0.000000000               0.000000000              -0.002896098               0.006454578               0.002259616              -0.001892855               0.002782456               0.000889600               0.000000000               0.000000000               0.000000000               0.000000000              -0.002467358               0.006610591               0.002001504              -0.001751579               0.002787368               0.001035788               0.000000000               0.000000000               0.000000000               0.000000000              -0.002051582               0.006616487               0.001766758              -0.001596401               0.002737607               0.001141206               0.000000000               0.000000000               0.000000000               0.000000000              -0.001652159               0.006536328               0.001557097              -0.001436597               0.002657620               0.001221022               0.000000000               0.000000000               0.000000000               0.000000000              -0.001279215               0.006403029               0.001364152              -0.001280082               0.002561015               0.001280934               0.000000000               0.000000000               0.000000000               0.000000000              -0.000937054               0.006238416               0.001186187              -0.001131195               0.002456516               0.001325321               0.000000000               0.000000000               0.000000000               0.000000000              -0.000619261               0.006055597               0.001017649              -0.000989170               0.002348236               0.001359065               0.000000000               0.000000000               0.000000000               0.000000000              -0.000330140               0.005859068               0.000856652              -0.000856184               0.002238398               0.001382214               0.000000000               0.000000000               0.000000000               0.000000000              -0.000088890               0.005652734               0.000692635              -0.000739924               0.002130867               0.001390943               0.000000000               0.000000000               0.000000000               0.000000000               0.000092918               0.005454282               0.000520458              -0.000646940               0.002033722               0.001386783               0.000000000               0.000000000               0.000000000               0.000000000               0.000203165               0.005275385               0.000342367              -0.000583235               0.001952856               0.001369621               0.000000000               0.000000000               0.000000000               0.000000000               0.000229135               0.005125823               0.000166445              -0.000554801               0.001893524               0.001338723               0.000000000               0.000000000               0.000000000               0.000000000               0.000203946               0.005049161               0.000075673              -0.000554664               0.001867925               0.001313261               0.000000000               0.000000000               0.000000000               0.000000000              -0.006181481               0.000310888              -0.000429419              -0.002356914               0.000889261              -0.001467653               0.000000000               0.000000000               0.000000000               0.000000000              -0.004618644               0.001977336               0.001069734              -0.001979155               0.001318821              -0.000660334               0.000000000               0.000000000               0.000000000               0.000000000              -0.003776197               0.003563933               0.002341501              -0.001861562               0.001808485              -0.000053077               0.000000000               0.000000000               0.000000000               0.000000000              -0.003192228               0.004570822               0.002555395              -0.001768435               0.002113069               0.000344634               0.000000000               0.000000000               0.000000000               0.000000000              -0.002704368               0.005197679               0.002429902              -0.001663845               0.002287156               0.000623312               0.000000000               0.000000000               0.000000000               0.000000000              -0.002268012               0.005576058               0.002211409              -0.001547509               0.002374503               0.000826994               0.000000000               0.000000000               0.000000000               0.000000000              -0.001866998               0.005783430               0.001991582              -0.001423050               0.002402140               0.000979090               0.000000000               0.000000000               0.000000000               0.000000000              -0.001494169               0.005872199               0.001784363              -0.001294336               0.002388825               0.001094489               0.000000000               0.000000000               0.000000000               0.000000000              -0.001135484               0.005887328               0.001589157              -0.001161720               0.002349663               0.001187943               0.000000000               0.000000000               0.000000000               0.000000000              -0.000793831               0.005851939               0.001408800              -0.001029177               0.002293685               0.001264509               0.000000000               0.000000000               0.000000000               0.000000000              -0.000468205               0.005779868               0.001243287              -0.000898059               0.002225956               0.001327897               0.000000000               0.000000000               0.000000000               0.000000000              -0.000159869               0.005676743               0.001081333              -0.000769542               0.002148743               0.001379200               0.000000000               0.000000000               0.000000000               0.000000000               0.000121524               0.005547912               0.000907038              -0.000647916               0.002065257               0.001417341               0.000000000               0.000000000               0.000000000               0.000000000               0.000361300               0.005403496               0.000715111              -0.000539948               0.001981130               0.001441182               0.000000000               0.000000000               0.000000000               0.000000000               0.000542352               0.005259404               0.000499545              -0.000454042               0.001904465               0.001450422               0.000000000               0.000000000               0.000000000               0.000000000               0.000643106               0.005126088               0.000259381              -0.000399595               0.001841877               0.001442282               0.000000000               0.000000000               0.000000000               0.000000000               0.000663323               0.005056408               0.000132902              -0.000383304               0.001813220               0.001429916               0.000000000               0.000000000               0.000000000               0.000000000              -0.007978344              -0.000391405              -0.000748228              -0.002942951               0.000850509              -0.002092442               0.000000000               0.000000000               0.000000000               0.000000000              -0.005532535               0.000910929               0.000704574              -0.002188565               0.001033157              -0.001155407               0.000000000               0.000000000               0.000000000               0.000000000              -0.003902437               0.002104084               0.001999629              -0.001726422               0.001276826              -0.000449596               0.000000000               0.000000000               0.000000000               0.000000000              -0.003007563               0.003100312               0.002317938              -0.001515372               0.001538549               0.000023177               0.000000000               0.000000000               0.000000000               0.000000000              -0.002412071               0.003855333               0.002282037              -0.001386441               0.001747244               0.000360803               0.000000000               0.000000000               0.000000000               0.000000000              -0.001948943               0.004408272               0.002126582              -0.001281885               0.001896703               0.000614818               0.000000000               0.000000000               0.000000000               0.000000000              -0.001556581               0.004798417               0.001945362              -0.001183518               0.001993962               0.000810444               0.000000000               0.000000000               0.000000000               0.000000000              -0.001206046               0.005053227               0.001766552              -0.001083919               0.002045698               0.000961779               0.000000000               0.000000000               0.000000000               0.000000000              -0.000868854               0.005213091               0.001596233              -0.000977455               0.002063498               0.001086043               0.000000000               0.000000000               0.000000000               0.000000000              -0.000534429               0.005310529               0.001437303              -0.000864225               0.002058233               0.001194008               0.000000000               0.000000000               0.000000000               0.000000000              -0.000203264               0.005360515               0.001290420              -0.000746287               0.002035582               0.001289295               0.000000000               0.000000000               0.000000000               0.000000000               0.000118827               0.005366876               0.001145369              -0.000626298               0.001997707               0.001371408               0.000000000               0.000000000               0.000000000               0.000000000               0.000436743               0.005339173               0.000988892              -0.000503617               0.001947579               0.001443962               0.000000000               0.000000000               0.000000000               0.000000000               0.000744635               0.005280127               0.000806809              -0.000380777               0.001886950               0.001506173               0.000000000               0.000000000               0.000000000               0.000000000               0.001024566               0.005197088               0.000587512              -0.000265423               0.001820820               0.001555397               0.000000000               0.000000000               0.000000000               0.000000000               0.001258992               0.005103110               0.000319856              -0.000165766               0.001756275               0.001590509               0.000000000               0.000000000               0.000000000               0.000000000               0.001388907               0.005063045               0.000178181              -0.000112040               0.001725012               0.001612971               0.000000000               0.000000000               0.000000000               0.000000000              -0.009491995              -0.000785070              -0.000739477              -0.003461362               0.000892091              -0.002569271               0.000000000               0.000000000               0.000000000               0.000000000              -0.006327952               0.000137788               0.000403181              -0.002390203               0.000842658              -0.001547545               0.000000000               0.000000000               0.000000000               0.000000000              -0.004018385               0.000922165               0.001453136              -0.001622163               0.000848103              -0.000774060               0.000000000               0.000000000               0.000000000               0.000000000              -0.002819258               0.001836262               0.001764792              -0.001286753               0.001040997              -0.000245756               0.000000000               0.000000000               0.000000000               0.000000000              -0.002100986               0.002645921               0.001785186              -0.001118608               0.001254833               0.000136225               0.000000000               0.000000000               0.000000000               0.000000000              -0.001602514               0.003312788               0.001693808              -0.001015040               0.001442597               0.000427558               0.000000000               0.000000000               0.000000000               0.000000000              -0.001210859               0.003839276               0.001567760              -0.000933980               0.001591072               0.000657092               0.000000000               0.000000000               0.000000000               0.000000000              -0.000873647               0.004230309               0.001438635              -0.000856405               0.001695557               0.000839152               0.000000000               0.000000000               0.000000000               0.000000000              -0.000554321               0.004516201               0.001313802              -0.000772394               0.001762850               0.000990455               0.000000000               0.000000000               0.000000000               0.000000000              -0.000233008               0.004736143               0.001195413              -0.000679395               0.001805163               0.001125768               0.000000000               0.000000000               0.000000000               0.000000000               0.000095989               0.004898632               0.001085279              -0.000576332               0.001824971               0.001248639               0.000000000               0.000000000               0.000000000               0.000000000               0.000433638               0.005009770               0.000976394              -0.000463607               0.001824442               0.001360836               0.000000000               0.000000000               0.000000000               0.000000000               0.000786061               0.005085812               0.000859527              -0.000340953               0.001808905               0.001467952               0.000000000               0.000000000               0.000000000               0.000000000               0.001159079               0.005122452               0.000718539              -0.000205652               0.001776017               0.001570366               0.000000000               0.000000000               0.000000000               0.000000000               0.001554151               0.005116651               0.000537960              -0.000056775               0.001724458               0.001667683               0.000000000               0.000000000               0.000000000               0.000000000               0.001962333               0.005072274               0.000299891               0.000101839               0.001656795               0.001758634               0.000000000               0.000000000               0.000000000               0.000000000               0.002250304               0.005070530               0.000174855               0.000210046               0.001620144               0.001830190               0.000000000               0.000000000               0.000000000               0.000000000              -0.010506980              -0.000967253              -0.000455199              -0.003819208               0.000950645              -0.002868563               0.000000000               0.000000000               0.000000000               0.000000000              -0.006875215              -0.000329716               0.000174448              -0.002536989               0.000735753              -0.001801236               0.000000000               0.000000000               0.000000000               0.000000000              -0.004104734               0.000151317               0.000762453              -0.001558189               0.000569831              -0.000988358               0.000000000               0.000000000               0.000000000               0.000000000              -0.002690038               0.000980934               0.000953389              -0.001131379               0.000704099              -0.000427280               0.000000000               0.000000000               0.000000000               0.000000000              -0.001874405               0.001801465               0.000981236              -0.000928083               0.000909843              -0.000018241               0.000000000               0.000000000               0.000000000               0.000000000              -0.001338798               0.002522783               0.000942663              -0.000817395               0.001113384               0.000295989               0.000000000               0.000000000               0.000000000               0.000000000              -0.000938372               0.003125967               0.000879694              -0.000742634               0.001289523               0.000546889               0.000000000               0.000000000               0.000000000               0.000000000              -0.000606923               0.003606895               0.000812808              -0.000678457               0.001428439               0.000749982               0.000000000               0.000000000               0.000000000               0.000000000              -0.000304544               0.003981083               0.000747464              -0.000611838               0.001530960               0.000919122               0.000000000               0.000000000               0.000000000               0.000000000               0.000002004               0.004286550               0.000683931              -0.000535066               0.001607191               0.001072125               0.000000000               0.000000000               0.000000000               0.000000000               0.000326730               0.004537487               0.000625131              -0.000444661               0.001660701               0.001216039               0.000000000               0.000000000               0.000000000               0.000000000               0.000675099               0.004729570               0.000566404              -0.000338034               0.001689185               0.001351152               0.000000000               0.000000000               0.000000000               0.000000000               0.001057809               0.004877307               0.000503127              -0.000212985               0.001696748               0.001483763               0.000000000               0.000000000               0.000000000               0.000000000               0.001486893               0.004984261               0.000428026              -0.000065448               0.001683220               0.001617772               0.000000000               0.000000000               0.000000000               0.000000000               0.001976583               0.005039582               0.000325310               0.000111269               0.001642754               0.001754023               0.000000000               0.000000000               0.000000000               0.000000000               0.002543189               0.005038730               0.000180997               0.000323851               0.001571609               0.001895461               0.000000000               0.000000000               0.000000000               0.000000000               0.002984326               0.005072538               0.000106522               0.000485050               0.001529146               0.002014196               0.000000000               0.000000000               0.000000000               0.000000000               0.000000000               0.000000000               0.000000000               0.000000000               0.000000000               0.000000000               0.000000000               0.000000000               0.000000000               0.000000000               0.000000000               0.000000000               0.000000000               0.000000000               0.000000000               0.000000000               0.000000000               0.000000000               0.000000000               0.000000000               0.000000000               0.000000000               0.000000000               0.000000000               0.000000000               0.000000000               0.000000000               0.000000000               0.000000000               0.000000000               0.000000000               0.000000000               0.000000000               0.000000000               0.000000000               0.000000000               0.000000000               0.000000000               0.000000000               0.000000000               0.000000000               0.000000000               0.000000000               0.000000000               0.000000000               0.000000000               0.000000000               0.000000000               0.000000000               0.000000000               0.000000000               0.000000000               0.000000000               0.000000000               0.000000000               0.000000000               0.000000000               0.000000000               0.000000000               0.000000000               0.000000000               0.000000000               0.000000000               0.000000000               0.000000000               0.000000000               0.000000000               0.000000000               0.000000000               0.000000000               0.000000000               0.000000000               0.000000000               0.000000000               0.000000000               0.000000000               0.000000000               0.000000000               0.000000000               0.000000000               0.000000000               0.000000000               0.000000000               0.000000000               0.000000000               0.000000000               0.000000000               0.000000000               0.000000000               0.000000000               0.000000000               0.000000000               0.000000000               0.000000000               0.000000000               0.000000000               0.000000000               0.000000000               0.000000000               0.000000000               0.000000000               0.000000000               0.000000000               0.000000000               0.000000000               0.000000000               0.000000000               0.000000000               0.000000000               0.000000000               0.000000000               0.000000000               0.000000000               0.000000000               0.000000000               0.000000000               0.000000000               0.000000000               0.000000000               0.000000000               0.000000000               0.000000000               0.000000000               0.000000000               0.000000000               0.000000000               0.000000000               0.000000000               0.000000000               0.000000000               0.000000000               0.000000000               0.000000000               0.000000000               0.000000000               0.000000000               0.000000000               0.000000000               0.000000000               0.000000000               0.000000000               0.000000000               0.000000000               0.000000000               0.000000000               0.000000000               0.000000000               0.000000000               0.000000000               0.000000000               0.000000000               0.000000000               0.000000000               0.000000000               0.000000000               0.000000000               0.000000000               0.000000000               0.000000000               0.000000000               0.000000000               0.000000000               0.000000000               0.000000000               0.000000000               0.000000000               0.000000000               0.000000000               0.000000000               0.000000000 </DataArray>
</PointData>
</Piece>
</UnstructuredGrid> </VTKFile>
