<?xml version="1.0"?>
<VTKFile type="UnstructuredGrid" version="0.1">
<UnstructuredGrid>
<Piece NumberOfPoints="      1156" NumberOfCells="      1024">
<Points>
<DataArray type="Float64"                                    Name="coordinates"                                                      NumberOfComponents=" 3" format="ascii">
              0.133000000               0.000000000               0.000000000               0.155937500               0.000000000               0.000000000               0.178875000               0.000000000               0.000000000               0.201812500               0.000000000               0.000000000               0.224750000               0.000000000               0.000000000               0.247687500               0.000000000               0.000000000               0.270625000               0.000000000               0.000000000               0.293562500               0.000000000               0.000000000               0.316500000               0.000000000               0.000000000               0.339437500               0.000000000               0.000000000               0.362375000               0.000000000               0.000000000               0.385312500               0.000000000               0.000000000               0.408250000               0.000000000               0.000000000               0.431187500               0.000000000               0.000000000               0.454125000               0.000000000               0.000000000               0.477062500               0.000000000               0.000000000               0.500000000               0.000000000               0.000000000               0.132359569               0.013036280               0.000000000               0.155337096               0.016127762               0.000000000               0.178314623               0.019219245               0.000000000               0.201292150               0.022310727               0.000000000               0.224269676               0.025402210               0.000000000               0.247247203               0.028493692               0.000000000               0.270224730               0.031585175               0.000000000               0.293202257               0.034676657               0.000000000               0.316179784               0.037768140               0.000000000               0.339157311               0.040859622               0.000000000               0.362134838               0.043951105               0.000000000               0.385112365               0.047042587               0.000000000               0.408089892               0.050134070               0.000000000               0.431067419               0.053225552               0.000000000               0.454044946               0.056317035               0.000000000               0.477022473               0.059408517               0.000000000               0.500000000               0.062500000               0.000000000               0.130444442               0.025947013               0.000000000               0.153541665               0.032137825               0.000000000               0.176638887               0.038328636               0.000000000               0.199736109               0.044519448               0.000000000               0.222833332               0.050710260               0.000000000               0.245930554               0.056901071               0.000000000               0.269027776               0.063091883               0.000000000               0.292124999               0.069282695               0.000000000               0.315222221               0.075473506               0.000000000               0.338319444               0.081664318               0.000000000               0.361416666               0.087855130               0.000000000               0.384513888               0.094045942               0.000000000               0.407611111               0.100236753               0.000000000               0.430708333               0.106427565               0.000000000               0.453805555               0.112618377               0.000000000               0.476902778               0.118809188               0.000000000               0.500000000               0.125000000               0.000000000               0.127273065               0.038607862               0.000000000               0.150568498               0.047913621               0.000000000               0.173863932               0.057219379               0.000000000               0.197159365               0.066525138               0.000000000               0.220454798               0.075830897               0.000000000               0.243750232               0.085136655               0.000000000               0.267045665               0.094442414               0.000000000               0.290341099               0.103748172               0.000000000               0.313636532               0.113053931               0.000000000               0.336931966               0.122359690               0.000000000               0.360227399               0.131665448               0.000000000               0.383522833               0.140971207               0.000000000               0.406818266               0.150276966               0.000000000               0.430113700               0.159582724               0.000000000               0.453409133               0.168888483               0.000000000               0.476704567               0.178194241               0.000000000               0.500000000               0.187500000               0.000000000               0.122875978               0.050896897               0.000000000               0.146446229               0.063340840               0.000000000               0.170016481               0.075784784               0.000000000               0.193586732               0.088228728               0.000000000               0.217156983               0.100672672               0.000000000               0.240727235               0.113116616               0.000000000               0.264297486               0.125560560               0.000000000               0.287867738               0.138004504               0.000000000               0.311437989               0.150448448               0.000000000               0.335008240               0.162892392               0.000000000               0.358578492               0.175336336               0.000000000               0.382148743               0.187780280               0.000000000               0.405718994               0.200224224               0.000000000               0.429289246               0.212668168               0.000000000               0.452859497               0.225112112               0.000000000               0.476429749               0.237556056               0.000000000               0.500000000               0.250000000               0.000000000               0.117295528               0.062695766               0.000000000               0.141214558               0.078308531               0.000000000               0.165133587               0.093921295               0.000000000               0.189052617               0.109534060               0.000000000               0.212971646               0.125146824               0.000000000               0.236890676               0.140759589               0.000000000               0.260809705               0.156372354               0.000000000               0.284728735               0.171985118               0.000000000               0.308647764               0.187597883               0.000000000               0.332566794               0.203210648               0.000000000               0.356485823               0.218823412               0.000000000               0.380404853               0.234436177               0.000000000               0.404323882               0.250048941               0.000000000               0.428242912               0.265661706               0.000000000               0.452161941               0.281274471               0.000000000               0.476080971               0.296887235               0.000000000               0.500000000               0.312500000               0.000000000               0.110585458               0.073890841               0.000000000               0.134923867               0.092710163               0.000000000               0.159262276               0.111529486               0.000000000               0.183600685               0.130348808               0.000000000               0.207939094               0.149168131               0.000000000               0.232277503               0.167987453               0.000000000               0.256615912               0.186806776               0.000000000               0.280954320               0.205626098               0.000000000               0.305292729               0.224445420               0.000000000               0.329631138               0.243264743               0.000000000               0.353969547               0.262084065               0.000000000               0.378307956               0.280903388               0.000000000               0.402646365               0.299722710               0.000000000               0.426984773               0.318542033               0.000000000               0.451323182               0.337361355               0.000000000               0.475661591               0.356180678               0.000000000               0.500000000               0.375000000               0.000000000               0.102810390               0.084374307               0.000000000               0.127634741               0.106444663               0.000000000               0.152459092               0.128515018               0.000000000               0.177283442               0.150585374               0.000000000               0.202107793               0.172655730               0.000000000               0.226932143               0.194726086               0.000000000               0.251756494               0.216796442               0.000000000               0.276580845               0.238866798               0.000000000               0.301405195               0.260937153               0.000000000               0.326229546               0.283007509               0.000000000               0.351053896               0.305077865               0.000000000               0.375878247               0.327148221               0.000000000               0.400702598               0.349218577               0.000000000               0.425526948               0.371288933               0.000000000               0.450351299               0.393359288               0.000000000               0.475175649               0.415429644               0.000000000               0.500000000               0.437500000               0.000000000               0.094045202               0.094045202               0.000000000               0.119417377               0.119417377               0.000000000               0.144789552               0.144789552               0.000000000               0.170161727               0.170161727               0.000000000               0.195533901               0.195533901               0.000000000               0.220906076               0.220906076               0.000000000               0.246278251               0.246278251               0.000000000               0.271650426               0.271650426               0.000000000               0.297022601               0.297022601               0.000000000               0.322394776               0.322394776               0.000000000               0.347766951               0.347766951               0.000000000               0.373139126               0.373139126               0.000000000               0.398511300               0.398511300               0.000000000               0.423883475               0.423883475               0.000000000               0.449255650               0.449255650               0.000000000               0.474627825               0.474627825               0.000000000               0.500000000               0.500000000               0.000000000               0.084374307               0.102810390               0.000000000               0.106444663               0.127634741               0.000000000               0.128515018               0.152459092               0.000000000               0.150585374               0.177283442               0.000000000               0.172655730               0.202107793               0.000000000               0.194726086               0.226932143               0.000000000               0.216796442               0.251756494               0.000000000               0.238866798               0.276580845               0.000000000               0.260937153               0.301405195               0.000000000               0.283007509               0.326229546               0.000000000               0.305077865               0.351053896               0.000000000               0.327148221               0.375878247               0.000000000               0.349218577               0.400702598               0.000000000               0.371288933               0.425526948               0.000000000               0.393359288               0.450351299               0.000000000               0.415429644               0.475175649               0.000000000               0.437500000               0.500000000               0.000000000               0.073890841               0.110585458               0.000000000               0.092710163               0.134923867               0.000000000               0.111529486               0.159262276               0.000000000               0.130348808               0.183600685               0.000000000               0.149168131               0.207939094               0.000000000               0.167987453               0.232277503               0.000000000               0.186806776               0.256615912               0.000000000               0.205626098               0.280954320               0.000000000               0.224445420               0.305292729               0.000000000               0.243264743               0.329631138               0.000000000               0.262084065               0.353969547               0.000000000               0.280903388               0.378307956               0.000000000               0.299722710               0.402646365               0.000000000               0.318542033               0.426984773               0.000000000               0.337361355               0.451323182               0.000000000               0.356180678               0.475661591               0.000000000               0.375000000               0.500000000               0.000000000               0.062695766               0.117295528               0.000000000               0.078308531               0.141214558               0.000000000               0.093921295               0.165133587               0.000000000               0.109534060               0.189052617               0.000000000               0.125146824               0.212971646               0.000000000               0.140759589               0.236890676               0.000000000               0.156372354               0.260809705               0.000000000               0.171985118               0.284728735               0.000000000               0.187597883               0.308647764               0.000000000               0.203210648               0.332566794               0.000000000               0.218823412               0.356485823               0.000000000               0.234436177               0.380404853               0.000000000               0.250048941               0.404323882               0.000000000               0.265661706               0.428242912               0.000000000               0.281274471               0.452161941               0.000000000               0.296887235               0.476080971               0.000000000               0.312500000               0.500000000               0.000000000               0.050896897               0.122875978               0.000000000               0.063340840               0.146446229               0.000000000               0.075784784               0.170016481               0.000000000               0.088228728               0.193586732               0.000000000               0.100672672               0.217156983               0.000000000               0.113116616               0.240727235               0.000000000               0.125560560               0.264297486               0.000000000               0.138004504               0.287867738               0.000000000               0.150448448               0.311437989               0.000000000               0.162892392               0.335008240               0.000000000               0.175336336               0.358578492               0.000000000               0.187780280               0.382148743               0.000000000               0.200224224               0.405718994               0.000000000               0.212668168               0.429289246               0.000000000               0.225112112               0.452859497               0.000000000               0.237556056               0.476429749               0.000000000               0.250000000               0.500000000               0.000000000               0.038607862               0.127273065               0.000000000               0.047913621               0.150568498               0.000000000               0.057219379               0.173863932               0.000000000               0.066525138               0.197159365               0.000000000               0.075830897               0.220454798               0.000000000               0.085136655               0.243750232               0.000000000               0.094442414               0.267045665               0.000000000               0.103748172               0.290341099               0.000000000               0.113053931               0.313636532               0.000000000               0.122359690               0.336931966               0.000000000               0.131665448               0.360227399               0.000000000               0.140971207               0.383522833               0.000000000               0.150276966               0.406818266               0.000000000               0.159582724               0.430113700               0.000000000               0.168888483               0.453409133               0.000000000               0.178194241               0.476704567               0.000000000               0.187500000               0.500000000               0.000000000               0.025947013               0.130444442               0.000000000               0.032137825               0.153541665               0.000000000               0.038328636               0.176638887               0.000000000               0.044519448               0.199736109               0.000000000               0.050710260               0.222833332               0.000000000               0.056901071               0.245930554               0.000000000               0.063091883               0.269027776               0.000000000               0.069282695               0.292124999               0.000000000               0.075473506               0.315222221               0.000000000               0.081664318               0.338319444               0.000000000               0.087855130               0.361416666               0.000000000               0.094045942               0.384513888               0.000000000               0.100236753               0.407611111               0.000000000               0.106427565               0.430708333               0.000000000               0.112618377               0.453805555               0.000000000               0.118809188               0.476902778               0.000000000               0.125000000               0.500000000               0.000000000               0.013036280               0.132359569               0.000000000               0.016127762               0.155337096               0.000000000               0.019219245               0.178314623               0.000000000               0.022310727               0.201292150               0.000000000               0.025402210               0.224269676               0.000000000               0.028493692               0.247247203               0.000000000               0.031585175               0.270224730               0.000000000               0.034676657               0.293202257               0.000000000               0.037768140               0.316179784               0.000000000               0.040859622               0.339157311               0.000000000               0.043951105               0.362134838               0.000000000               0.047042587               0.385112365               0.000000000               0.050134070               0.408089892               0.000000000               0.053225552               0.431067419               0.000000000               0.056317035               0.454044946               0.000000000               0.059408517               0.477022473               0.000000000               0.062500000               0.500000000               0.000000000               0.000000000               0.133000000               0.000000000               0.000000000               0.155937500               0.000000000               0.000000000               0.178875000               0.000000000               0.000000000               0.201812500               0.000000000               0.000000000               0.224750000               0.000000000               0.000000000               0.247687500               0.000000000               0.000000000               0.270625000               0.000000000               0.000000000               0.293562500               0.000000000               0.000000000               0.316500000               0.000000000               0.000000000               0.339437500               0.000000000               0.000000000               0.362375000               0.000000000               0.000000000               0.385312500               0.000000000               0.000000000               0.408250000               0.000000000               0.000000000               0.431187500               0.000000000               0.000000000               0.454125000               0.000000000               0.000000000               0.477062500               0.000000000               0.000000000               0.500000000               0.000000000               0.133000000               0.000000000               0.000000000               0.155937500               0.000000000               0.000000000               0.178875000               0.000000000               0.000000000               0.201812500               0.000000000               0.000000000               0.224750000               0.000000000               0.000000000               0.247687500               0.000000000               0.000000000               0.270625000               0.000000000               0.000000000               0.293562500               0.000000000               0.000000000               0.316500000               0.000000000               0.000000000               0.339437500               0.000000000               0.000000000               0.362375000               0.000000000               0.000000000               0.385312500               0.000000000               0.000000000               0.408250000               0.000000000               0.000000000               0.431187500               0.000000000               0.000000000               0.454125000               0.000000000               0.000000000               0.477062500               0.000000000               0.000000000               0.500000000               0.000000000               0.000000000               0.132359569              -0.013036280               0.000000000               0.155337096              -0.016127762               0.000000000               0.178314623              -0.019219245               0.000000000               0.201292150              -0.022310727               0.000000000               0.224269676              -0.025402210               0.000000000               0.247247203              -0.028493692               0.000000000               0.270224730              -0.031585175               0.000000000               0.293202257              -0.034676657               0.000000000               0.316179784              -0.037768140               0.000000000               0.339157311              -0.040859622               0.000000000               0.362134838              -0.043951105               0.000000000               0.385112365              -0.047042587               0.000000000               0.408089892              -0.050134070               0.000000000               0.431067419              -0.053225552               0.000000000               0.454044946              -0.056317035               0.000000000               0.477022473              -0.059408517               0.000000000               0.500000000              -0.062500000               0.000000000               0.130444442              -0.025947013               0.000000000               0.153541665              -0.032137825               0.000000000               0.176638887              -0.038328636               0.000000000               0.199736109              -0.044519448               0.000000000               0.222833332              -0.050710260               0.000000000               0.245930554              -0.056901071               0.000000000               0.269027776              -0.063091883               0.000000000               0.292124999              -0.069282695               0.000000000               0.315222221              -0.075473506               0.000000000               0.338319444              -0.081664318               0.000000000               0.361416666              -0.087855130               0.000000000               0.384513888              -0.094045942               0.000000000               0.407611111              -0.100236753               0.000000000               0.430708333              -0.106427565               0.000000000               0.453805555              -0.112618377               0.000000000               0.476902778              -0.118809188               0.000000000               0.500000000              -0.125000000               0.000000000               0.127273065              -0.038607862               0.000000000               0.150568498              -0.047913621               0.000000000               0.173863932              -0.057219379               0.000000000               0.197159365              -0.066525138               0.000000000               0.220454798              -0.075830897               0.000000000               0.243750232              -0.085136655               0.000000000               0.267045665              -0.094442414               0.000000000               0.290341099              -0.103748172               0.000000000               0.313636532              -0.113053931               0.000000000               0.336931966              -0.122359690               0.000000000               0.360227399              -0.131665448               0.000000000               0.383522833              -0.140971207               0.000000000               0.406818266              -0.150276966               0.000000000               0.430113700              -0.159582724               0.000000000               0.453409133              -0.168888483               0.000000000               0.476704567              -0.178194241               0.000000000               0.500000000              -0.187500000               0.000000000               0.122875978              -0.050896897               0.000000000               0.146446229              -0.063340840               0.000000000               0.170016481              -0.075784784               0.000000000               0.193586732              -0.088228728               0.000000000               0.217156983              -0.100672672               0.000000000               0.240727235              -0.113116616               0.000000000               0.264297486              -0.125560560               0.000000000               0.287867738              -0.138004504               0.000000000               0.311437989              -0.150448448               0.000000000               0.335008240              -0.162892392               0.000000000               0.358578492              -0.175336336               0.000000000               0.382148743              -0.187780280               0.000000000               0.405718994              -0.200224224               0.000000000               0.429289246              -0.212668168               0.000000000               0.452859497              -0.225112112               0.000000000               0.476429749              -0.237556056               0.000000000               0.500000000              -0.250000000               0.000000000               0.117295528              -0.062695766               0.000000000               0.141214558              -0.078308531               0.000000000               0.165133587              -0.093921295               0.000000000               0.189052617              -0.109534060               0.000000000               0.212971646              -0.125146824               0.000000000               0.236890676              -0.140759589               0.000000000               0.260809705              -0.156372354               0.000000000               0.284728735              -0.171985118               0.000000000               0.308647764              -0.187597883               0.000000000               0.332566794              -0.203210648               0.000000000               0.356485823              -0.218823412               0.000000000               0.380404853              -0.234436177               0.000000000               0.404323882              -0.250048941               0.000000000               0.428242912              -0.265661706               0.000000000               0.452161941              -0.281274471               0.000000000               0.476080971              -0.296887235               0.000000000               0.500000000              -0.312500000               0.000000000               0.110585458              -0.073890841               0.000000000               0.134923867              -0.092710163               0.000000000               0.159262276              -0.111529486               0.000000000               0.183600685              -0.130348808               0.000000000               0.207939094              -0.149168131               0.000000000               0.232277503              -0.167987453               0.000000000               0.256615912              -0.186806776               0.000000000               0.280954320              -0.205626098               0.000000000               0.305292729              -0.224445420               0.000000000               0.329631138              -0.243264743               0.000000000               0.353969547              -0.262084065               0.000000000               0.378307956              -0.280903388               0.000000000               0.402646365              -0.299722710               0.000000000               0.426984773              -0.318542033               0.000000000               0.451323182              -0.337361355               0.000000000               0.475661591              -0.356180678               0.000000000               0.500000000              -0.375000000               0.000000000               0.102810390              -0.084374307               0.000000000               0.127634741              -0.106444663               0.000000000               0.152459092              -0.128515018               0.000000000               0.177283442              -0.150585374               0.000000000               0.202107793              -0.172655730               0.000000000               0.226932143              -0.194726086               0.000000000               0.251756494              -0.216796442               0.000000000               0.276580845              -0.238866798               0.000000000               0.301405195              -0.260937153               0.000000000               0.326229546              -0.283007509               0.000000000               0.351053896              -0.305077865               0.000000000               0.375878247              -0.327148221               0.000000000               0.400702598              -0.349218577               0.000000000               0.425526948              -0.371288933               0.000000000               0.450351299              -0.393359288               0.000000000               0.475175649              -0.415429644               0.000000000               0.500000000              -0.437500000               0.000000000               0.094045202              -0.094045202               0.000000000               0.119417377              -0.119417377               0.000000000               0.144789552              -0.144789552               0.000000000               0.170161727              -0.170161727               0.000000000               0.195533901              -0.195533901               0.000000000               0.220906076              -0.220906076               0.000000000               0.246278251              -0.246278251               0.000000000               0.271650426              -0.271650426               0.000000000               0.297022601              -0.297022601               0.000000000               0.322394776              -0.322394776               0.000000000               0.347766951              -0.347766951               0.000000000               0.373139126              -0.373139126               0.000000000               0.398511300              -0.398511300               0.000000000               0.423883475              -0.423883475               0.000000000               0.449255650              -0.449255650               0.000000000               0.474627825              -0.474627825               0.000000000               0.500000000              -0.500000000               0.000000000               0.084374307              -0.102810390               0.000000000               0.106444663              -0.127634741               0.000000000               0.128515018              -0.152459092               0.000000000               0.150585374              -0.177283442               0.000000000               0.172655730              -0.202107793               0.000000000               0.194726086              -0.226932143               0.000000000               0.216796442              -0.251756494               0.000000000               0.238866798              -0.276580845               0.000000000               0.260937153              -0.301405195               0.000000000               0.283007509              -0.326229546               0.000000000               0.305077865              -0.351053896               0.000000000               0.327148221              -0.375878247               0.000000000               0.349218577              -0.400702598               0.000000000               0.371288933              -0.425526948               0.000000000               0.393359288              -0.450351299               0.000000000               0.415429644              -0.475175649               0.000000000               0.437500000              -0.500000000               0.000000000               0.073890841              -0.110585458               0.000000000               0.092710163              -0.134923867               0.000000000               0.111529486              -0.159262276               0.000000000               0.130348808              -0.183600685               0.000000000               0.149168131              -0.207939094               0.000000000               0.167987453              -0.232277503               0.000000000               0.186806776              -0.256615912               0.000000000               0.205626098              -0.280954320               0.000000000               0.224445420              -0.305292729               0.000000000               0.243264743              -0.329631138               0.000000000               0.262084065              -0.353969547               0.000000000               0.280903388              -0.378307956               0.000000000               0.299722710              -0.402646365               0.000000000               0.318542033              -0.426984773               0.000000000               0.337361355              -0.451323182               0.000000000               0.356180678              -0.475661591               0.000000000               0.375000000              -0.500000000               0.000000000               0.062695766              -0.117295528               0.000000000               0.078308531              -0.141214558               0.000000000               0.093921295              -0.165133587               0.000000000               0.109534060              -0.189052617               0.000000000               0.125146824              -0.212971646               0.000000000               0.140759589              -0.236890676               0.000000000               0.156372354              -0.260809705               0.000000000               0.171985118              -0.284728735               0.000000000               0.187597883              -0.308647764               0.000000000               0.203210648              -0.332566794               0.000000000               0.218823412              -0.356485823               0.000000000               0.234436177              -0.380404853               0.000000000               0.250048941              -0.404323882               0.000000000               0.265661706              -0.428242912               0.000000000               0.281274471              -0.452161941               0.000000000               0.296887235              -0.476080971               0.000000000               0.312500000              -0.500000000               0.000000000               0.050896897              -0.122875978               0.000000000               0.063340840              -0.146446229               0.000000000               0.075784784              -0.170016481               0.000000000               0.088228728              -0.193586732               0.000000000               0.100672672              -0.217156983               0.000000000               0.113116616              -0.240727235               0.000000000               0.125560560              -0.264297486               0.000000000               0.138004504              -0.287867738               0.000000000               0.150448448              -0.311437989               0.000000000               0.162892392              -0.335008240               0.000000000               0.175336336              -0.358578492               0.000000000               0.187780280              -0.382148743               0.000000000               0.200224224              -0.405718994               0.000000000               0.212668168              -0.429289246               0.000000000               0.225112112              -0.452859497               0.000000000               0.237556056              -0.476429749               0.000000000               0.250000000              -0.500000000               0.000000000               0.038607862              -0.127273065               0.000000000               0.047913621              -0.150568498               0.000000000               0.057219379              -0.173863932               0.000000000               0.066525138              -0.197159365               0.000000000               0.075830897              -0.220454798               0.000000000               0.085136655              -0.243750232               0.000000000               0.094442414              -0.267045665               0.000000000               0.103748172              -0.290341099               0.000000000               0.113053931              -0.313636532               0.000000000               0.122359690              -0.336931966               0.000000000               0.131665448              -0.360227399               0.000000000               0.140971207              -0.383522833               0.000000000               0.150276966              -0.406818266               0.000000000               0.159582724              -0.430113700               0.000000000               0.168888483              -0.453409133               0.000000000               0.178194241              -0.476704567               0.000000000               0.187500000              -0.500000000               0.000000000               0.025947013              -0.130444442               0.000000000               0.032137825              -0.153541665               0.000000000               0.038328636              -0.176638887               0.000000000               0.044519448              -0.199736109               0.000000000               0.050710260              -0.222833332               0.000000000               0.056901071              -0.245930554               0.000000000               0.063091883              -0.269027776               0.000000000               0.069282695              -0.292124999               0.000000000               0.075473506              -0.315222221               0.000000000               0.081664318              -0.338319444               0.000000000               0.087855130              -0.361416666               0.000000000               0.094045942              -0.384513888               0.000000000               0.100236753              -0.407611111               0.000000000               0.106427565              -0.430708333               0.000000000               0.112618377              -0.453805555               0.000000000               0.118809188              -0.476902778               0.000000000               0.125000000              -0.500000000               0.000000000               0.013036280              -0.132359569               0.000000000               0.016127762              -0.155337096               0.000000000               0.019219245              -0.178314623               0.000000000               0.022310727              -0.201292150               0.000000000               0.025402210              -0.224269676               0.000000000               0.028493692              -0.247247203               0.000000000               0.031585175              -0.270224730               0.000000000               0.034676657              -0.293202257               0.000000000               0.037768140              -0.316179784               0.000000000               0.040859622              -0.339157311               0.000000000               0.043951105              -0.362134838               0.000000000               0.047042587              -0.385112365               0.000000000               0.050134070              -0.408089892               0.000000000               0.053225552              -0.431067419               0.000000000               0.056317035              -0.454044946               0.000000000               0.059408517              -0.477022473               0.000000000               0.062500000              -0.500000000               0.000000000               0.000000000              -0.133000000               0.000000000               0.000000000              -0.155937500               0.000000000               0.000000000              -0.178875000               0.000000000               0.000000000              -0.201812500               0.000000000               0.000000000              -0.224750000               0.000000000               0.000000000              -0.247687500               0.000000000               0.000000000              -0.270625000               0.000000000               0.000000000              -0.293562500               0.000000000               0.000000000              -0.316500000               0.000000000               0.000000000              -0.339437500               0.000000000               0.000000000              -0.362375000               0.000000000               0.000000000              -0.385312500               0.000000000               0.000000000              -0.408250000               0.000000000               0.000000000              -0.431187500               0.000000000               0.000000000              -0.454125000               0.000000000               0.000000000              -0.477062500               0.000000000               0.000000000              -0.500000000               0.000000000              -0.133000000               0.000000000               0.000000000              -0.155937500               0.000000000               0.000000000              -0.178875000               0.000000000               0.000000000              -0.201812500               0.000000000               0.000000000              -0.224750000               0.000000000               0.000000000              -0.247687500               0.000000000               0.000000000              -0.270625000               0.000000000               0.000000000              -0.293562500               0.000000000               0.000000000              -0.316500000               0.000000000               0.000000000              -0.339437500               0.000000000               0.000000000              -0.362375000               0.000000000               0.000000000              -0.385312500               0.000000000               0.000000000              -0.408250000               0.000000000               0.000000000              -0.431187500               0.000000000               0.000000000              -0.454125000               0.000000000               0.000000000              -0.477062500               0.000000000               0.000000000              -0.500000000               0.000000000               0.000000000              -0.132359569              -0.013036280               0.000000000              -0.155337096              -0.016127762               0.000000000              -0.178314623              -0.019219245               0.000000000              -0.201292150              -0.022310727               0.000000000              -0.224269676              -0.025402210               0.000000000              -0.247247203              -0.028493692               0.000000000              -0.270224730              -0.031585175               0.000000000              -0.293202257              -0.034676657               0.000000000              -0.316179784              -0.037768140               0.000000000              -0.339157311              -0.040859622               0.000000000              -0.362134838              -0.043951105               0.000000000              -0.385112365              -0.047042587               0.000000000              -0.408089892              -0.050134070               0.000000000              -0.431067419              -0.053225552               0.000000000              -0.454044946              -0.056317035               0.000000000              -0.477022473              -0.059408517               0.000000000              -0.500000000              -0.062500000               0.000000000              -0.130444442              -0.025947013               0.000000000              -0.153541665              -0.032137825               0.000000000              -0.176638887              -0.038328636               0.000000000              -0.199736109              -0.044519448               0.000000000              -0.222833332              -0.050710260               0.000000000              -0.245930554              -0.056901071               0.000000000              -0.269027776              -0.063091883               0.000000000              -0.292124999              -0.069282695               0.000000000              -0.315222221              -0.075473506               0.000000000              -0.338319444              -0.081664318               0.000000000              -0.361416666              -0.087855130               0.000000000              -0.384513888              -0.094045942               0.000000000              -0.407611111              -0.100236753               0.000000000              -0.430708333              -0.106427565               0.000000000              -0.453805555              -0.112618377               0.000000000              -0.476902778              -0.118809188               0.000000000              -0.500000000              -0.125000000               0.000000000              -0.127273065              -0.038607862               0.000000000              -0.150568498              -0.047913621               0.000000000              -0.173863932              -0.057219379               0.000000000              -0.197159365              -0.066525138               0.000000000              -0.220454798              -0.075830897               0.000000000              -0.243750232              -0.085136655               0.000000000              -0.267045665              -0.094442414               0.000000000              -0.290341099              -0.103748172               0.000000000              -0.313636532              -0.113053931               0.000000000              -0.336931966              -0.122359690               0.000000000              -0.360227399              -0.131665448               0.000000000              -0.383522833              -0.140971207               0.000000000              -0.406818266              -0.150276966               0.000000000              -0.430113700              -0.159582724               0.000000000              -0.453409133              -0.168888483               0.000000000              -0.476704567              -0.178194241               0.000000000              -0.500000000              -0.187500000               0.000000000              -0.122875978              -0.050896897               0.000000000              -0.146446229              -0.063340840               0.000000000              -0.170016481              -0.075784784               0.000000000              -0.193586732              -0.088228728               0.000000000              -0.217156983              -0.100672672               0.000000000              -0.240727235              -0.113116616               0.000000000              -0.264297486              -0.125560560               0.000000000              -0.287867738              -0.138004504               0.000000000              -0.311437989              -0.150448448               0.000000000              -0.335008240              -0.162892392               0.000000000              -0.358578492              -0.175336336               0.000000000              -0.382148743              -0.187780280               0.000000000              -0.405718994              -0.200224224               0.000000000              -0.429289246              -0.212668168               0.000000000              -0.452859497              -0.225112112               0.000000000              -0.476429749              -0.237556056               0.000000000              -0.500000000              -0.250000000               0.000000000              -0.117295528              -0.062695766               0.000000000              -0.141214558              -0.078308531               0.000000000              -0.165133587              -0.093921295               0.000000000              -0.189052617              -0.109534060               0.000000000              -0.212971646              -0.125146824               0.000000000              -0.236890676              -0.140759589               0.000000000              -0.260809705              -0.156372354               0.000000000              -0.284728735              -0.171985118               0.000000000              -0.308647764              -0.187597883               0.000000000              -0.332566794              -0.203210648               0.000000000              -0.356485823              -0.218823412               0.000000000              -0.380404853              -0.234436177               0.000000000              -0.404323882              -0.250048941               0.000000000              -0.428242912              -0.265661706               0.000000000              -0.452161941              -0.281274471               0.000000000              -0.476080971              -0.296887235               0.000000000              -0.500000000              -0.312500000               0.000000000              -0.110585458              -0.073890841               0.000000000              -0.134923867              -0.092710163               0.000000000              -0.159262276              -0.111529486               0.000000000              -0.183600685              -0.130348808               0.000000000              -0.207939094              -0.149168131               0.000000000              -0.232277503              -0.167987453               0.000000000              -0.256615912              -0.186806776               0.000000000              -0.280954320              -0.205626098               0.000000000              -0.305292729              -0.224445420               0.000000000              -0.329631138              -0.243264743               0.000000000              -0.353969547              -0.262084065               0.000000000              -0.378307956              -0.280903388               0.000000000              -0.402646365              -0.299722710               0.000000000              -0.426984773              -0.318542033               0.000000000              -0.451323182              -0.337361355               0.000000000              -0.475661591              -0.356180678               0.000000000              -0.500000000              -0.375000000               0.000000000              -0.102810390              -0.084374307               0.000000000              -0.127634741              -0.106444663               0.000000000              -0.152459092              -0.128515018               0.000000000              -0.177283442              -0.150585374               0.000000000              -0.202107793              -0.172655730               0.000000000              -0.226932143              -0.194726086               0.000000000              -0.251756494              -0.216796442               0.000000000              -0.276580845              -0.238866798               0.000000000              -0.301405195              -0.260937153               0.000000000              -0.326229546              -0.283007509               0.000000000              -0.351053896              -0.305077865               0.000000000              -0.375878247              -0.327148221               0.000000000              -0.400702598              -0.349218577               0.000000000              -0.425526948              -0.371288933               0.000000000              -0.450351299              -0.393359288               0.000000000              -0.475175649              -0.415429644               0.000000000              -0.500000000              -0.437500000               0.000000000              -0.094045202              -0.094045202               0.000000000              -0.119417377              -0.119417377               0.000000000              -0.144789552              -0.144789552               0.000000000              -0.170161727              -0.170161727               0.000000000              -0.195533901              -0.195533901               0.000000000              -0.220906076              -0.220906076               0.000000000              -0.246278251              -0.246278251               0.000000000              -0.271650426              -0.271650426               0.000000000              -0.297022601              -0.297022601               0.000000000              -0.322394776              -0.322394776               0.000000000              -0.347766951              -0.347766951               0.000000000              -0.373139126              -0.373139126               0.000000000              -0.398511300              -0.398511300               0.000000000              -0.423883475              -0.423883475               0.000000000              -0.449255650              -0.449255650               0.000000000              -0.474627825              -0.474627825               0.000000000              -0.500000000              -0.500000000               0.000000000              -0.084374307              -0.102810390               0.000000000              -0.106444663              -0.127634741               0.000000000              -0.128515018              -0.152459092               0.000000000              -0.150585374              -0.177283442               0.000000000              -0.172655730              -0.202107793               0.000000000              -0.194726086              -0.226932143               0.000000000              -0.216796442              -0.251756494               0.000000000              -0.238866798              -0.276580845               0.000000000              -0.260937153              -0.301405195               0.000000000              -0.283007509              -0.326229546               0.000000000              -0.305077865              -0.351053896               0.000000000              -0.327148221              -0.375878247               0.000000000              -0.349218577              -0.400702598               0.000000000              -0.371288933              -0.425526948               0.000000000              -0.393359288              -0.450351299               0.000000000              -0.415429644              -0.475175649               0.000000000              -0.437500000              -0.500000000               0.000000000              -0.073890841              -0.110585458               0.000000000              -0.092710163              -0.134923867               0.000000000              -0.111529486              -0.159262276               0.000000000              -0.130348808              -0.183600685               0.000000000              -0.149168131              -0.207939094               0.000000000              -0.167987453              -0.232277503               0.000000000              -0.186806776              -0.256615912               0.000000000              -0.205626098              -0.280954320               0.000000000              -0.224445420              -0.305292729               0.000000000              -0.243264743              -0.329631138               0.000000000              -0.262084065              -0.353969547               0.000000000              -0.280903388              -0.378307956               0.000000000              -0.299722710              -0.402646365               0.000000000              -0.318542033              -0.426984773               0.000000000              -0.337361355              -0.451323182               0.000000000              -0.356180678              -0.475661591               0.000000000              -0.375000000              -0.500000000               0.000000000              -0.062695766              -0.117295528               0.000000000              -0.078308531              -0.141214558               0.000000000              -0.093921295              -0.165133587               0.000000000              -0.109534060              -0.189052617               0.000000000              -0.125146824              -0.212971646               0.000000000              -0.140759589              -0.236890676               0.000000000              -0.156372354              -0.260809705               0.000000000              -0.171985118              -0.284728735               0.000000000              -0.187597883              -0.308647764               0.000000000              -0.203210648              -0.332566794               0.000000000              -0.218823412              -0.356485823               0.000000000              -0.234436177              -0.380404853               0.000000000              -0.250048941              -0.404323882               0.000000000              -0.265661706              -0.428242912               0.000000000              -0.281274471              -0.452161941               0.000000000              -0.296887235              -0.476080971               0.000000000              -0.312500000              -0.500000000               0.000000000              -0.050896897              -0.122875978               0.000000000              -0.063340840              -0.146446229               0.000000000              -0.075784784              -0.170016481               0.000000000              -0.088228728              -0.193586732               0.000000000              -0.100672672              -0.217156983               0.000000000              -0.113116616              -0.240727235               0.000000000              -0.125560560              -0.264297486               0.000000000              -0.138004504              -0.287867738               0.000000000              -0.150448448              -0.311437989               0.000000000              -0.162892392              -0.335008240               0.000000000              -0.175336336              -0.358578492               0.000000000              -0.187780280              -0.382148743               0.000000000              -0.200224224              -0.405718994               0.000000000              -0.212668168              -0.429289246               0.000000000              -0.225112112              -0.452859497               0.000000000              -0.237556056              -0.476429749               0.000000000              -0.250000000              -0.500000000               0.000000000              -0.038607862              -0.127273065               0.000000000              -0.047913621              -0.150568498               0.000000000              -0.057219379              -0.173863932               0.000000000              -0.066525138              -0.197159365               0.000000000              -0.075830897              -0.220454798               0.000000000              -0.085136655              -0.243750232               0.000000000              -0.094442414              -0.267045665               0.000000000              -0.103748172              -0.290341099               0.000000000              -0.113053931              -0.313636532               0.000000000              -0.122359690              -0.336931966               0.000000000              -0.131665448              -0.360227399               0.000000000              -0.140971207              -0.383522833               0.000000000              -0.150276966              -0.406818266               0.000000000              -0.159582724              -0.430113700               0.000000000              -0.168888483              -0.453409133               0.000000000              -0.178194241              -0.476704567               0.000000000              -0.187500000              -0.500000000               0.000000000              -0.025947013              -0.130444442               0.000000000              -0.032137825              -0.153541665               0.000000000              -0.038328636              -0.176638887               0.000000000              -0.044519448              -0.199736109               0.000000000              -0.050710260              -0.222833332               0.000000000              -0.056901071              -0.245930554               0.000000000              -0.063091883              -0.269027776               0.000000000              -0.069282695              -0.292124999               0.000000000              -0.075473506              -0.315222221               0.000000000              -0.081664318              -0.338319444               0.000000000              -0.087855130              -0.361416666               0.000000000              -0.094045942              -0.384513888               0.000000000              -0.100236753              -0.407611111               0.000000000              -0.106427565              -0.430708333               0.000000000              -0.112618377              -0.453805555               0.000000000              -0.118809188              -0.476902778               0.000000000              -0.125000000              -0.500000000               0.000000000              -0.013036280              -0.132359569               0.000000000              -0.016127762              -0.155337096               0.000000000              -0.019219245              -0.178314623               0.000000000              -0.022310727              -0.201292150               0.000000000              -0.025402210              -0.224269676               0.000000000              -0.028493692              -0.247247203               0.000000000              -0.031585175              -0.270224730               0.000000000              -0.034676657              -0.293202257               0.000000000              -0.037768140              -0.316179784               0.000000000              -0.040859622              -0.339157311               0.000000000              -0.043951105              -0.362134838               0.000000000              -0.047042587              -0.385112365               0.000000000              -0.050134070              -0.408089892               0.000000000              -0.053225552              -0.431067419               0.000000000              -0.056317035              -0.454044946               0.000000000              -0.059408517              -0.477022473               0.000000000              -0.062500000              -0.500000000               0.000000000               0.000000000              -0.133000000               0.000000000               0.000000000              -0.155937500               0.000000000               0.000000000              -0.178875000               0.000000000               0.000000000              -0.201812500               0.000000000               0.000000000              -0.224750000               0.000000000               0.000000000              -0.247687500               0.000000000               0.000000000              -0.270625000               0.000000000               0.000000000              -0.293562500               0.000000000               0.000000000              -0.316500000               0.000000000               0.000000000              -0.339437500               0.000000000               0.000000000              -0.362375000               0.000000000               0.000000000              -0.385312500               0.000000000               0.000000000              -0.408250000               0.000000000               0.000000000              -0.431187500               0.000000000               0.000000000              -0.454125000               0.000000000               0.000000000              -0.477062500               0.000000000               0.000000000              -0.500000000               0.000000000              -0.133000000               0.000000000               0.000000000              -0.155937500               0.000000000               0.000000000              -0.178875000               0.000000000               0.000000000              -0.201812500               0.000000000               0.000000000              -0.224750000               0.000000000               0.000000000              -0.247687500               0.000000000               0.000000000              -0.270625000               0.000000000               0.000000000              -0.293562500               0.000000000               0.000000000              -0.316500000               0.000000000               0.000000000              -0.339437500               0.000000000               0.000000000              -0.362375000               0.000000000               0.000000000              -0.385312500               0.000000000               0.000000000              -0.408250000               0.000000000               0.000000000              -0.431187500               0.000000000               0.000000000              -0.454125000               0.000000000               0.000000000              -0.477062500               0.000000000               0.000000000              -0.500000000               0.000000000               0.000000000              -0.132359569               0.013036280               0.000000000              -0.155337096               0.016127762               0.000000000              -0.178314623               0.019219245               0.000000000              -0.201292150               0.022310727               0.000000000              -0.224269676               0.025402210               0.000000000              -0.247247203               0.028493692               0.000000000              -0.270224730               0.031585175               0.000000000              -0.293202257               0.034676657               0.000000000              -0.316179784               0.037768140               0.000000000              -0.339157311               0.040859622               0.000000000              -0.362134838               0.043951105               0.000000000              -0.385112365               0.047042587               0.000000000              -0.408089892               0.050134070               0.000000000              -0.431067419               0.053225552               0.000000000              -0.454044946               0.056317035               0.000000000              -0.477022473               0.059408517               0.000000000              -0.500000000               0.062500000               0.000000000              -0.130444442               0.025947013               0.000000000              -0.153541665               0.032137825               0.000000000              -0.176638887               0.038328636               0.000000000              -0.199736109               0.044519448               0.000000000              -0.222833332               0.050710260               0.000000000              -0.245930554               0.056901071               0.000000000              -0.269027776               0.063091883               0.000000000              -0.292124999               0.069282695               0.000000000              -0.315222221               0.075473506               0.000000000              -0.338319444               0.081664318               0.000000000              -0.361416666               0.087855130               0.000000000              -0.384513888               0.094045942               0.000000000              -0.407611111               0.100236753               0.000000000              -0.430708333               0.106427565               0.000000000              -0.453805555               0.112618377               0.000000000              -0.476902778               0.118809188               0.000000000              -0.500000000               0.125000000               0.000000000              -0.127273065               0.038607862               0.000000000              -0.150568498               0.047913621               0.000000000              -0.173863932               0.057219379               0.000000000              -0.197159365               0.066525138               0.000000000              -0.220454798               0.075830897               0.000000000              -0.243750232               0.085136655               0.000000000              -0.267045665               0.094442414               0.000000000              -0.290341099               0.103748172               0.000000000              -0.313636532               0.113053931               0.000000000              -0.336931966               0.122359690               0.000000000              -0.360227399               0.131665448               0.000000000              -0.383522833               0.140971207               0.000000000              -0.406818266               0.150276966               0.000000000              -0.430113700               0.159582724               0.000000000              -0.453409133               0.168888483               0.000000000              -0.476704567               0.178194241               0.000000000              -0.500000000               0.187500000               0.000000000              -0.122875978               0.050896897               0.000000000              -0.146446229               0.063340840               0.000000000              -0.170016481               0.075784784               0.000000000              -0.193586732               0.088228728               0.000000000              -0.217156983               0.100672672               0.000000000              -0.240727235               0.113116616               0.000000000              -0.264297486               0.125560560               0.000000000              -0.287867738               0.138004504               0.000000000              -0.311437989               0.150448448               0.000000000              -0.335008240               0.162892392               0.000000000              -0.358578492               0.175336336               0.000000000              -0.382148743               0.187780280               0.000000000              -0.405718994               0.200224224               0.000000000              -0.429289246               0.212668168               0.000000000              -0.452859497               0.225112112               0.000000000              -0.476429749               0.237556056               0.000000000              -0.500000000               0.250000000               0.000000000              -0.117295528               0.062695766               0.000000000              -0.141214558               0.078308531               0.000000000              -0.165133587               0.093921295               0.000000000              -0.189052617               0.109534060               0.000000000              -0.212971646               0.125146824               0.000000000              -0.236890676               0.140759589               0.000000000              -0.260809705               0.156372354               0.000000000              -0.284728735               0.171985118               0.000000000              -0.308647764               0.187597883               0.000000000              -0.332566794               0.203210648               0.000000000              -0.356485823               0.218823412               0.000000000              -0.380404853               0.234436177               0.000000000              -0.404323882               0.250048941               0.000000000              -0.428242912               0.265661706               0.000000000              -0.452161941               0.281274471               0.000000000              -0.476080971               0.296887235               0.000000000              -0.500000000               0.312500000               0.000000000              -0.110585458               0.073890841               0.000000000              -0.134923867               0.092710163               0.000000000              -0.159262276               0.111529486               0.000000000              -0.183600685               0.130348808               0.000000000              -0.207939094               0.149168131               0.000000000              -0.232277503               0.167987453               0.000000000              -0.256615912               0.186806776               0.000000000              -0.280954320               0.205626098               0.000000000              -0.305292729               0.224445420               0.000000000              -0.329631138               0.243264743               0.000000000              -0.353969547               0.262084065               0.000000000              -0.378307956               0.280903388               0.000000000              -0.402646365               0.299722710               0.000000000              -0.426984773               0.318542033               0.000000000              -0.451323182               0.337361355               0.000000000              -0.475661591               0.356180678               0.000000000              -0.500000000               0.375000000               0.000000000              -0.102810390               0.084374307               0.000000000              -0.127634741               0.106444663               0.000000000              -0.152459092               0.128515018               0.000000000              -0.177283442               0.150585374               0.000000000              -0.202107793               0.172655730               0.000000000              -0.226932143               0.194726086               0.000000000              -0.251756494               0.216796442               0.000000000              -0.276580845               0.238866798               0.000000000              -0.301405195               0.260937153               0.000000000              -0.326229546               0.283007509               0.000000000              -0.351053896               0.305077865               0.000000000              -0.375878247               0.327148221               0.000000000              -0.400702598               0.349218577               0.000000000              -0.425526948               0.371288933               0.000000000              -0.450351299               0.393359288               0.000000000              -0.475175649               0.415429644               0.000000000              -0.500000000               0.437500000               0.000000000              -0.094045202               0.094045202               0.000000000              -0.119417377               0.119417377               0.000000000              -0.144789552               0.144789552               0.000000000              -0.170161727               0.170161727               0.000000000              -0.195533901               0.195533901               0.000000000              -0.220906076               0.220906076               0.000000000              -0.246278251               0.246278251               0.000000000              -0.271650426               0.271650426               0.000000000              -0.297022601               0.297022601               0.000000000              -0.322394776               0.322394776               0.000000000              -0.347766951               0.347766951               0.000000000              -0.373139126               0.373139126               0.000000000              -0.398511300               0.398511300               0.000000000              -0.423883475               0.423883475               0.000000000              -0.449255650               0.449255650               0.000000000              -0.474627825               0.474627825               0.000000000              -0.500000000               0.500000000               0.000000000              -0.084374307               0.102810390               0.000000000              -0.106444663               0.127634741               0.000000000              -0.128515018               0.152459092               0.000000000              -0.150585374               0.177283442               0.000000000              -0.172655730               0.202107793               0.000000000              -0.194726086               0.226932143               0.000000000              -0.216796442               0.251756494               0.000000000              -0.238866798               0.276580845               0.000000000              -0.260937153               0.301405195               0.000000000              -0.283007509               0.326229546               0.000000000              -0.305077865               0.351053896               0.000000000              -0.327148221               0.375878247               0.000000000              -0.349218577               0.400702598               0.000000000              -0.371288933               0.425526948               0.000000000              -0.393359288               0.450351299               0.000000000              -0.415429644               0.475175649               0.000000000              -0.437500000               0.500000000               0.000000000              -0.073890841               0.110585458               0.000000000              -0.092710163               0.134923867               0.000000000              -0.111529486               0.159262276               0.000000000              -0.130348808               0.183600685               0.000000000              -0.149168131               0.207939094               0.000000000              -0.167987453               0.232277503               0.000000000              -0.186806776               0.256615912               0.000000000              -0.205626098               0.280954320               0.000000000              -0.224445420               0.305292729               0.000000000              -0.243264743               0.329631138               0.000000000              -0.262084065               0.353969547               0.000000000              -0.280903388               0.378307956               0.000000000              -0.299722710               0.402646365               0.000000000              -0.318542033               0.426984773               0.000000000              -0.337361355               0.451323182               0.000000000              -0.356180678               0.475661591               0.000000000              -0.375000000               0.500000000               0.000000000              -0.062695766               0.117295528               0.000000000              -0.078308531               0.141214558               0.000000000              -0.093921295               0.165133587               0.000000000              -0.109534060               0.189052617               0.000000000              -0.125146824               0.212971646               0.000000000              -0.140759589               0.236890676               0.000000000              -0.156372354               0.260809705               0.000000000              -0.171985118               0.284728735               0.000000000              -0.187597883               0.308647764               0.000000000              -0.203210648               0.332566794               0.000000000              -0.218823412               0.356485823               0.000000000              -0.234436177               0.380404853               0.000000000              -0.250048941               0.404323882               0.000000000              -0.265661706               0.428242912               0.000000000              -0.281274471               0.452161941               0.000000000              -0.296887235               0.476080971               0.000000000              -0.312500000               0.500000000               0.000000000              -0.050896897               0.122875978               0.000000000              -0.063340840               0.146446229               0.000000000              -0.075784784               0.170016481               0.000000000              -0.088228728               0.193586732               0.000000000              -0.100672672               0.217156983               0.000000000              -0.113116616               0.240727235               0.000000000              -0.125560560               0.264297486               0.000000000              -0.138004504               0.287867738               0.000000000              -0.150448448               0.311437989               0.000000000              -0.162892392               0.335008240               0.000000000              -0.175336336               0.358578492               0.000000000              -0.187780280               0.382148743               0.000000000              -0.200224224               0.405718994               0.000000000              -0.212668168               0.429289246               0.000000000              -0.225112112               0.452859497               0.000000000              -0.237556056               0.476429749               0.000000000              -0.250000000               0.500000000               0.000000000              -0.038607862               0.127273065               0.000000000              -0.047913621               0.150568498               0.000000000              -0.057219379               0.173863932               0.000000000              -0.066525138               0.197159365               0.000000000              -0.075830897               0.220454798               0.000000000              -0.085136655               0.243750232               0.000000000              -0.094442414               0.267045665               0.000000000              -0.103748172               0.290341099               0.000000000              -0.113053931               0.313636532               0.000000000              -0.122359690               0.336931966               0.000000000              -0.131665448               0.360227399               0.000000000              -0.140971207               0.383522833               0.000000000              -0.150276966               0.406818266               0.000000000              -0.159582724               0.430113700               0.000000000              -0.168888483               0.453409133               0.000000000              -0.178194241               0.476704567               0.000000000              -0.187500000               0.500000000               0.000000000              -0.025947013               0.130444442               0.000000000              -0.032137825               0.153541665               0.000000000              -0.038328636               0.176638887               0.000000000              -0.044519448               0.199736109               0.000000000              -0.050710260               0.222833332               0.000000000              -0.056901071               0.245930554               0.000000000              -0.063091883               0.269027776               0.000000000              -0.069282695               0.292124999               0.000000000              -0.075473506               0.315222221               0.000000000              -0.081664318               0.338319444               0.000000000              -0.087855130               0.361416666               0.000000000              -0.094045942               0.384513888               0.000000000              -0.100236753               0.407611111               0.000000000              -0.106427565               0.430708333               0.000000000              -0.112618377               0.453805555               0.000000000              -0.118809188               0.476902778               0.000000000              -0.125000000               0.500000000               0.000000000              -0.013036280               0.132359569               0.000000000              -0.016127762               0.155337096               0.000000000              -0.019219245               0.178314623               0.000000000              -0.022310727               0.201292150               0.000000000              -0.025402210               0.224269676               0.000000000              -0.028493692               0.247247203               0.000000000              -0.031585175               0.270224730               0.000000000              -0.034676657               0.293202257               0.000000000              -0.037768140               0.316179784               0.000000000              -0.040859622               0.339157311               0.000000000              -0.043951105               0.362134838               0.000000000              -0.047042587               0.385112365               0.000000000              -0.050134070               0.408089892               0.000000000              -0.053225552               0.431067419               0.000000000              -0.056317035               0.454044946               0.000000000              -0.059408517               0.477022473               0.000000000              -0.062500000               0.500000000               0.000000000               0.000000000               0.133000000               0.000000000               0.000000000               0.155937500               0.000000000               0.000000000               0.178875000               0.000000000               0.000000000               0.201812500               0.000000000               0.000000000               0.224750000               0.000000000               0.000000000               0.247687500               0.000000000               0.000000000               0.270625000               0.000000000               0.000000000               0.293562500               0.000000000               0.000000000               0.316500000               0.000000000               0.000000000               0.339437500               0.000000000               0.000000000               0.362375000               0.000000000               0.000000000               0.385312500               0.000000000               0.000000000               0.408250000               0.000000000               0.000000000               0.431187500               0.000000000               0.000000000               0.454125000               0.000000000               0.000000000               0.477062500               0.000000000               0.000000000               0.500000000               0.000000000 </DataArray>
</Points>
<Cells>
<DataArray type="Int32"                                    Name="connectivity"                                                      NumberOfComponents=" 1" format="ascii">
         0          1         18         17          1          2         19         18          2          3         20         19          3          4         21         20          4          5         22         21          5          6         23         22          6          7         24         23          7          8         25         24          8          9         26         25          9         10         27         26         10         11         28         27         11         12         29         28         12         13         30         29         13         14         31         30         14         15         32         31         15         16         33         32         17         18         35         34         18         19         36         35         19         20         37         36         20         21         38         37         21         22         39         38         22         23         40         39         23         24         41         40         24         25         42         41         25         26         43         42         26         27         44         43         27         28         45         44         28         29         46         45         29         30         47         46         30         31         48         47         31         32         49         48         32         33         50         49         34         35         52         51         35         36         53         52         36         37         54         53         37         38         55         54         38         39         56         55         39         40         57         56         40         41         58         57         41         42         59         58         42         43         60         59         43         44         61         60         44         45         62         61         45         46         63         62         46         47         64         63         47         48         65         64         48         49         66         65         49         50         67         66         51         52         69         68         52         53         70         69         53         54         71         70         54         55         72         71         55         56         73         72         56         57         74         73         57         58         75         74         58         59         76         75         59         60         77         76         60         61         78         77         61         62         79         78         62         63         80         79         63         64         81         80         64         65         82         81         65         66         83         82         66         67         84         83         68         69         86         85         69         70         87         86         70         71         88         87         71         72         89         88         72         73         90         89         73         74         91         90         74         75         92         91         75         76         93         92         76         77         94         93         77         78         95         94         78         79         96         95         79         80         97         96         80         81         98         97         81         82         99         98         82         83        100         99         83         84        101        100         85         86        103        102         86         87        104        103         87         88        105        104         88         89        106        105         89         90        107        106         90         91        108        107         91         92        109        108         92         93        110        109         93         94        111        110         94         95        112        111         95         96        113        112         96         97        114        113         97         98        115        114         98         99        116        115         99        100        117        116        100        101        118        117        102        103        120        119        103        104        121        120        104        105        122        121        105        106        123        122        106        107        124        123        107        108        125        124        108        109        126        125        109        110        127        126        110        111        128        127        111        112        129        128        112        113        130        129        113        114        131        130        114        115        132        131        115        116        133        132        116        117        134        133        117        118        135        134        119        120        137        136        120        121        138        137        121        122        139        138        122        123        140        139        123        124        141        140        124        125        142        141        125        126        143        142        126        127        144        143        127        128        145        144        128        129        146        145        129        130        147        146        130        131        148        147        131        132        149        148        132        133        150        149        133        134        151        150        134        135        152        151        136        137        154        153        137        138        155        154        138        139        156        155        139        140        157        156        140        141        158        157        141        142        159        158        142        143        160        159        143        144        161        160        144        145        162        161        145        146        163        162        146        147        164        163        147        148        165        164        148        149        166        165        149        150        167        166        150        151        168        167        151        152        169        168        153        154        171        170        154        155        172        171        155        156        173        172        156        157        174        173        157        158        175        174        158        159        176        175        159        160        177        176        160        161        178        177        161        162        179        178        162        163        180        179        163        164        181        180        164        165        182        181        165        166        183        182        166        167        184        183        167        168        185        184        168        169        186        185        170        171        188        187        171        172        189        188        172        173        190        189        173        174        191        190        174        175        192        191        175        176        193        192        176        177        194        193        177        178        195        194        178        179        196        195        179        180        197        196        180        181        198        197        181        182        199        198        182        183        200        199        183        184        201        200        184        185        202        201        185        186        203        202        187        188        205        204        188        189        206        205        189        190        207        206        190        191        208        207        191        192        209        208        192        193        210        209        193        194        211        210        194        195        212        211        195        196        213        212        196        197        214        213        197        198        215        214        198        199        216        215        199        200        217        216        200        201        218        217        201        202        219        218        202        203        220        219        204        205        222        221        205        206        223        222        206        207        224        223        207        208        225        224        208        209        226        225        209        210        227        226        210        211        228        227        211        212        229        228        212        213        230        229        213        214        231        230        214        215        232        231        215        216        233        232        216        217        234        233        217        218        235        234        218        219        236        235        219        220        237        236        221        222        239        238        222        223        240        239        223        224        241        240        224        225        242        241        225        226        243        242        226        227        244        243        227        228        245        244        228        229        246        245        229        230        247        246        230        231        248        247        231        232        249        248        232        233        250        249        233        234        251        250        234        235        252        251        235        236        253        252        236        237        254        253        238        239        256        255        239        240        257        256        240        241        258        257        241        242        259        258        242        243        260        259        243        244        261        260        244        245        262        261        245        246        263        262        246        247        264        263        247        248        265        264        248        249        266        265        249        250        267        266        250        251        268        267        251        252        269        268        252        253        270        269        253        254        271        270        255        256        273        272        256        257        274        273        257        258        275        274        258        259        276        275        259        260        277        276        260        261        278        277        261        262        279        278        262        263        280        279        263        264        281        280        264        265        282        281        265        266        283        282        266        267        284        283        267        268        285        284        268        269        286        285        269        270        287        286        270        271        288        287        306        307          1          0        307        308          2          1        308        309          3          2        309        310          4          3        310        311          5          4        311        312          6          5        312        313          7          6        313        314          8          7        314        315          9          8        315        316         10          9        316        317         11         10        317        318         12         11        318        319         13         12        319        320         14         13        320        321         15         14        321        322         16         15        323        324        307        306        324        325        308        307        325        326        309        308        326        327        310        309        327        328        311        310        328        329        312        311        329        330        313        312        330        331        314        313        331        332        315        314        332        333        316        315        333        334        317        316        334        335        318        317        335        336        319        318        336        337        320        319        337        338        321        320        338        339        322        321        340        341        324        323        341        342        325        324        342        343        326        325        343        344        327        326        344        345        328        327        345        346        329        328        346        347        330        329        347        348        331        330        348        349        332        331        349        350        333        332        350        351        334        333        351        352        335        334        352        353        336        335        353        354        337        336        354        355        338        337        355        356        339        338        357        358        341        340        358        359        342        341        359        360        343        342        360        361        344        343        361        362        345        344        362        363        346        345        363        364        347        346        364        365        348        347        365        366        349        348        366        367        350        349        367        368        351        350        368        369        352        351        369        370        353        352        370        371        354        353        371        372        355        354        372        373        356        355        374        375        358        357        375        376        359        358        376        377        360        359        377        378        361        360        378        379        362        361        379        380        363        362        380        381        364        363        381        382        365        364        382        383        366        365        383        384        367        366        384        385        368        367        385        386        369        368        386        387        370        369        387        388        371        370        388        389        372        371        389        390        373        372        391        392        375        374        392        393        376        375        393        394        377        376        394        395        378        377        395        396        379        378        396        397        380        379        397        398        381        380        398        399        382        381        399        400        383        382        400        401        384        383        401        402        385        384        402        403        386        385        403        404        387        386        404        405        388        387        405        406        389        388        406        407        390        389        408        409        392        391        409        410        393        392        410        411        394        393        411        412        395        394        412        413        396        395        413        414        397        396        414        415        398        397        415        416        399        398        416        417        400        399        417        418        401        400        418        419        402        401        419        420        403        402        420        421        404        403        421        422        405        404        422        423        406        405        423        424        407        406        425        426        409        408        426        427        410        409        427        428        411        410        428        429        412        411        429        430        413        412        430        431        414        413        431        432        415        414        432        433        416        415        433        434        417        416        434        435        418        417        435        436        419        418        436        437        420        419        437        438        421        420        438        439        422        421        439        440        423        422        440        441        424        423        442        443        426        425        443        444        427        426        444        445        428        427        445        446        429        428        446        447        430        429        447        448        431        430        448        449        432        431        449        450        433        432        450        451        434        433        451        452        435        434        452        453        436        435        453        454        437        436        454        455        438        437        455        456        439        438        456        457        440        439        457        458        441        440        459        460        443        442        460        461        444        443        461        462        445        444        462        463        446        445        463        464        447        446        464        465        448        447        465        466        449        448        466        467        450        449        467        468        451        450        468        469        452        451        469        470        453        452        470        471        454        453        471        472        455        454        472        473        456        455        473        474        457        456        474        475        458        457        476        477        460        459        477        478        461        460        478        479        462        461        479        480        463        462        480        481        464        463        481        482        465        464        482        483        466        465        483        484        467        466        484        485        468        467        485        486        469        468        486        487        470        469        487        488        471        470        488        489        472        471        489        490        473        472        490        491        474        473        491        492        475        474        493        494        477        476        494        495        478        477        495        496        479        478        496        497        480        479        497        498        481        480        498        499        482        481        499        500        483        482        500        501        484        483        501        502        485        484        502        503        486        485        503        504        487        486        504        505        488        487        505        506        489        488        506        507        490        489        507        508        491        490        508        509        492        491        510        511        494        493        511        512        495        494        512        513        496        495        513        514        497        496        514        515        498        497        515        516        499        498        516        517        500        499        517        518        501        500        518        519        502        501        519        520        503        502        520        521        504        503        521        522        505        504        522        523        506        505        523        524        507        506        524        525        508        507        525        526        509        508        527        528        511        510        528        529        512        511        529        530        513        512        530        531        514        513        531        532        515        514        532        533        516        515        533        534        517        516        534        535        518        517        535        536        519        518        536        537        520        519        537        538        521        520        538        539        522        521        539        540        523        522        540        541        524        523        541        542        525        524        542        543        526        525        544        545        528        527        545        546        529        528        546        547        530        529        547        548        531        530        548        549        532        531        549        550        533        532        550        551        534        533        551        552        535        534        552        553        536        535        553        554        537        536        554        555        538        537        555        556        539        538        556        557        540        539        557        558        541        540        558        559        542        541        559        560        543        542        561        562        545        544        562        563        546        545        563        564        547        546        564        565        548        547        565        566        549        548        566        567        550        549        567        568        551        550        568        569        552        551        569        570        553        552        570        571        554        553        571        572        555        554        572        573        556        555        573        574        557        556        574        575        558        557        575        576        559        558        576        577        560        559        578        579        596        595        579        580        597        596        580        581        598        597        581        582        599        598        582        583        600        599        583        584        601        600        584        585        602        601        585        586        603        602        586        587        604        603        587        588        605        604        588        589        606        605        589        590        607        606        590        591        608        607        591        592        609        608        592        593        610        609        593        594        611        610        595        596        613        612        596        597        614        613        597        598        615        614        598        599        616        615        599        600        617        616        600        601        618        617        601        602        619        618        602        603        620        619        603        604        621        620        604        605        622        621        605        606        623        622        606        607        624        623        607        608        625        624        608        609        626        625        609        610        627        626        610        611        628        627        612        613        630        629        613        614        631        630        614        615        632        631        615        616        633        632        616        617        634        633        617        618        635        634        618        619        636        635        619        620        637        636        620        621        638        637        621        622        639        638        622        623        640        639        623        624        641        640        624        625        642        641        625        626        643        642        626        627        644        643        627        628        645        644        629        630        647        646        630        631        648        647        631        632        649        648        632        633        650        649        633        634        651        650        634        635        652        651        635        636        653        652        636        637        654        653        637        638        655        654        638        639        656        655        639        640        657        656        640        641        658        657        641        642        659        658        642        643        660        659        643        644        661        660        644        645        662        661        646        647        664        663        647        648        665        664        648        649        666        665        649        650        667        666        650        651        668        667        651        652        669        668        652        653        670        669        653        654        671        670        654        655        672        671        655        656        673        672        656        657        674        673        657        658        675        674        658        659        676        675        659        660        677        676        660        661        678        677        661        662        679        678        663        664        681        680        664        665        682        681        665        666        683        682        666        667        684        683        667        668        685        684        668        669        686        685        669        670        687        686        670        671        688        687        671        672        689        688        672        673        690        689        673        674        691        690        674        675        692        691        675        676        693        692        676        677        694        693        677        678        695        694        678        679        696        695        680        681        698        697        681        682        699        698        682        683        700        699        683        684        701        700        684        685        702        701        685        686        703        702        686        687        704        703        687        688        705        704        688        689        706        705        689        690        707        706        690        691        708        707        691        692        709        708        692        693        710        709        693        694        711        710        694        695        712        711        695        696        713        712        697        698        715        714        698        699        716        715        699        700        717        716        700        701        718        717        701        702        719        718        702        703        720        719        703        704        721        720        704        705        722        721        705        706        723        722        706        707        724        723        707        708        725        724        708        709        726        725        709        710        727        726        710        711        728        727        711        712        729        728        712        713        730        729        714        715        732        731        715        716        733        732        716        717        734        733        717        718        735        734        718        719        736        735        719        720        737        736        720        721        738        737        721        722        739        738        722        723        740        739        723        724        741        740        724        725        742        741        725        726        743        742        726        727        744        743        727        728        745        744        728        729        746        745        729        730        747        746        731        732        749        748        732        733        750        749        733        734        751        750        734        735        752        751        735        736        753        752        736        737        754        753        737        738        755        754        738        739        756        755        739        740        757        756        740        741        758        757        741        742        759        758        742        743        760        759        743        744        761        760        744        745        762        761        745        746        763        762        746        747        764        763        748        749        766        765        749        750        767        766        750        751        768        767        751        752        769        768        752        753        770        769        753        754        771        770        754        755        772        771        755        756        773        772        756        757        774        773        757        758        775        774        758        759        776        775        759        760        777        776        760        761        778        777        761        762        779        778        762        763        780        779        763        764        781        780        765        766        783        782        766        767        784        783        767        768        785        784        768        769        786        785        769        770        787        786        770        771        788        787        771        772        789        788        772        773        790        789        773        774        791        790        774        775        792        791        775        776        793        792        776        777        794        793        777        778        795        794        778        779        796        795        779        780        797        796        780        781        798        797        782        783        800        799        783        784        801        800        784        785        802        801        785        786        803        802        786        787        804        803        787        788        805        804        788        789        806        805        789        790        807        806        790        791        808        807        791        792        809        808        792        793        810        809        793        794        811        810        794        795        812        811        795        796        813        812        796        797        814        813        797        798        815        814        799        800        817        816        800        801        818        817        801        802        819        818        802        803        820        819        803        804        821        820        804        805        822        821        805        806        823        822        806        807        824        823        807        808        825        824        808        809        826        825        809        810        827        826        810        811        828        827        811        812        829        828        812        813        830        829        813        814        831        830        814        815        832        831        816        817        834        833        817        818        835        834        818        819        836        835        819        820        837        836        820        821        838        837        821        822        839        838        822        823        840        839        823        824        841        840        824        825        842        841        825        826        843        842        826        827        844        843        827        828        845        844        828        829        846        845        829        830        847        846        830        831        848        847        831        832        849        848        833        834        562        561        834        835        563        562        835        836        564        563        836        837        565        564        837        838        566        565        838        839        567        566        839        840        568        567        840        841        569        568        841        842        570        569        842        843        571        570        843        844        572        571        844        845        573        572        845        846        574        573        846        847        575        574        847        848        576        575        848        849        577        576        884        885        579        578        885        886        580        579        886        887        581        580        887        888        582        581        888        889        583        582        889        890        584        583        890        891        585        584        891        892        586        585        892        893        587        586        893        894        588        587        894        895        589        588        895        896        590        589        896        897        591        590        897        898        592        591        898        899        593        592        899        900        594        593        901        902        885        884        902        903        886        885        903        904        887        886        904        905        888        887        905        906        889        888        906        907        890        889        907        908        891        890        908        909        892        891        909        910        893        892        910        911        894        893        911        912        895        894        912        913        896        895        913        914        897        896        914        915        898        897        915        916        899        898        916        917        900        899        918        919        902        901        919        920        903        902        920        921        904        903        921        922        905        904        922        923        906        905        923        924        907        906        924        925        908        907        925        926        909        908        926        927        910        909        927        928        911        910        928        929        912        911        929        930        913        912        930        931        914        913        931        932        915        914        932        933        916        915        933        934        917        916        935        936        919        918        936        937        920        919        937        938        921        920        938        939        922        921        939        940        923        922        940        941        924        923        941        942        925        924        942        943        926        925        943        944        927        926        944        945        928        927        945        946        929        928        946        947        930        929        947        948        931        930        948        949        932        931        949        950        933        932        950        951        934        933        952        953        936        935        953        954        937        936        954        955        938        937        955        956        939        938        956        957        940        939        957        958        941        940        958        959        942        941        959        960        943        942        960        961        944        943        961        962        945        944        962        963        946        945        963        964        947        946        964        965        948        947        965        966        949        948        966        967        950        949        967        968        951        950        969        970        953        952        970        971        954        953        971        972        955        954        972        973        956        955        973        974        957        956        974        975        958        957        975        976        959        958        976        977        960        959        977        978        961        960        978        979        962        961        979        980        963        962        980        981        964        963        981        982        965        964        982        983        966        965        983        984        967        966        984        985        968        967        986        987        970        969        987        988        971        970        988        989        972        971        989        990        973        972        990        991        974        973        991        992        975        974        992        993        976        975        993        994        977        976        994        995        978        977        995        996        979        978        996        997        980        979        997        998        981        980        998        999        982        981        999       1000        983        982       1000       1001        984        983       1001       1002        985        984       1003       1004        987        986       1004       1005        988        987       1005       1006        989        988       1006       1007        990        989       1007       1008        991        990       1008       1009        992        991       1009       1010        993        992       1010       1011        994        993       1011       1012        995        994       1012       1013        996        995       1013       1014        997        996       1014       1015        998        997       1015       1016        999        998       1016       1017       1000        999       1017       1018       1001       1000       1018       1019       1002       1001       1020       1021       1004       1003       1021       1022       1005       1004       1022       1023       1006       1005       1023       1024       1007       1006       1024       1025       1008       1007       1025       1026       1009       1008       1026       1027       1010       1009       1027       1028       1011       1010       1028       1029       1012       1011       1029       1030       1013       1012       1030       1031       1014       1013       1031       1032       1015       1014       1032       1033       1016       1015       1033       1034       1017       1016       1034       1035       1018       1017       1035       1036       1019       1018       1037       1038       1021       1020       1038       1039       1022       1021       1039       1040       1023       1022       1040       1041       1024       1023       1041       1042       1025       1024       1042       1043       1026       1025       1043       1044       1027       1026       1044       1045       1028       1027       1045       1046       1029       1028       1046       1047       1030       1029       1047       1048       1031       1030       1048       1049       1032       1031       1049       1050       1033       1032       1050       1051       1034       1033       1051       1052       1035       1034       1052       1053       1036       1035       1054       1055       1038       1037       1055       1056       1039       1038       1056       1057       1040       1039       1057       1058       1041       1040       1058       1059       1042       1041       1059       1060       1043       1042       1060       1061       1044       1043       1061       1062       1045       1044       1062       1063       1046       1045       1063       1064       1047       1046       1064       1065       1048       1047       1065       1066       1049       1048       1066       1067       1050       1049       1067       1068       1051       1050       1068       1069       1052       1051       1069       1070       1053       1052       1071       1072       1055       1054       1072       1073       1056       1055       1073       1074       1057       1056       1074       1075       1058       1057       1075       1076       1059       1058       1076       1077       1060       1059       1077       1078       1061       1060       1078       1079       1062       1061       1079       1080       1063       1062       1080       1081       1064       1063       1081       1082       1065       1064       1082       1083       1066       1065       1083       1084       1067       1066       1084       1085       1068       1067       1085       1086       1069       1068       1086       1087       1070       1069       1088       1089       1072       1071       1089       1090       1073       1072       1090       1091       1074       1073       1091       1092       1075       1074       1092       1093       1076       1075       1093       1094       1077       1076       1094       1095       1078       1077       1095       1096       1079       1078       1096       1097       1080       1079       1097       1098       1081       1080       1098       1099       1082       1081       1099       1100       1083       1082       1100       1101       1084       1083       1101       1102       1085       1084       1102       1103       1086       1085       1103       1104       1087       1086       1105       1106       1089       1088       1106       1107       1090       1089       1107       1108       1091       1090       1108       1109       1092       1091       1109       1110       1093       1092       1110       1111       1094       1093       1111       1112       1095       1094       1112       1113       1096       1095       1113       1114       1097       1096       1114       1115       1098       1097       1115       1116       1099       1098       1116       1117       1100       1099       1117       1118       1101       1100       1118       1119       1102       1101       1119       1120       1103       1102       1120       1121       1104       1103       1122       1123       1106       1105       1123       1124       1107       1106       1124       1125       1108       1107       1125       1126       1109       1108       1126       1127       1110       1109       1127       1128       1111       1110       1128       1129       1112       1111       1129       1130       1113       1112       1130       1131       1114       1113       1131       1132       1115       1114       1132       1133       1116       1115       1133       1134       1117       1116       1134       1135       1118       1117       1135       1136       1119       1118       1136       1137       1120       1119       1137       1138       1121       1120        272        273       1123       1122        273        274       1124       1123        274        275       1125       1124        275        276       1126       1125        276        277       1127       1126        277        278       1128       1127        278        279       1129       1128        279        280       1130       1129        280        281       1131       1130        281        282       1132       1131        282        283       1133       1132        283        284       1134       1133        284        285       1135       1134        285        286       1136       1135        286        287       1137       1136        287        288       1138       1137 </DataArray>
<DataArray type="Int32"                                    Name="offsets"                                                      NumberOfComponents=" 1" format="ascii">
         4          8         12         16         20         24         28         32         36         40         44         48         52         56         60         64         68         72         76         80         84         88         92         96        100        104        108        112        116        120        124        128        132        136        140        144        148        152        156        160        164        168        172        176        180        184        188        192        196        200        204        208        212        216        220        224        228        232        236        240        244        248        252        256        260        264        268        272        276        280        284        288        292        296        300        304        308        312        316        320        324        328        332        336        340        344        348        352        356        360        364        368        372        376        380        384        388        392        396        400        404        408        412        416        420        424        428        432        436        440        444        448        452        456        460        464        468        472        476        480        484        488        492        496        500        504        508        512        516        520        524        528        532        536        540        544        548        552        556        560        564        568        572        576        580        584        588        592        596        600        604        608        612        616        620        624        628        632        636        640        644        648        652        656        660        664        668        672        676        680        684        688        692        696        700        704        708        712        716        720        724        728        732        736        740        744        748        752        756        760        764        768        772        776        780        784        788        792        796        800        804        808        812        816        820        824        828        832        836        840        844        848        852        856        860        864        868        872        876        880        884        888        892        896        900        904        908        912        916        920        924        928        932        936        940        944        948        952        956        960        964        968        972        976        980        984        988        992        996       1000       1004       1008       1012       1016       1020       1024       1028       1032       1036       1040       1044       1048       1052       1056       1060       1064       1068       1072       1076       1080       1084       1088       1092       1096       1100       1104       1108       1112       1116       1120       1124       1128       1132       1136       1140       1144       1148       1152       1156       1160       1164       1168       1172       1176       1180       1184       1188       1192       1196       1200       1204       1208       1212       1216       1220       1224       1228       1232       1236       1240       1244       1248       1252       1256       1260       1264       1268       1272       1276       1280       1284       1288       1292       1296       1300       1304       1308       1312       1316       1320       1324       1328       1332       1336       1340       1344       1348       1352       1356       1360       1364       1368       1372       1376       1380       1384       1388       1392       1396       1400       1404       1408       1412       1416       1420       1424       1428       1432       1436       1440       1444       1448       1452       1456       1460       1464       1468       1472       1476       1480       1484       1488       1492       1496       1500       1504       1508       1512       1516       1520       1524       1528       1532       1536       1540       1544       1548       1552       1556       1560       1564       1568       1572       1576       1580       1584       1588       1592       1596       1600       1604       1608       1612       1616       1620       1624       1628       1632       1636       1640       1644       1648       1652       1656       1660       1664       1668       1672       1676       1680       1684       1688       1692       1696       1700       1704       1708       1712       1716       1720       1724       1728       1732       1736       1740       1744       1748       1752       1756       1760       1764       1768       1772       1776       1780       1784       1788       1792       1796       1800       1804       1808       1812       1816       1820       1824       1828       1832       1836       1840       1844       1848       1852       1856       1860       1864       1868       1872       1876       1880       1884       1888       1892       1896       1900       1904       1908       1912       1916       1920       1924       1928       1932       1936       1940       1944       1948       1952       1956       1960       1964       1968       1972       1976       1980       1984       1988       1992       1996       2000       2004       2008       2012       2016       2020       2024       2028       2032       2036       2040       2044       2048       2052       2056       2060       2064       2068       2072       2076       2080       2084       2088       2092       2096       2100       2104       2108       2112       2116       2120       2124       2128       2132       2136       2140       2144       2148       2152       2156       2160       2164       2168       2172       2176       2180       2184       2188       2192       2196       2200       2204       2208       2212       2216       2220       2224       2228       2232       2236       2240       2244       2248       2252       2256       2260       2264       2268       2272       2276       2280       2284       2288       2292       2296       2300       2304       2308       2312       2316       2320       2324       2328       2332       2336       2340       2344       2348       2352       2356       2360       2364       2368       2372       2376       2380       2384       2388       2392       2396       2400       2404       2408       2412       2416       2420       2424       2428       2432       2436       2440       2444       2448       2452       2456       2460       2464       2468       2472       2476       2480       2484       2488       2492       2496       2500       2504       2508       2512       2516       2520       2524       2528       2532       2536       2540       2544       2548       2552       2556       2560       2564       2568       2572       2576       2580       2584       2588       2592       2596       2600       2604       2608       2612       2616       2620       2624       2628       2632       2636       2640       2644       2648       2652       2656       2660       2664       2668       2672       2676       2680       2684       2688       2692       2696       2700       2704       2708       2712       2716       2720       2724       2728       2732       2736       2740       2744       2748       2752       2756       2760       2764       2768       2772       2776       2780       2784       2788       2792       2796       2800       2804       2808       2812       2816       2820       2824       2828       2832       2836       2840       2844       2848       2852       2856       2860       2864       2868       2872       2876       2880       2884       2888       2892       2896       2900       2904       2908       2912       2916       2920       2924       2928       2932       2936       2940       2944       2948       2952       2956       2960       2964       2968       2972       2976       2980       2984       2988       2992       2996       3000       3004       3008       3012       3016       3020       3024       3028       3032       3036       3040       3044       3048       3052       3056       3060       3064       3068       3072       3076       3080       3084       3088       3092       3096       3100       3104       3108       3112       3116       3120       3124       3128       3132       3136       3140       3144       3148       3152       3156       3160       3164       3168       3172       3176       3180       3184       3188       3192       3196       3200       3204       3208       3212       3216       3220       3224       3228       3232       3236       3240       3244       3248       3252       3256       3260       3264       3268       3272       3276       3280       3284       3288       3292       3296       3300       3304       3308       3312       3316       3320       3324       3328       3332       3336       3340       3344       3348       3352       3356       3360       3364       3368       3372       3376       3380       3384       3388       3392       3396       3400       3404       3408       3412       3416       3420       3424       3428       3432       3436       3440       3444       3448       3452       3456       3460       3464       3468       3472       3476       3480       3484       3488       3492       3496       3500       3504       3508       3512       3516       3520       3524       3528       3532       3536       3540       3544       3548       3552       3556       3560       3564       3568       3572       3576       3580       3584       3588       3592       3596       3600       3604       3608       3612       3616       3620       3624       3628       3632       3636       3640       3644       3648       3652       3656       3660       3664       3668       3672       3676       3680       3684       3688       3692       3696       3700       3704       3708       3712       3716       3720       3724       3728       3732       3736       3740       3744       3748       3752       3756       3760       3764       3768       3772       3776       3780       3784       3788       3792       3796       3800       3804       3808       3812       3816       3820       3824       3828       3832       3836       3840       3844       3848       3852       3856       3860       3864       3868       3872       3876       3880       3884       3888       3892       3896       3900       3904       3908       3912       3916       3920       3924       3928       3932       3936       3940       3944       3948       3952       3956       3960       3964       3968       3972       3976       3980       3984       3988       3992       3996       4000       4004       4008       4012       4016       4020       4024       4028       4032       4036       4040       4044       4048       4052       4056       4060       4064       4068       4072       4076       4080       4084       4088       4092       4096 </DataArray>
<DataArray type="UInt8"                                    Name="types"                                                      NumberOfComponents=" 1" format="ascii">
         9          9          9          9          9          9          9          9          9          9          9          9          9          9          9          9          9          9          9          9          9          9          9          9          9          9          9          9          9          9          9          9          9          9          9          9          9          9          9          9          9          9          9          9          9          9          9          9          9          9          9          9          9          9          9          9          9          9          9          9          9          9          9          9          9          9          9          9          9          9          9          9          9          9          9          9          9          9          9          9          9          9          9          9          9          9          9          9          9          9          9          9          9          9          9          9          9          9          9          9          9          9          9          9          9          9          9          9          9          9          9          9          9          9          9          9          9          9          9          9          9          9          9          9          9          9          9          9          9          9          9          9          9          9          9          9          9          9          9          9          9          9          9          9          9          9          9          9          9          9          9          9          9          9          9          9          9          9          9          9          9          9          9          9          9          9          9          9          9          9          9          9          9          9          9          9          9          9          9          9          9          9          9          9          9          9          9          9          9          9          9          9          9          9          9          9          9          9          9          9          9          9          9          9          9          9          9          9          9          9          9          9          9          9          9          9          9          9          9          9          9          9          9          9          9          9          9          9          9          9          9          9          9          9          9          9          9          9          9          9          9          9          9          9          9          9          9          9          9          9          9          9          9          9          9          9          9          9          9          9          9          9          9          9          9          9          9          9          9          9          9          9          9          9          9          9          9          9          9          9          9          9          9          9          9          9          9          9          9          9          9          9          9          9          9          9          9          9          9          9          9          9          9          9          9          9          9          9          9          9          9          9          9          9          9          9          9          9          9          9          9          9          9          9          9          9          9          9          9          9          9          9          9          9          9          9          9          9          9          9          9          9          9          9          9          9          9          9          9          9          9          9          9          9          9          9          9          9          9          9          9          9          9          9          9          9          9          9          9          9          9          9          9          9          9          9          9          9          9          9          9          9          9          9          9          9          9          9          9          9          9          9          9          9          9          9          9          9          9          9          9          9          9          9          9          9          9          9          9          9          9          9          9          9          9          9          9          9          9          9          9          9          9          9          9          9          9          9          9          9          9          9          9          9          9          9          9          9          9          9          9          9          9          9          9          9          9          9          9          9          9          9          9          9          9          9          9          9          9          9          9          9          9          9          9          9          9          9          9          9          9          9          9          9          9          9          9          9          9          9          9          9          9          9          9          9          9          9          9          9          9          9          9          9          9          9          9          9          9          9          9          9          9          9          9          9          9          9          9          9          9          9          9          9          9          9          9          9          9          9          9          9          9          9          9          9          9          9          9          9          9          9          9          9          9          9          9          9          9          9          9          9          9          9          9          9          9          9          9          9          9          9          9          9          9          9          9          9          9          9          9          9          9          9          9          9          9          9          9          9          9          9          9          9          9          9          9          9          9          9          9          9          9          9          9          9          9          9          9          9          9          9          9          9          9          9          9          9          9          9          9          9          9          9          9          9          9          9          9          9          9          9          9          9          9          9          9          9          9          9          9          9          9          9          9          9          9          9          9          9          9          9          9          9          9          9          9          9          9          9          9          9          9          9          9          9          9          9          9          9          9          9          9          9          9          9          9          9          9          9          9          9          9          9          9          9          9          9          9          9          9          9          9          9          9          9          9          9          9          9          9          9          9          9          9          9          9          9          9          9          9          9          9          9          9          9          9          9          9          9          9          9          9          9          9          9          9          9          9          9          9          9          9          9          9          9          9          9          9          9          9          9          9          9          9          9          9          9          9          9          9          9          9          9          9          9          9          9          9          9          9          9          9          9          9          9          9          9          9          9          9          9          9          9          9          9          9          9          9          9          9          9          9          9          9          9          9          9          9          9          9          9          9          9          9          9          9          9          9          9          9          9          9          9          9          9          9          9          9          9          9          9          9          9          9          9          9          9          9          9          9          9          9          9          9          9          9          9          9          9          9          9          9          9          9          9          9          9          9          9          9          9          9          9          9          9          9          9          9          9          9          9          9          9          9          9          9          9          9          9          9          9          9          9          9          9          9          9          9          9          9          9          9          9          9          9          9          9          9          9          9          9          9          9          9          9          9          9          9          9          9          9          9          9          9          9          9          9          9          9          9          9          9          9          9          9          9          9          9          9          9          9          9          9          9          9          9          9          9          9          9          9          9          9          9          9          9          9          9          9          9          9          9          9          9          9          9          9          9          9          9          9          9          9          9          9          9          9          9          9          9          9          9          9          9          9          9          9          9          9          9          9          9          9          9          9          9          9          9          9          9          9          9          9          9          9          9          9          9          9          9          9          9          9          9          9          9          9          9          9          9          9          9          9          9          9          9          9          9          9          9          9          9          9          9          9          9          9          9          9          9          9          9          9          9          9          9          9          9          9          9          9          9          9          9          9          9          9          9          9          9          9          9          9          9          9          9          9          9          9          9          9          9          9 </DataArray>
</Cells>
<CellData>
<DataArray type="Int32"                                    Name="material"                                                      NumberOfComponents=" 1" format="ascii">
         1          1          1          1          1          1          1          1          1          1          1          1          1          1          1          1          1          1          1          1          1          1          1          1          1          1          1          1          1          1          1          1          1          1          1          1          1          1          1          1          1          1          1          1          1          1          1          1          1          1          1          1          1          1          1          1          1          1          1          1          1          1          1          1          1          1          1          1          1          1          1          1          1          1          1          1          1          1          1          1          1          1          1          1          1          1          1          1          1          1          1          1          1          1          1          1          1          1          1          1          1          1          1          1          1          1          1          1          1          1          1          1          1          1          1          1          1          1          1          1          1          1          1          1          1          1          1          1          1          1          1          1          1          1          1          1          1          1          1          1          1          1          1          1          1          1          1          1          1          1          1          1          1          1          1          1          1          1          1          1          1          1          1          1          1          1          1          1          1          1          1          1          1          1          1          1          1          1          1          1          1          1          1          1          1          1          1          1          1          1          1          1          1          1          1          1          1          1          1          1          1          1          1          1          1          1          1          1          1          1          1          1          1          1          1          1          1          1          1          1          1          1          1          1          1          1          1          1          1          1          1          1          1          1          1          1          1          1          1          1          1          1          1          1          1          1          1          1          1          1          1          1          1          1          1          1          1          1          1          1          1          1          1          1          1          1          1          1          1          1          1          1          1          1          1          1          1          1          1          1          1          1          1          1          1          1          1          1          1          1          1          1          1          1          1          1          1          1          1          1          1          1          1          1          1          1          1          1          1          1          1          1          1          1          1          1          1          1          1          1          1          1          1          1          1          1          1          1          1          1          1          1          1          1          1          1          1          1          1          1          1          1          1          1          1          1          1          1          1          1          1          1          1          1          1          1          1          1          1          1          1          1          1          1          1          1          1          1          1          1          1          1          1          1          1          1          1          1          1          1          1          1          1          1          1          1          1          1          1          1          1          1          1          1          1          1          1          1          1          1          1          1          1          1          1          1          1          1          1          1          1          1          1          1          1          1          1          1          1          1          1          1          1          1          1          1          1          1          1          1          1          1          1          1          1          1          1          1          1          1          1          1          1          1          1          1          1          1          1          1          1          1          1          1          1          1          1          1          1          1          1          1          1          1          1          1          1          1          1          1          1          1          1          1          1          1          1          1          1          1          1          1          1          1          1          1          1          1          1          1          1          1          1          1          1          1          1          1          1          1          1          1          1          1          1          1          1          1          1          1          1          1          1          1          1          1          1          1          1          1          1          1          1          1          1          1          1          1          1          1          1          1          1          1          1          1          1          1          1          1          1          1          1          1          1          1          1          1          1          1          1          1          1          1          1          1          1          1          1          1          1          1          1          1          1          1          1          1          1          1          1          1          1          1          1          1          1          1          1          1          1          1          1          1          1          1          1          1          1          1          1          1          1          1          1          1          1          1          1          1          1          1          1          1          1          1          1          1          1          1          1          1          1          1          1          1          1          1          1          1          1          1          1          1          1          1          1          1          1          1          1          1          1          1          1          1          1          1          1          1          1          1          1          1          1          1          1          1          1          1          1          1          1          1          1          1          1          1          1          1          1          1          1          1          1          1          1          1          1          1          1          1          1          1          1          1          1          1          1          1          1          1          1          1          1          1          1          1          1          1          1          1          1          1          1          1          1          1          1          1          1          1          1          1          1          1          1          1          1          1          1          1          1          1          1          1          1          1          1          1          1          1          1          1          1          1          1          1          1          1          1          1          1          1          1          1          1          1          1          1          1          1          1          1          1          1          1          1          1          1          1          1          1          1          1          1          1          1          1          1          1          1          1          1          1          1          1          1          1          1          1          1          1          1          1          1          1          1          1          1          1          1          1          1          1          1          1          1          1          1          1          1          1          1          1          1          1          1          1          1          1          1          1          1          1          1          1          1          1          1          1          1          1          1          1          1          1          1          1          1          1          1          1          1          1          1          1          1          1          1          1          1          1          1          1          1          1          1          1          1          1          1          1          1          1          1          1          1          1          1          1          1          1          1          1          1          1          1          1          1          1          1          1          1          1          1          1          1          1          1          1          1          1          1          1          1          1          1          1          1          1          1          1          1          1          1          1          1          1          1          1          1          1          1          1          1          1          1          1          1          1          1          1          1          1          1          1          1          1          1          1          1          1          1          1          1          1          1          1          1          1          1          1          1          1          1          1          1          1          1          1          1          1          1          1          1          1          1          1          1          1          1          1          1          1          1          1          1          1          1          1          1          1          1          1          1          1          1          1          1          1          1          1          1          1          1          1          1          1          1          1          1          1          1          1          1          1          1          1          1          1          1          1          1          1          1          1          1          1          1          1          1          1          1          1          1          1          1          1          1          1          1          1          1          1          1          1          1          1          1          1          1          1          1          1          1          1          1          1          1          1          1          1          1 </DataArray>
</CellData>
<PointData>
<DataArray type="Float64"                                    Name="u"                                                      NumberOfComponents=" 3" format="ascii">
             -0.000034428              -0.000000000               0.999999996              -0.000051398               0.000000000               0.999999996              -0.000059684              -0.000000000               0.999999996              -0.000064719               0.000000000               0.999999996              -0.000068643               0.000000000               0.999999996              -0.000072391              -0.000000000               0.999999996              -0.000076427              -0.000000000               0.999999996              -0.000080980              -0.000000000               0.999999996              -0.000086139              -0.000000000               0.999999996              -0.000091977               0.000000000               0.999999996              -0.000098572               0.000000000               0.999999996              -0.000105926               0.000000000               0.999999996              -0.000114013               0.000000000               0.999999996              -0.000122781               0.000000000               0.999999996              -0.000132201               0.000000000               0.999999996              -0.000142199               0.000000000               0.999999996              -0.000152644               0.000000000               0.999999996              -0.000034110               0.000042177               0.999999996              -0.000050364               0.000037238               0.999999996              -0.000058270               0.000036021               0.999999996              -0.000063127               0.000036765               0.999999996              -0.000066992               0.000038701               0.999999996              -0.000070770               0.000041428               0.999999996              -0.000074870               0.000044703               0.999999996              -0.000079494               0.000048239               0.999999996              -0.000084767               0.000052080               0.999999996              -0.000090724               0.000056193               0.999999996              -0.000097429               0.000060481               0.999999996              -0.000104904               0.000064934               0.999999996              -0.000113093               0.000069443               0.999999996              -0.000121922               0.000074017               0.999999996              -0.000131375               0.000078528               0.999999996              -0.000141351               0.000082881               0.999999996              -0.000151740               0.000086839               0.999999996              -0.000033313               0.000083861               0.999999996              -0.000047434               0.000074089               0.999999996              -0.000054167               0.000071838               0.999999996              -0.000058470               0.000073546               0.999999996              -0.000062222               0.000077562               0.999999996              -0.000066135               0.000083062               0.999999996              -0.000070467               0.000089532               0.999999996              -0.000075376               0.000096650               0.999999996              -0.000081002               0.000104293               0.999999996              -0.000087327               0.000112475               0.999999996              -0.000094395               0.000121081               0.999999996              -0.000102186               0.000129940               0.999999996              -0.000110640               0.000138965               0.999999996              -0.000119680               0.000148049               0.999999996              -0.000129255               0.000157163               0.999999996              -0.000139310               0.000166064               0.999999996              -0.000149812               0.000174564               0.999999996              -0.000032159               0.000124571               0.999999996              -0.000042823               0.000110130               0.999999996              -0.000047857               0.000107240               0.999999996              -0.000051545               0.000110244               0.999999996              -0.000055211               0.000116539               0.999999996              -0.000059370               0.000124875               0.999999996              -0.000064221               0.000134677               0.999999996              -0.000069769               0.000145409               0.999999996              -0.000076067               0.000156893               0.999999996              -0.000083093               0.000169137               0.999999996              -0.000090786               0.000182016               0.999999996              -0.000099150               0.000195305               0.999999996              -0.000108117               0.000208869               0.999999996              -0.000117606               0.000222614               0.999999996              -0.000127615               0.000236531               0.999999996              -0.000138145               0.000250489               0.999999996              -0.000149277               0.000264441               0.999999996              -0.000030607               0.000163854               0.999999996              -0.000036807               0.000145045               0.999999996              -0.000040055               0.000142019               0.999999996              -0.000043263               0.000146654               0.999999996              -0.000047181               0.000155417               0.999999996              -0.000052000               0.000166771               0.999999996              -0.000057654               0.000179926               0.999999996              -0.000064095               0.000194392               0.999999996              -0.000071326               0.000209788               0.999999996              -0.000079280               0.000226143               0.999999996              -0.000087890               0.000243334               0.999999996              -0.000097104               0.000261160               0.999999996              -0.000106908               0.000279378               0.999999996              -0.000117309               0.000298005               0.999999996              -0.000128337               0.000317015               0.999999996              -0.000140035               0.000336545               0.999999996              -0.000152470               0.000356824               0.999999996              -0.000028657               0.000201302               0.999999996              -0.000029788               0.000178668               0.999999996              -0.000031505               0.000176009               0.999999996              -0.000034686               0.000182487               0.999999996              -0.000039262               0.000193868               0.999999996              -0.000045001               0.000208449               0.999999996              -0.000051678               0.000225044               0.999999996              -0.000059196               0.000243335               0.999999996              -0.000067635               0.000262818               0.999999996              -0.000076896               0.000283324               0.999999996              -0.000086871               0.000304863               0.999999996              -0.000097492               0.000327153               0.999999996              -0.000108789               0.000350097               0.999999996              -0.000120804               0.000373673               0.999999996              -0.000133545               0.000397888               0.999999996              -0.000146953               0.000422919               0.999999996              -0.000160857               0.000448950               0.999999996              -0.000026418               0.000236526               0.999999996              -0.000022317               0.000210872               0.999999996              -0.000023033               0.000208952               0.999999996              -0.000026677               0.000217450               0.999999996              -0.000032174               0.000231578               0.999999996              -0.000039061               0.000249382               0.999999996              -0.000047025               0.000269497               0.999999996              -0.000056042               0.000291668               0.999999996              -0.000066098               0.000315397               0.999999996              -0.000077040               0.000340118               0.999999996              -0.000088748               0.000365943               0.999999996              -0.000101173               0.000392638               0.999999996              -0.000114311               0.000420223               0.999999996              -0.000128085               0.000448584               0.999999996              -0.000142388               0.000477647               0.999999996              -0.000157034               0.000507558               0.999999996              -0.000171723               0.000537967               0.999999996              -0.000024013               0.000269124               0.999999996              -0.000014892               0.000241560               0.999999996              -0.000015254               0.000240608               0.999999996              -0.000019773               0.000251194               0.999999996              -0.000026433               0.000268090               0.999999996              -0.000034682               0.000289159               0.999999996              -0.000044251               0.000312910               0.999999996              -0.000055008               0.000339082               0.999999996              -0.000066836               0.000367049               0.999999996              -0.000079529               0.000395978               0.999999996              -0.000093003               0.000425986               0.999999996              -0.000107111               0.000457012               0.999999996              -0.000121715               0.000488945               0.999999996              -0.000136717               0.000521768               0.999999996              -0.000151988               0.000555383               0.999999996              -0.000167316               0.000589519               0.999999996              -0.000182372               0.000623735               0.999999996              -0.000021710               0.000298555               0.999999996              -0.000007873               0.000270614               0.999999996              -0.000008587               0.000270730               0.999999996              -0.000014187               0.000283349               0.999999996              -0.000022256               0.000303014               0.999999996              -0.000032094               0.000327422               0.999999996              -0.000043350               0.000355098               0.999999996              -0.000055844               0.000385320               0.999999996              -0.000069345               0.000417359               0.999999996              -0.000083569               0.000450464               0.999999996              -0.000098433               0.000484600               0.999999996              -0.000113736               0.000519697               0.999999996              -0.000129367               0.000555774               0.999999996              -0.000145306               0.000592685               0.999999996              -0.000161469               0.000630238               0.999999996              -0.000177662               0.000667950               0.999999996              -0.000193669               0.000705433               0.999999996              -0.000019853               0.000325948               0.999999996              -0.000002896               0.000300664               0.999999996              -0.000001931               0.000298062               0.999999996              -0.000006524               0.000307486               0.999999996              -0.000013621               0.000324035               0.999999996              -0.000022474               0.000345479               0.999999996              -0.000032582               0.000370453               0.999999996              -0.000043637               0.000397983               0.999999996              -0.000055586               0.000427421               0.999999996              -0.000068220               0.000458171               0.999999996              -0.000081239               0.000489760               0.999999996              -0.000094569               0.000522140               0.999999996              -0.000107965               0.000555254               0.999999996              -0.000121593               0.000589122               0.999999996              -0.000135568               0.000623710               0.999999996              -0.000149947               0.000658805               0.999999996              -0.000164637               0.000694134               0.999999996              -0.000017680               0.000350507               0.999999996               0.000000704               0.000329166               0.999999996               0.000003339               0.000325412               0.999999996               0.000000066               0.000332374               0.999999996              -0.000005925               0.000346193               0.999999996              -0.000013638               0.000364879               0.999999996              -0.000022547               0.000387195               0.999999996              -0.000032182               0.000412139               0.999999996              -0.000042485               0.000439085               0.999999996              -0.000053378               0.000467500               0.999999996              -0.000064729               0.000496929               0.999999996              -0.000076180               0.000526965               0.999999996              -0.000087390               0.000557612               0.999999996              -0.000098501               0.000588741               0.999999996              -0.000109705               0.000620528               0.999999996              -0.000121138               0.000652946               0.999999996              -0.000132970               0.000685993               0.999999996              -0.000015317               0.000371797               0.999999996               0.000002939               0.000355367               0.999999996               0.000006880               0.000351785               0.999999996               0.000004941               0.000357179               0.999999996               0.000000181               0.000368833               0.999999996              -0.000006269               0.000385175               0.999999996              -0.000013745               0.000405089               0.999999996              -0.000021814               0.000427698               0.999999996              -0.000030430               0.000452346               0.999999996              -0.000039702               0.000478618               0.999999996              -0.000049303               0.000506004               0.999999996              -0.000058816               0.000534167               0.999999996              -0.000068046               0.000562862               0.999999996              -0.000076917               0.000591950               0.999999996              -0.000085274               0.000621481               0.999999996              -0.000093309               0.000651491               0.999999996              -0.000101405               0.000682167               0.999999996              -0.000012665               0.000389651               0.999999996               0.000003962               0.000378505               0.999999996               0.000008541               0.000376074               0.999999996               0.000007735               0.000380788               0.999999996               0.000004280               0.000390957               0.999999996              -0.000000742               0.000405549               0.999999996              -0.000006600               0.000423498               0.999999996              -0.000013074               0.000444126               0.999999996              -0.000020033               0.000466830               0.999999996              -0.000027413               0.000491276               0.999999996              -0.000035129               0.000516970               0.999999996              -0.000042886               0.000543588               0.999999996              -0.000050333               0.000570809               0.999999996              -0.000057091               0.000598494               0.999999996              -0.000062886               0.000626501               0.999999996              -0.000067779               0.000654858               0.999999996              -0.000071983               0.000683652               0.999999996              -0.000009778               0.000403733               0.999999996               0.000003938               0.000397649               0.999999996               0.000008339               0.000396925               0.999999996               0.000008316               0.000401633               0.999999996               0.000006101               0.000411058               0.999999996               0.000002656               0.000424471               0.999999996              -0.000001664               0.000441138               0.999999996              -0.000006598               0.000460300               0.999999996              -0.000011683               0.000481606               0.999999996              -0.000017038               0.000504733               0.999999996              -0.000022850               0.000529201               0.999999996              -0.000028836               0.000554705               0.999999996              -0.000034433               0.000580919               0.999999996              -0.000039222               0.000607658               0.999999996              -0.000042900               0.000634805               0.999999996              -0.000045285               0.000662260               0.999999996              -0.000046396               0.000689948               0.999999996              -0.000006652               0.000413996               0.999999996               0.000003112               0.000411989               0.999999996               0.000006561               0.000413059               0.999999996               0.000006901               0.000418249               0.999999996               0.000005669               0.000427443               0.999999996               0.000003608               0.000440180               0.999999996               0.000000755               0.000455968               0.999999996              -0.000002544               0.000474315               0.999999996              -0.000005775               0.000494786               0.999999996              -0.000009172               0.000516951               0.999999996              -0.000013036               0.000540604               0.999999996              -0.000017057               0.000565437               0.999999996              -0.000020740               0.000591116               0.999999996              -0.000023826               0.000617385               0.999999996              -0.000025931               0.000644090               0.999999996              -0.000026768               0.000671061               0.999999996              -0.000026260               0.000698202               0.999999996              -0.000003351               0.000420291               0.999999996               0.000001702               0.000420888               0.999999996               0.000003582               0.000423205               0.999999996               0.000003869               0.000428963               0.999999996               0.000003410               0.000438182               0.999999996               0.000002428               0.000450640               0.999999996               0.000001019               0.000466042               0.999999996              -0.000000573               0.000483943               0.999999996              -0.000002134               0.000503935               0.999999996              -0.000003800               0.000525565               0.999999996              -0.000005681               0.000548640               0.999999996              -0.000007692               0.000572971               0.999999996              -0.000009604               0.000598334               0.999999996              -0.000011149               0.000624441               0.999999996              -0.000012137               0.000651088               0.999999996              -0.000012389               0.000678034               0.999999996              -0.000011587               0.000705079               0.999999996              -0.000000000               0.000422351               0.999999996              -0.000000000               0.000423887               0.999999996               0.000000000               0.000426737               0.999999996              -0.000000000               0.000432729               0.999999996              -0.000000000               0.000441937               0.999999996               0.000000000               0.000454328               0.999999996               0.000000000               0.000469631               0.999999996              -0.000000000               0.000487409               0.999999996              -0.000000000               0.000507301               0.999999996              -0.000000000               0.000528763               0.999999996               0.000000000               0.000551560               0.999999996               0.000000000               0.000575630               0.999999996              -0.000000000               0.000600836               0.999999996               0.000000000               0.000626987               0.999999996               0.000000000               0.000653776               0.999999996               0.000000000               0.000680897               0.999999996              -0.000000000               0.000708074               0.999999996              -0.000034428              -0.000000000               0.999999996              -0.000051398               0.000000000               0.999999996              -0.000059684              -0.000000000               0.999999996              -0.000064719               0.000000000               0.999999996              -0.000068643               0.000000000               0.999999996              -0.000072391              -0.000000000               0.999999996              -0.000076427              -0.000000000               0.999999996              -0.000080980              -0.000000000               0.999999996              -0.000086139              -0.000000000               0.999999996              -0.000091977               0.000000000               0.999999996              -0.000098572               0.000000000               0.999999996              -0.000105926               0.000000000               0.999999996              -0.000114013               0.000000000               0.999999996              -0.000122781               0.000000000               0.999999996              -0.000132201               0.000000000               0.999999996              -0.000142199               0.000000000               0.999999996              -0.000152644               0.000000000               0.999999996              -0.000034110              -0.000042177               0.999999996              -0.000050364              -0.000037238               0.999999996              -0.000058270              -0.000036021               0.999999996              -0.000063127              -0.000036765               0.999999996              -0.000066992              -0.000038701               0.999999996              -0.000070770              -0.000041428               0.999999996              -0.000074870              -0.000044703               0.999999996              -0.000079494              -0.000048239               0.999999996              -0.000084767              -0.000052080               0.999999996              -0.000090724              -0.000056193               0.999999996              -0.000097429              -0.000060481               0.999999996              -0.000104904              -0.000064934               0.999999996              -0.000113093              -0.000069443               0.999999996              -0.000121922              -0.000074017               0.999999996              -0.000131375              -0.000078528               0.999999996              -0.000141351              -0.000082881               0.999999996              -0.000151740              -0.000086839               0.999999996              -0.000033313              -0.000083861               0.999999996              -0.000047434              -0.000074089               0.999999996              -0.000054167              -0.000071838               0.999999996              -0.000058470              -0.000073546               0.999999996              -0.000062222              -0.000077562               0.999999996              -0.000066135              -0.000083062               0.999999996              -0.000070467              -0.000089532               0.999999996              -0.000075376              -0.000096650               0.999999996              -0.000081002              -0.000104293               0.999999996              -0.000087327              -0.000112475               0.999999996              -0.000094395              -0.000121081               0.999999996              -0.000102186              -0.000129940               0.999999996              -0.000110640              -0.000138965               0.999999996              -0.000119680              -0.000148049               0.999999996              -0.000129255              -0.000157163               0.999999996              -0.000139310              -0.000166064               0.999999996              -0.000149812              -0.000174564               0.999999996              -0.000032159              -0.000124571               0.999999996              -0.000042823              -0.000110130               0.999999996              -0.000047857              -0.000107240               0.999999996              -0.000051545              -0.000110244               0.999999996              -0.000055211              -0.000116539               0.999999996              -0.000059370              -0.000124875               0.999999996              -0.000064221              -0.000134677               0.999999996              -0.000069769              -0.000145409               0.999999996              -0.000076067              -0.000156893               0.999999996              -0.000083093              -0.000169137               0.999999996              -0.000090786              -0.000182016               0.999999996              -0.000099150              -0.000195305               0.999999996              -0.000108117              -0.000208869               0.999999996              -0.000117606              -0.000222614               0.999999996              -0.000127615              -0.000236531               0.999999996              -0.000138145              -0.000250489               0.999999996              -0.000149277              -0.000264441               0.999999996              -0.000030607              -0.000163854               0.999999996              -0.000036807              -0.000145045               0.999999996              -0.000040055              -0.000142019               0.999999996              -0.000043263              -0.000146654               0.999999996              -0.000047181              -0.000155417               0.999999996              -0.000052000              -0.000166771               0.999999996              -0.000057654              -0.000179926               0.999999996              -0.000064095              -0.000194392               0.999999996              -0.000071326              -0.000209788               0.999999996              -0.000079280              -0.000226143               0.999999996              -0.000087890              -0.000243334               0.999999996              -0.000097104              -0.000261160               0.999999996              -0.000106908              -0.000279378               0.999999996              -0.000117309              -0.000298005               0.999999996              -0.000128337              -0.000317015               0.999999996              -0.000140035              -0.000336545               0.999999996              -0.000152470              -0.000356824               0.999999996              -0.000028657              -0.000201302               0.999999996              -0.000029788              -0.000178668               0.999999996              -0.000031505              -0.000176009               0.999999996              -0.000034686              -0.000182487               0.999999996              -0.000039262              -0.000193868               0.999999996              -0.000045001              -0.000208449               0.999999996              -0.000051678              -0.000225044               0.999999996              -0.000059196              -0.000243335               0.999999996              -0.000067635              -0.000262818               0.999999996              -0.000076896              -0.000283324               0.999999996              -0.000086871              -0.000304863               0.999999996              -0.000097492              -0.000327153               0.999999996              -0.000108789              -0.000350097               0.999999996              -0.000120804              -0.000373673               0.999999996              -0.000133545              -0.000397888               0.999999996              -0.000146953              -0.000422919               0.999999996              -0.000160857              -0.000448950               0.999999996              -0.000026418              -0.000236526               0.999999996              -0.000022317              -0.000210872               0.999999996              -0.000023033              -0.000208952               0.999999996              -0.000026677              -0.000217450               0.999999996              -0.000032174              -0.000231578               0.999999996              -0.000039061              -0.000249382               0.999999996              -0.000047025              -0.000269497               0.999999996              -0.000056042              -0.000291668               0.999999996              -0.000066098              -0.000315397               0.999999996              -0.000077040              -0.000340118               0.999999996              -0.000088748              -0.000365943               0.999999996              -0.000101173              -0.000392638               0.999999996              -0.000114311              -0.000420223               0.999999996              -0.000128085              -0.000448584               0.999999996              -0.000142388              -0.000477647               0.999999996              -0.000157034              -0.000507558               0.999999996              -0.000171723              -0.000537967               0.999999996              -0.000024013              -0.000269124               0.999999996              -0.000014892              -0.000241560               0.999999996              -0.000015254              -0.000240608               0.999999996              -0.000019773              -0.000251194               0.999999996              -0.000026433              -0.000268090               0.999999996              -0.000034682              -0.000289159               0.999999996              -0.000044251              -0.000312910               0.999999996              -0.000055008              -0.000339082               0.999999996              -0.000066836              -0.000367049               0.999999996              -0.000079529              -0.000395978               0.999999996              -0.000093003              -0.000425986               0.999999996              -0.000107111              -0.000457012               0.999999996              -0.000121715              -0.000488945               0.999999996              -0.000136717              -0.000521768               0.999999996              -0.000151988              -0.000555383               0.999999996              -0.000167316              -0.000589519               0.999999996              -0.000182372              -0.000623735               0.999999996              -0.000021710              -0.000298555               0.999999996              -0.000007873              -0.000270614               0.999999996              -0.000008587              -0.000270730               0.999999996              -0.000014187              -0.000283349               0.999999996              -0.000022256              -0.000303014               0.999999996              -0.000032094              -0.000327422               0.999999996              -0.000043350              -0.000355098               0.999999996              -0.000055844              -0.000385320               0.999999996              -0.000069345              -0.000417359               0.999999996              -0.000083569              -0.000450464               0.999999996              -0.000098433              -0.000484600               0.999999996              -0.000113736              -0.000519697               0.999999996              -0.000129367              -0.000555774               0.999999996              -0.000145306              -0.000592685               0.999999996              -0.000161469              -0.000630238               0.999999996              -0.000177662              -0.000667950               0.999999996              -0.000193669              -0.000705433               0.999999996              -0.000019853              -0.000325948               0.999999996              -0.000002896              -0.000300664               0.999999996              -0.000001931              -0.000298062               0.999999996              -0.000006524              -0.000307486               0.999999996              -0.000013621              -0.000324035               0.999999996              -0.000022474              -0.000345479               0.999999996              -0.000032582              -0.000370453               0.999999996              -0.000043637              -0.000397983               0.999999996              -0.000055586              -0.000427421               0.999999996              -0.000068220              -0.000458171               0.999999996              -0.000081239              -0.000489760               0.999999996              -0.000094569              -0.000522140               0.999999996              -0.000107965              -0.000555254               0.999999996              -0.000121593              -0.000589122               0.999999996              -0.000135568              -0.000623710               0.999999996              -0.000149947              -0.000658805               0.999999996              -0.000164637              -0.000694134               0.999999996              -0.000017680              -0.000350507               0.999999996               0.000000704              -0.000329166               0.999999996               0.000003339              -0.000325412               0.999999996               0.000000066              -0.000332374               0.999999996              -0.000005925              -0.000346193               0.999999996              -0.000013638              -0.000364879               0.999999996              -0.000022547              -0.000387195               0.999999996              -0.000032182              -0.000412139               0.999999996              -0.000042485              -0.000439085               0.999999996              -0.000053378              -0.000467500               0.999999996              -0.000064729              -0.000496929               0.999999996              -0.000076180              -0.000526965               0.999999996              -0.000087390              -0.000557612               0.999999996              -0.000098501              -0.000588741               0.999999996              -0.000109705              -0.000620528               0.999999996              -0.000121138              -0.000652946               0.999999996              -0.000132970              -0.000685993               0.999999996              -0.000015317              -0.000371797               0.999999996               0.000002939              -0.000355367               0.999999996               0.000006880              -0.000351785               0.999999996               0.000004941              -0.000357179               0.999999996               0.000000181              -0.000368833               0.999999996              -0.000006269              -0.000385175               0.999999996              -0.000013745              -0.000405089               0.999999996              -0.000021814              -0.000427698               0.999999996              -0.000030430              -0.000452346               0.999999996              -0.000039702              -0.000478618               0.999999996              -0.000049303              -0.000506004               0.999999996              -0.000058816              -0.000534167               0.999999996              -0.000068046              -0.000562862               0.999999996              -0.000076917              -0.000591950               0.999999996              -0.000085274              -0.000621481               0.999999996              -0.000093309              -0.000651491               0.999999996              -0.000101405              -0.000682167               0.999999996              -0.000012665              -0.000389651               0.999999996               0.000003962              -0.000378505               0.999999996               0.000008541              -0.000376074               0.999999996               0.000007735              -0.000380788               0.999999996               0.000004280              -0.000390957               0.999999996              -0.000000742              -0.000405549               0.999999996              -0.000006600              -0.000423498               0.999999996              -0.000013074              -0.000444126               0.999999996              -0.000020033              -0.000466830               0.999999996              -0.000027413              -0.000491276               0.999999996              -0.000035129              -0.000516970               0.999999996              -0.000042886              -0.000543588               0.999999996              -0.000050333              -0.000570809               0.999999996              -0.000057091              -0.000598494               0.999999996              -0.000062886              -0.000626501               0.999999996              -0.000067779              -0.000654858               0.999999996              -0.000071983              -0.000683652               0.999999996              -0.000009778              -0.000403733               0.999999996               0.000003938              -0.000397649               0.999999996               0.000008339              -0.000396925               0.999999996               0.000008316              -0.000401633               0.999999996               0.000006101              -0.000411058               0.999999996               0.000002656              -0.000424471               0.999999996              -0.000001664              -0.000441138               0.999999996              -0.000006598              -0.000460300               0.999999996              -0.000011683              -0.000481606               0.999999996              -0.000017038              -0.000504733               0.999999996              -0.000022850              -0.000529201               0.999999996              -0.000028836              -0.000554705               0.999999996              -0.000034433              -0.000580919               0.999999996              -0.000039222              -0.000607658               0.999999996              -0.000042900              -0.000634805               0.999999996              -0.000045285              -0.000662260               0.999999996              -0.000046396              -0.000689948               0.999999996              -0.000006652              -0.000413996               0.999999996               0.000003112              -0.000411989               0.999999996               0.000006561              -0.000413059               0.999999996               0.000006901              -0.000418249               0.999999996               0.000005669              -0.000427443               0.999999996               0.000003608              -0.000440180               0.999999996               0.000000755              -0.000455968               0.999999996              -0.000002544              -0.000474315               0.999999996              -0.000005775              -0.000494786               0.999999996              -0.000009172              -0.000516951               0.999999996              -0.000013036              -0.000540604               0.999999996              -0.000017057              -0.000565437               0.999999996              -0.000020740              -0.000591116               0.999999996              -0.000023826              -0.000617385               0.999999996              -0.000025931              -0.000644090               0.999999996              -0.000026768              -0.000671061               0.999999996              -0.000026260              -0.000698202               0.999999996              -0.000003351              -0.000420291               0.999999996               0.000001702              -0.000420888               0.999999996               0.000003582              -0.000423205               0.999999996               0.000003869              -0.000428963               0.999999996               0.000003410              -0.000438182               0.999999996               0.000002428              -0.000450640               0.999999996               0.000001019              -0.000466042               0.999999996              -0.000000573              -0.000483943               0.999999996              -0.000002134              -0.000503935               0.999999996              -0.000003800              -0.000525565               0.999999996              -0.000005681              -0.000548640               0.999999996              -0.000007692              -0.000572971               0.999999996              -0.000009604              -0.000598334               0.999999996              -0.000011149              -0.000624441               0.999999996              -0.000012137              -0.000651088               0.999999996              -0.000012389              -0.000678034               0.999999996              -0.000011587              -0.000705079               0.999999996              -0.000000000              -0.000422351               0.999999996              -0.000000000              -0.000423887               0.999999996              -0.000000000              -0.000426737               0.999999996               0.000000000              -0.000432729               0.999999996              -0.000000000              -0.000441937               0.999999996               0.000000000              -0.000454328               0.999999996              -0.000000000              -0.000469631               0.999999996               0.000000000              -0.000487409               0.999999996               0.000000000              -0.000507301               0.999999996               0.000000000              -0.000528763               0.999999996               0.000000000              -0.000551560               0.999999996               0.000000000              -0.000575630               0.999999996               0.000000000              -0.000600836               0.999999996               0.000000000              -0.000626987               0.999999996              -0.000000000              -0.000653776               0.999999996              -0.000000000              -0.000680897               0.999999996               0.000000000              -0.000708074               0.999999996               0.000034428              -0.000000000               0.999999996               0.000051398               0.000000000               0.999999996               0.000059684               0.000000000               0.999999996               0.000064719               0.000000000               0.999999996               0.000068643               0.000000000               0.999999996               0.000072391              -0.000000000               0.999999996               0.000076427              -0.000000000               0.999999996               0.000080980              -0.000000000               0.999999996               0.000086139              -0.000000000               0.999999996               0.000091977              -0.000000000               0.999999996               0.000098572              -0.000000000               0.999999996               0.000105926               0.000000000               0.999999996               0.000114013               0.000000000               0.999999996               0.000122781               0.000000000               0.999999996               0.000132201               0.000000000               0.999999996               0.000142199              -0.000000000               0.999999996               0.000152644              -0.000000000               0.999999996               0.000034110              -0.000042177               0.999999996               0.000050364              -0.000037238               0.999999996               0.000058270              -0.000036021               0.999999996               0.000063127              -0.000036765               0.999999996               0.000066992              -0.000038701               0.999999996               0.000070770              -0.000041428               0.999999996               0.000074870              -0.000044703               0.999999996               0.000079494              -0.000048239               0.999999996               0.000084767              -0.000052080               0.999999996               0.000090724              -0.000056193               0.999999996               0.000097429              -0.000060481               0.999999996               0.000104904              -0.000064934               0.999999996               0.000113093              -0.000069443               0.999999996               0.000121922              -0.000074017               0.999999996               0.000131375              -0.000078528               0.999999996               0.000141351              -0.000082881               0.999999996               0.000151740              -0.000086839               0.999999996               0.000033313              -0.000083861               0.999999996               0.000047434              -0.000074089               0.999999996               0.000054167              -0.000071838               0.999999996               0.000058470              -0.000073546               0.999999996               0.000062222              -0.000077562               0.999999996               0.000066135              -0.000083062               0.999999996               0.000070467              -0.000089532               0.999999996               0.000075376              -0.000096650               0.999999996               0.000081002              -0.000104293               0.999999996               0.000087327              -0.000112475               0.999999996               0.000094395              -0.000121081               0.999999996               0.000102186              -0.000129940               0.999999996               0.000110640              -0.000138965               0.999999996               0.000119680              -0.000148049               0.999999996               0.000129255              -0.000157163               0.999999996               0.000139310              -0.000166064               0.999999996               0.000149812              -0.000174564               0.999999996               0.000032159              -0.000124571               0.999999996               0.000042823              -0.000110130               0.999999996               0.000047857              -0.000107240               0.999999996               0.000051545              -0.000110244               0.999999996               0.000055211              -0.000116539               0.999999996               0.000059370              -0.000124875               0.999999996               0.000064221              -0.000134677               0.999999996               0.000069769              -0.000145409               0.999999996               0.000076067              -0.000156893               0.999999996               0.000083093              -0.000169137               0.999999996               0.000090786              -0.000182016               0.999999996               0.000099150              -0.000195305               0.999999996               0.000108117              -0.000208869               0.999999996               0.000117606              -0.000222614               0.999999996               0.000127615              -0.000236531               0.999999996               0.000138145              -0.000250489               0.999999996               0.000149277              -0.000264441               0.999999996               0.000030607              -0.000163854               0.999999996               0.000036807              -0.000145045               0.999999996               0.000040055              -0.000142019               0.999999996               0.000043263              -0.000146654               0.999999996               0.000047181              -0.000155417               0.999999996               0.000052000              -0.000166771               0.999999996               0.000057654              -0.000179926               0.999999996               0.000064095              -0.000194392               0.999999996               0.000071326              -0.000209788               0.999999996               0.000079280              -0.000226143               0.999999996               0.000087890              -0.000243334               0.999999996               0.000097104              -0.000261160               0.999999996               0.000106908              -0.000279378               0.999999996               0.000117309              -0.000298005               0.999999996               0.000128337              -0.000317015               0.999999996               0.000140035              -0.000336545               0.999999996               0.000152470              -0.000356824               0.999999996               0.000028657              -0.000201302               0.999999996               0.000029788              -0.000178668               0.999999996               0.000031505              -0.000176009               0.999999996               0.000034686              -0.000182487               0.999999996               0.000039262              -0.000193868               0.999999996               0.000045001              -0.000208449               0.999999996               0.000051678              -0.000225044               0.999999996               0.000059196              -0.000243335               0.999999996               0.000067635              -0.000262818               0.999999996               0.000076896              -0.000283324               0.999999996               0.000086871              -0.000304863               0.999999996               0.000097492              -0.000327153               0.999999996               0.000108789              -0.000350097               0.999999996               0.000120804              -0.000373673               0.999999996               0.000133545              -0.000397888               0.999999996               0.000146953              -0.000422919               0.999999996               0.000160857              -0.000448950               0.999999996               0.000026418              -0.000236526               0.999999996               0.000022317              -0.000210872               0.999999996               0.000023033              -0.000208952               0.999999996               0.000026677              -0.000217450               0.999999996               0.000032174              -0.000231578               0.999999996               0.000039061              -0.000249382               0.999999996               0.000047025              -0.000269497               0.999999996               0.000056042              -0.000291668               0.999999996               0.000066098              -0.000315397               0.999999996               0.000077040              -0.000340118               0.999999996               0.000088748              -0.000365943               0.999999996               0.000101173              -0.000392638               0.999999996               0.000114311              -0.000420223               0.999999996               0.000128085              -0.000448584               0.999999996               0.000142388              -0.000477647               0.999999996               0.000157034              -0.000507558               0.999999996               0.000171723              -0.000537967               0.999999996               0.000024013              -0.000269124               0.999999996               0.000014892              -0.000241560               0.999999996               0.000015254              -0.000240608               0.999999996               0.000019773              -0.000251194               0.999999996               0.000026433              -0.000268090               0.999999996               0.000034682              -0.000289159               0.999999996               0.000044251              -0.000312910               0.999999996               0.000055008              -0.000339082               0.999999996               0.000066836              -0.000367049               0.999999996               0.000079529              -0.000395978               0.999999996               0.000093003              -0.000425986               0.999999996               0.000107111              -0.000457012               0.999999996               0.000121715              -0.000488945               0.999999996               0.000136717              -0.000521768               0.999999996               0.000151988              -0.000555383               0.999999996               0.000167316              -0.000589519               0.999999996               0.000182372              -0.000623735               0.999999996               0.000021710              -0.000298555               0.999999996               0.000007873              -0.000270614               0.999999996               0.000008587              -0.000270730               0.999999996               0.000014187              -0.000283349               0.999999996               0.000022256              -0.000303014               0.999999996               0.000032094              -0.000327422               0.999999996               0.000043350              -0.000355098               0.999999996               0.000055844              -0.000385320               0.999999996               0.000069345              -0.000417359               0.999999996               0.000083569              -0.000450464               0.999999996               0.000098433              -0.000484600               0.999999996               0.000113736              -0.000519697               0.999999996               0.000129367              -0.000555774               0.999999996               0.000145306              -0.000592685               0.999999996               0.000161469              -0.000630238               0.999999996               0.000177662              -0.000667950               0.999999996               0.000193669              -0.000705433               0.999999996               0.000019853              -0.000325948               0.999999996               0.000002896              -0.000300664               0.999999996               0.000001931              -0.000298062               0.999999996               0.000006524              -0.000307486               0.999999996               0.000013621              -0.000324035               0.999999996               0.000022474              -0.000345479               0.999999996               0.000032582              -0.000370453               0.999999996               0.000043637              -0.000397983               0.999999996               0.000055586              -0.000427421               0.999999996               0.000068220              -0.000458171               0.999999996               0.000081239              -0.000489760               0.999999996               0.000094569              -0.000522140               0.999999996               0.000107965              -0.000555254               0.999999996               0.000121593              -0.000589122               0.999999996               0.000135568              -0.000623710               0.999999996               0.000149947              -0.000658805               0.999999996               0.000164637              -0.000694134               0.999999996               0.000017680              -0.000350507               0.999999996              -0.000000704              -0.000329166               0.999999996              -0.000003339              -0.000325412               0.999999996              -0.000000066              -0.000332374               0.999999996               0.000005925              -0.000346193               0.999999996               0.000013638              -0.000364879               0.999999996               0.000022547              -0.000387195               0.999999996               0.000032182              -0.000412139               0.999999996               0.000042485              -0.000439085               0.999999996               0.000053378              -0.000467500               0.999999996               0.000064729              -0.000496929               0.999999996               0.000076180              -0.000526965               0.999999996               0.000087390              -0.000557612               0.999999996               0.000098501              -0.000588741               0.999999996               0.000109705              -0.000620528               0.999999996               0.000121138              -0.000652946               0.999999996               0.000132970              -0.000685993               0.999999996               0.000015317              -0.000371797               0.999999996              -0.000002939              -0.000355367               0.999999996              -0.000006880              -0.000351785               0.999999996              -0.000004941              -0.000357179               0.999999996              -0.000000181              -0.000368833               0.999999996               0.000006269              -0.000385175               0.999999996               0.000013745              -0.000405089               0.999999996               0.000021814              -0.000427698               0.999999996               0.000030430              -0.000452346               0.999999996               0.000039702              -0.000478618               0.999999996               0.000049303              -0.000506004               0.999999996               0.000058816              -0.000534167               0.999999996               0.000068046              -0.000562862               0.999999996               0.000076917              -0.000591950               0.999999996               0.000085274              -0.000621481               0.999999996               0.000093309              -0.000651491               0.999999996               0.000101405              -0.000682167               0.999999996               0.000012665              -0.000389651               0.999999996              -0.000003962              -0.000378505               0.999999996              -0.000008541              -0.000376074               0.999999996              -0.000007735              -0.000380788               0.999999996              -0.000004280              -0.000390957               0.999999996               0.000000742              -0.000405549               0.999999996               0.000006600              -0.000423498               0.999999996               0.000013074              -0.000444126               0.999999996               0.000020033              -0.000466830               0.999999996               0.000027413              -0.000491276               0.999999996               0.000035129              -0.000516970               0.999999996               0.000042886              -0.000543588               0.999999996               0.000050333              -0.000570809               0.999999996               0.000057091              -0.000598494               0.999999996               0.000062886              -0.000626501               0.999999996               0.000067779              -0.000654858               0.999999996               0.000071983              -0.000683652               0.999999996               0.000009778              -0.000403733               0.999999996              -0.000003938              -0.000397649               0.999999996              -0.000008339              -0.000396925               0.999999996              -0.000008316              -0.000401633               0.999999996              -0.000006101              -0.000411058               0.999999996              -0.000002656              -0.000424471               0.999999996               0.000001664              -0.000441138               0.999999996               0.000006598              -0.000460300               0.999999996               0.000011683              -0.000481606               0.999999996               0.000017038              -0.000504733               0.999999996               0.000022850              -0.000529201               0.999999996               0.000028836              -0.000554705               0.999999996               0.000034433              -0.000580919               0.999999996               0.000039222              -0.000607658               0.999999996               0.000042900              -0.000634805               0.999999996               0.000045285              -0.000662260               0.999999996               0.000046396              -0.000689948               0.999999996               0.000006652              -0.000413996               0.999999996              -0.000003112              -0.000411989               0.999999996              -0.000006561              -0.000413059               0.999999996              -0.000006901              -0.000418249               0.999999996              -0.000005669              -0.000427443               0.999999996              -0.000003608              -0.000440180               0.999999996              -0.000000755              -0.000455968               0.999999996               0.000002544              -0.000474315               0.999999996               0.000005775              -0.000494786               0.999999996               0.000009172              -0.000516951               0.999999996               0.000013036              -0.000540604               0.999999996               0.000017057              -0.000565437               0.999999996               0.000020740              -0.000591116               0.999999996               0.000023826              -0.000617385               0.999999996               0.000025931              -0.000644090               0.999999996               0.000026768              -0.000671061               0.999999996               0.000026260              -0.000698202               0.999999996               0.000003351              -0.000420291               0.999999996              -0.000001702              -0.000420888               0.999999996              -0.000003582              -0.000423205               0.999999996              -0.000003869              -0.000428963               0.999999996              -0.000003410              -0.000438182               0.999999996              -0.000002428              -0.000450640               0.999999996              -0.000001019              -0.000466042               0.999999996               0.000000573              -0.000483943               0.999999996               0.000002134              -0.000503935               0.999999996               0.000003800              -0.000525565               0.999999996               0.000005681              -0.000548640               0.999999996               0.000007692              -0.000572971               0.999999996               0.000009604              -0.000598334               0.999999996               0.000011149              -0.000624441               0.999999996               0.000012137              -0.000651088               0.999999996               0.000012389              -0.000678034               0.999999996               0.000011587              -0.000705079               0.999999996              -0.000000000              -0.000422351               0.999999996              -0.000000000              -0.000423887               0.999999996              -0.000000000              -0.000426737               0.999999996               0.000000000              -0.000432729               0.999999996              -0.000000000              -0.000441937               0.999999996               0.000000000              -0.000454328               0.999999996              -0.000000000              -0.000469631               0.999999996               0.000000000              -0.000487409               0.999999996               0.000000000              -0.000507301               0.999999996               0.000000000              -0.000528763               0.999999996               0.000000000              -0.000551560               0.999999996               0.000000000              -0.000575630               0.999999996               0.000000000              -0.000600836               0.999999996               0.000000000              -0.000626987               0.999999996              -0.000000000              -0.000653776               0.999999996              -0.000000000              -0.000680897               0.999999996               0.000000000              -0.000708074               0.999999996               0.000034428              -0.000000000               0.999999996               0.000051398               0.000000000               0.999999996               0.000059684               0.000000000               0.999999996               0.000064719               0.000000000               0.999999996               0.000068643               0.000000000               0.999999996               0.000072391              -0.000000000               0.999999996               0.000076427              -0.000000000               0.999999996               0.000080980              -0.000000000               0.999999996               0.000086139              -0.000000000               0.999999996               0.000091977              -0.000000000               0.999999996               0.000098572              -0.000000000               0.999999996               0.000105926               0.000000000               0.999999996               0.000114013               0.000000000               0.999999996               0.000122781               0.000000000               0.999999996               0.000132201               0.000000000               0.999999996               0.000142199              -0.000000000               0.999999996               0.000152644              -0.000000000               0.999999996               0.000034110               0.000042177               0.999999996               0.000050364               0.000037238               0.999999996               0.000058270               0.000036021               0.999999996               0.000063127               0.000036765               0.999999996               0.000066992               0.000038701               0.999999996               0.000070770               0.000041428               0.999999996               0.000074870               0.000044703               0.999999996               0.000079494               0.000048239               0.999999996               0.000084767               0.000052080               0.999999996               0.000090724               0.000056193               0.999999996               0.000097429               0.000060481               0.999999996               0.000104904               0.000064934               0.999999996               0.000113093               0.000069443               0.999999996               0.000121922               0.000074017               0.999999996               0.000131375               0.000078528               0.999999996               0.000141351               0.000082881               0.999999996               0.000151740               0.000086839               0.999999996               0.000033313               0.000083861               0.999999996               0.000047434               0.000074089               0.999999996               0.000054167               0.000071838               0.999999996               0.000058470               0.000073546               0.999999996               0.000062222               0.000077562               0.999999996               0.000066135               0.000083062               0.999999996               0.000070467               0.000089532               0.999999996               0.000075376               0.000096650               0.999999996               0.000081002               0.000104293               0.999999996               0.000087327               0.000112475               0.999999996               0.000094395               0.000121081               0.999999996               0.000102186               0.000129940               0.999999996               0.000110640               0.000138965               0.999999996               0.000119680               0.000148049               0.999999996               0.000129255               0.000157163               0.999999996               0.000139310               0.000166064               0.999999996               0.000149812               0.000174564               0.999999996               0.000032159               0.000124571               0.999999996               0.000042823               0.000110130               0.999999996               0.000047857               0.000107240               0.999999996               0.000051545               0.000110244               0.999999996               0.000055211               0.000116539               0.999999996               0.000059370               0.000124875               0.999999996               0.000064221               0.000134677               0.999999996               0.000069769               0.000145409               0.999999996               0.000076067               0.000156893               0.999999996               0.000083093               0.000169137               0.999999996               0.000090786               0.000182016               0.999999996               0.000099150               0.000195305               0.999999996               0.000108117               0.000208869               0.999999996               0.000117606               0.000222614               0.999999996               0.000127615               0.000236531               0.999999996               0.000138145               0.000250489               0.999999996               0.000149277               0.000264441               0.999999996               0.000030607               0.000163854               0.999999996               0.000036807               0.000145045               0.999999996               0.000040055               0.000142019               0.999999996               0.000043263               0.000146654               0.999999996               0.000047181               0.000155417               0.999999996               0.000052000               0.000166771               0.999999996               0.000057654               0.000179926               0.999999996               0.000064095               0.000194392               0.999999996               0.000071326               0.000209788               0.999999996               0.000079280               0.000226143               0.999999996               0.000087890               0.000243334               0.999999996               0.000097104               0.000261160               0.999999996               0.000106908               0.000279378               0.999999996               0.000117309               0.000298005               0.999999996               0.000128337               0.000317015               0.999999996               0.000140035               0.000336545               0.999999996               0.000152470               0.000356824               0.999999996               0.000028657               0.000201302               0.999999996               0.000029788               0.000178668               0.999999996               0.000031505               0.000176009               0.999999996               0.000034686               0.000182487               0.999999996               0.000039262               0.000193868               0.999999996               0.000045001               0.000208449               0.999999996               0.000051678               0.000225044               0.999999996               0.000059196               0.000243335               0.999999996               0.000067635               0.000262818               0.999999996               0.000076896               0.000283324               0.999999996               0.000086871               0.000304863               0.999999996               0.000097492               0.000327153               0.999999996               0.000108789               0.000350097               0.999999996               0.000120804               0.000373673               0.999999996               0.000133545               0.000397888               0.999999996               0.000146953               0.000422919               0.999999996               0.000160857               0.000448950               0.999999996               0.000026418               0.000236526               0.999999996               0.000022317               0.000210872               0.999999996               0.000023033               0.000208952               0.999999996               0.000026677               0.000217450               0.999999996               0.000032174               0.000231578               0.999999996               0.000039061               0.000249382               0.999999996               0.000047025               0.000269497               0.999999996               0.000056042               0.000291668               0.999999996               0.000066098               0.000315397               0.999999996               0.000077040               0.000340118               0.999999996               0.000088748               0.000365943               0.999999996               0.000101173               0.000392638               0.999999996               0.000114311               0.000420223               0.999999996               0.000128085               0.000448584               0.999999996               0.000142388               0.000477647               0.999999996               0.000157034               0.000507558               0.999999996               0.000171723               0.000537967               0.999999996               0.000024013               0.000269124               0.999999996               0.000014892               0.000241560               0.999999996               0.000015254               0.000240608               0.999999996               0.000019773               0.000251194               0.999999996               0.000026433               0.000268090               0.999999996               0.000034682               0.000289159               0.999999996               0.000044251               0.000312910               0.999999996               0.000055008               0.000339082               0.999999996               0.000066836               0.000367049               0.999999996               0.000079529               0.000395978               0.999999996               0.000093003               0.000425986               0.999999996               0.000107111               0.000457012               0.999999996               0.000121715               0.000488945               0.999999996               0.000136717               0.000521768               0.999999996               0.000151988               0.000555383               0.999999996               0.000167316               0.000589519               0.999999996               0.000182372               0.000623735               0.999999996               0.000021710               0.000298555               0.999999996               0.000007873               0.000270614               0.999999996               0.000008587               0.000270730               0.999999996               0.000014187               0.000283349               0.999999996               0.000022256               0.000303014               0.999999996               0.000032094               0.000327422               0.999999996               0.000043350               0.000355098               0.999999996               0.000055844               0.000385320               0.999999996               0.000069345               0.000417359               0.999999996               0.000083569               0.000450464               0.999999996               0.000098433               0.000484600               0.999999996               0.000113736               0.000519697               0.999999996               0.000129367               0.000555774               0.999999996               0.000145306               0.000592685               0.999999996               0.000161469               0.000630238               0.999999996               0.000177662               0.000667950               0.999999996               0.000193669               0.000705433               0.999999996               0.000019853               0.000325948               0.999999996               0.000002896               0.000300664               0.999999996               0.000001931               0.000298062               0.999999996               0.000006524               0.000307486               0.999999996               0.000013621               0.000324035               0.999999996               0.000022474               0.000345479               0.999999996               0.000032582               0.000370453               0.999999996               0.000043637               0.000397983               0.999999996               0.000055586               0.000427421               0.999999996               0.000068220               0.000458171               0.999999996               0.000081239               0.000489760               0.999999996               0.000094569               0.000522140               0.999999996               0.000107965               0.000555254               0.999999996               0.000121593               0.000589122               0.999999996               0.000135568               0.000623710               0.999999996               0.000149947               0.000658805               0.999999996               0.000164637               0.000694134               0.999999996               0.000017680               0.000350507               0.999999996              -0.000000704               0.000329166               0.999999996              -0.000003339               0.000325412               0.999999996              -0.000000066               0.000332374               0.999999996               0.000005925               0.000346193               0.999999996               0.000013638               0.000364879               0.999999996               0.000022547               0.000387195               0.999999996               0.000032182               0.000412139               0.999999996               0.000042485               0.000439085               0.999999996               0.000053378               0.000467500               0.999999996               0.000064729               0.000496929               0.999999996               0.000076180               0.000526965               0.999999996               0.000087390               0.000557612               0.999999996               0.000098501               0.000588741               0.999999996               0.000109705               0.000620528               0.999999996               0.000121138               0.000652946               0.999999996               0.000132970               0.000685993               0.999999996               0.000015317               0.000371797               0.999999996              -0.000002939               0.000355367               0.999999996              -0.000006880               0.000351785               0.999999996              -0.000004941               0.000357179               0.999999996              -0.000000181               0.000368833               0.999999996               0.000006269               0.000385175               0.999999996               0.000013745               0.000405089               0.999999996               0.000021814               0.000427698               0.999999996               0.000030430               0.000452346               0.999999996               0.000039702               0.000478618               0.999999996               0.000049303               0.000506004               0.999999996               0.000058816               0.000534167               0.999999996               0.000068046               0.000562862               0.999999996               0.000076917               0.000591950               0.999999996               0.000085274               0.000621481               0.999999996               0.000093309               0.000651491               0.999999996               0.000101405               0.000682167               0.999999996               0.000012665               0.000389651               0.999999996              -0.000003962               0.000378505               0.999999996              -0.000008541               0.000376074               0.999999996              -0.000007735               0.000380788               0.999999996              -0.000004280               0.000390957               0.999999996               0.000000742               0.000405549               0.999999996               0.000006600               0.000423498               0.999999996               0.000013074               0.000444126               0.999999996               0.000020033               0.000466830               0.999999996               0.000027413               0.000491276               0.999999996               0.000035129               0.000516970               0.999999996               0.000042886               0.000543588               0.999999996               0.000050333               0.000570809               0.999999996               0.000057091               0.000598494               0.999999996               0.000062886               0.000626501               0.999999996               0.000067779               0.000654858               0.999999996               0.000071983               0.000683652               0.999999996               0.000009778               0.000403733               0.999999996              -0.000003938               0.000397649               0.999999996              -0.000008339               0.000396925               0.999999996              -0.000008316               0.000401633               0.999999996              -0.000006101               0.000411058               0.999999996              -0.000002656               0.000424471               0.999999996               0.000001664               0.000441138               0.999999996               0.000006598               0.000460300               0.999999996               0.000011683               0.000481606               0.999999996               0.000017038               0.000504733               0.999999996               0.000022850               0.000529201               0.999999996               0.000028836               0.000554705               0.999999996               0.000034433               0.000580919               0.999999996               0.000039222               0.000607658               0.999999996               0.000042900               0.000634805               0.999999996               0.000045285               0.000662260               0.999999996               0.000046396               0.000689948               0.999999996               0.000006652               0.000413996               0.999999996              -0.000003112               0.000411989               0.999999996              -0.000006561               0.000413059               0.999999996              -0.000006901               0.000418249               0.999999996              -0.000005669               0.000427443               0.999999996              -0.000003608               0.000440180               0.999999996              -0.000000755               0.000455968               0.999999996               0.000002544               0.000474315               0.999999996               0.000005775               0.000494786               0.999999996               0.000009172               0.000516951               0.999999996               0.000013036               0.000540604               0.999999996               0.000017057               0.000565437               0.999999996               0.000020740               0.000591116               0.999999996               0.000023826               0.000617385               0.999999996               0.000025931               0.000644090               0.999999996               0.000026768               0.000671061               0.999999996               0.000026260               0.000698202               0.999999996               0.000003351               0.000420291               0.999999996              -0.000001702               0.000420888               0.999999996              -0.000003582               0.000423205               0.999999996              -0.000003869               0.000428963               0.999999996              -0.000003410               0.000438182               0.999999996              -0.000002428               0.000450640               0.999999996              -0.000001019               0.000466042               0.999999996               0.000000573               0.000483943               0.999999996               0.000002134               0.000503935               0.999999996               0.000003800               0.000525565               0.999999996               0.000005681               0.000548640               0.999999996               0.000007692               0.000572971               0.999999996               0.000009604               0.000598334               0.999999996               0.000011149               0.000624441               0.999999996               0.000012137               0.000651088               0.999999996               0.000012389               0.000678034               0.999999996               0.000011587               0.000705079               0.999999996              -0.000000000               0.000422351               0.999999996              -0.000000000               0.000423887               0.999999996               0.000000000               0.000426737               0.999999996              -0.000000000               0.000432729               0.999999996              -0.000000000               0.000441937               0.999999996               0.000000000               0.000454328               0.999999996               0.000000000               0.000469631               0.999999996              -0.000000000               0.000487409               0.999999996              -0.000000000               0.000507301               0.999999996              -0.000000000               0.000528763               0.999999996               0.000000000               0.000551560               0.999999996               0.000000000               0.000575630               0.999999996              -0.000000000               0.000600836               0.999999996               0.000000000               0.000626987               0.999999996               0.000000000               0.000653776               0.999999996               0.000000000               0.000680897               0.999999996              -0.000000000               0.000708074               0.999999996 </DataArray>
<DataArray type="Float64"                                    Name="defo"                                                      NumberOfComponents=" 3" format="ascii">
             -0.000034428              -0.000000000               0.999999996              -0.000051398               0.000000000               0.999999996              -0.000059684              -0.000000000               0.999999996              -0.000064719               0.000000000               0.999999996              -0.000068643               0.000000000               0.999999996              -0.000072391              -0.000000000               0.999999996              -0.000076427              -0.000000000               0.999999996              -0.000080980              -0.000000000               0.999999996              -0.000086139              -0.000000000               0.999999996              -0.000091977               0.000000000               0.999999996              -0.000098572               0.000000000               0.999999996              -0.000105926               0.000000000               0.999999996              -0.000114013               0.000000000               0.999999996              -0.000122781               0.000000000               0.999999996              -0.000132201               0.000000000               0.999999996              -0.000142199               0.000000000               0.999999996              -0.000152644               0.000000000               0.999999996              -0.000034110               0.000042177               0.999999996              -0.000050364               0.000037238               0.999999996              -0.000058270               0.000036021               0.999999996              -0.000063127               0.000036765               0.999999996              -0.000066992               0.000038701               0.999999996              -0.000070770               0.000041428               0.999999996              -0.000074870               0.000044703               0.999999996              -0.000079494               0.000048239               0.999999996              -0.000084767               0.000052080               0.999999996              -0.000090724               0.000056193               0.999999996              -0.000097429               0.000060481               0.999999996              -0.000104904               0.000064934               0.999999996              -0.000113093               0.000069443               0.999999996              -0.000121922               0.000074017               0.999999996              -0.000131375               0.000078528               0.999999996              -0.000141351               0.000082881               0.999999996              -0.000151740               0.000086839               0.999999996              -0.000033313               0.000083861               0.999999996              -0.000047434               0.000074089               0.999999996              -0.000054167               0.000071838               0.999999996              -0.000058470               0.000073546               0.999999996              -0.000062222               0.000077562               0.999999996              -0.000066135               0.000083062               0.999999996              -0.000070467               0.000089532               0.999999996              -0.000075376               0.000096650               0.999999996              -0.000081002               0.000104293               0.999999996              -0.000087327               0.000112475               0.999999996              -0.000094395               0.000121081               0.999999996              -0.000102186               0.000129940               0.999999996              -0.000110640               0.000138965               0.999999996              -0.000119680               0.000148049               0.999999996              -0.000129255               0.000157163               0.999999996              -0.000139310               0.000166064               0.999999996              -0.000149812               0.000174564               0.999999996              -0.000032159               0.000124571               0.999999996              -0.000042823               0.000110130               0.999999996              -0.000047857               0.000107240               0.999999996              -0.000051545               0.000110244               0.999999996              -0.000055211               0.000116539               0.999999996              -0.000059370               0.000124875               0.999999996              -0.000064221               0.000134677               0.999999996              -0.000069769               0.000145409               0.999999996              -0.000076067               0.000156893               0.999999996              -0.000083093               0.000169137               0.999999996              -0.000090786               0.000182016               0.999999996              -0.000099150               0.000195305               0.999999996              -0.000108117               0.000208869               0.999999996              -0.000117606               0.000222614               0.999999996              -0.000127615               0.000236531               0.999999996              -0.000138145               0.000250489               0.999999996              -0.000149277               0.000264441               0.999999996              -0.000030607               0.000163854               0.999999996              -0.000036807               0.000145045               0.999999996              -0.000040055               0.000142019               0.999999996              -0.000043263               0.000146654               0.999999996              -0.000047181               0.000155417               0.999999996              -0.000052000               0.000166771               0.999999996              -0.000057654               0.000179926               0.999999996              -0.000064095               0.000194392               0.999999996              -0.000071326               0.000209788               0.999999996              -0.000079280               0.000226143               0.999999996              -0.000087890               0.000243334               0.999999996              -0.000097104               0.000261160               0.999999996              -0.000106908               0.000279378               0.999999996              -0.000117309               0.000298005               0.999999996              -0.000128337               0.000317015               0.999999996              -0.000140035               0.000336545               0.999999996              -0.000152470               0.000356824               0.999999996              -0.000028657               0.000201302               0.999999996              -0.000029788               0.000178668               0.999999996              -0.000031505               0.000176009               0.999999996              -0.000034686               0.000182487               0.999999996              -0.000039262               0.000193868               0.999999996              -0.000045001               0.000208449               0.999999996              -0.000051678               0.000225044               0.999999996              -0.000059196               0.000243335               0.999999996              -0.000067635               0.000262818               0.999999996              -0.000076896               0.000283324               0.999999996              -0.000086871               0.000304863               0.999999996              -0.000097492               0.000327153               0.999999996              -0.000108789               0.000350097               0.999999996              -0.000120804               0.000373673               0.999999996              -0.000133545               0.000397888               0.999999996              -0.000146953               0.000422919               0.999999996              -0.000160857               0.000448950               0.999999996              -0.000026418               0.000236526               0.999999996              -0.000022317               0.000210872               0.999999996              -0.000023033               0.000208952               0.999999996              -0.000026677               0.000217450               0.999999996              -0.000032174               0.000231578               0.999999996              -0.000039061               0.000249382               0.999999996              -0.000047025               0.000269497               0.999999996              -0.000056042               0.000291668               0.999999996              -0.000066098               0.000315397               0.999999996              -0.000077040               0.000340118               0.999999996              -0.000088748               0.000365943               0.999999996              -0.000101173               0.000392638               0.999999996              -0.000114311               0.000420223               0.999999996              -0.000128085               0.000448584               0.999999996              -0.000142388               0.000477647               0.999999996              -0.000157034               0.000507558               0.999999996              -0.000171723               0.000537967               0.999999996              -0.000024013               0.000269124               0.999999996              -0.000014892               0.000241560               0.999999996              -0.000015254               0.000240608               0.999999996              -0.000019773               0.000251194               0.999999996              -0.000026433               0.000268090               0.999999996              -0.000034682               0.000289159               0.999999996              -0.000044251               0.000312910               0.999999996              -0.000055008               0.000339082               0.999999996              -0.000066836               0.000367049               0.999999996              -0.000079529               0.000395978               0.999999996              -0.000093003               0.000425986               0.999999996              -0.000107111               0.000457012               0.999999996              -0.000121715               0.000488945               0.999999996              -0.000136717               0.000521768               0.999999996              -0.000151988               0.000555383               0.999999996              -0.000167316               0.000589519               0.999999996              -0.000182372               0.000623735               0.999999996              -0.000021710               0.000298555               0.999999996              -0.000007873               0.000270614               0.999999996              -0.000008587               0.000270730               0.999999996              -0.000014187               0.000283349               0.999999996              -0.000022256               0.000303014               0.999999996              -0.000032094               0.000327422               0.999999996              -0.000043350               0.000355098               0.999999996              -0.000055844               0.000385320               0.999999996              -0.000069345               0.000417359               0.999999996              -0.000083569               0.000450464               0.999999996              -0.000098433               0.000484600               0.999999996              -0.000113736               0.000519697               0.999999996              -0.000129367               0.000555774               0.999999996              -0.000145306               0.000592685               0.999999996              -0.000161469               0.000630238               0.999999996              -0.000177662               0.000667950               0.999999996              -0.000193669               0.000705433               0.999999996              -0.000019853               0.000325948               0.999999996              -0.000002896               0.000300664               0.999999996              -0.000001931               0.000298062               0.999999996              -0.000006524               0.000307486               0.999999996              -0.000013621               0.000324035               0.999999996              -0.000022474               0.000345479               0.999999996              -0.000032582               0.000370453               0.999999996              -0.000043637               0.000397983               0.999999996              -0.000055586               0.000427421               0.999999996              -0.000068220               0.000458171               0.999999996              -0.000081239               0.000489760               0.999999996              -0.000094569               0.000522140               0.999999996              -0.000107965               0.000555254               0.999999996              -0.000121593               0.000589122               0.999999996              -0.000135568               0.000623710               0.999999996              -0.000149947               0.000658805               0.999999996              -0.000164637               0.000694134               0.999999996              -0.000017680               0.000350507               0.999999996               0.000000704               0.000329166               0.999999996               0.000003339               0.000325412               0.999999996               0.000000066               0.000332374               0.999999996              -0.000005925               0.000346193               0.999999996              -0.000013638               0.000364879               0.999999996              -0.000022547               0.000387195               0.999999996              -0.000032182               0.000412139               0.999999996              -0.000042485               0.000439085               0.999999996              -0.000053378               0.000467500               0.999999996              -0.000064729               0.000496929               0.999999996              -0.000076180               0.000526965               0.999999996              -0.000087390               0.000557612               0.999999996              -0.000098501               0.000588741               0.999999996              -0.000109705               0.000620528               0.999999996              -0.000121138               0.000652946               0.999999996              -0.000132970               0.000685993               0.999999996              -0.000015317               0.000371797               0.999999996               0.000002939               0.000355367               0.999999996               0.000006880               0.000351785               0.999999996               0.000004941               0.000357179               0.999999996               0.000000181               0.000368833               0.999999996              -0.000006269               0.000385175               0.999999996              -0.000013745               0.000405089               0.999999996              -0.000021814               0.000427698               0.999999996              -0.000030430               0.000452346               0.999999996              -0.000039702               0.000478618               0.999999996              -0.000049303               0.000506004               0.999999996              -0.000058816               0.000534167               0.999999996              -0.000068046               0.000562862               0.999999996              -0.000076917               0.000591950               0.999999996              -0.000085274               0.000621481               0.999999996              -0.000093309               0.000651491               0.999999996              -0.000101405               0.000682167               0.999999996              -0.000012665               0.000389651               0.999999996               0.000003962               0.000378505               0.999999996               0.000008541               0.000376074               0.999999996               0.000007735               0.000380788               0.999999996               0.000004280               0.000390957               0.999999996              -0.000000742               0.000405549               0.999999996              -0.000006600               0.000423498               0.999999996              -0.000013074               0.000444126               0.999999996              -0.000020033               0.000466830               0.999999996              -0.000027413               0.000491276               0.999999996              -0.000035129               0.000516970               0.999999996              -0.000042886               0.000543588               0.999999996              -0.000050333               0.000570809               0.999999996              -0.000057091               0.000598494               0.999999996              -0.000062886               0.000626501               0.999999996              -0.000067779               0.000654858               0.999999996              -0.000071983               0.000683652               0.999999996              -0.000009778               0.000403733               0.999999996               0.000003938               0.000397649               0.999999996               0.000008339               0.000396925               0.999999996               0.000008316               0.000401633               0.999999996               0.000006101               0.000411058               0.999999996               0.000002656               0.000424471               0.999999996              -0.000001664               0.000441138               0.999999996              -0.000006598               0.000460300               0.999999996              -0.000011683               0.000481606               0.999999996              -0.000017038               0.000504733               0.999999996              -0.000022850               0.000529201               0.999999996              -0.000028836               0.000554705               0.999999996              -0.000034433               0.000580919               0.999999996              -0.000039222               0.000607658               0.999999996              -0.000042900               0.000634805               0.999999996              -0.000045285               0.000662260               0.999999996              -0.000046396               0.000689948               0.999999996              -0.000006652               0.000413996               0.999999996               0.000003112               0.000411989               0.999999996               0.000006561               0.000413059               0.999999996               0.000006901               0.000418249               0.999999996               0.000005669               0.000427443               0.999999996               0.000003608               0.000440180               0.999999996               0.000000755               0.000455968               0.999999996              -0.000002544               0.000474315               0.999999996              -0.000005775               0.000494786               0.999999996              -0.000009172               0.000516951               0.999999996              -0.000013036               0.000540604               0.999999996              -0.000017057               0.000565437               0.999999996              -0.000020740               0.000591116               0.999999996              -0.000023826               0.000617385               0.999999996              -0.000025931               0.000644090               0.999999996              -0.000026768               0.000671061               0.999999996              -0.000026260               0.000698202               0.999999996              -0.000003351               0.000420291               0.999999996               0.000001702               0.000420888               0.999999996               0.000003582               0.000423205               0.999999996               0.000003869               0.000428963               0.999999996               0.000003410               0.000438182               0.999999996               0.000002428               0.000450640               0.999999996               0.000001019               0.000466042               0.999999996              -0.000000573               0.000483943               0.999999996              -0.000002134               0.000503935               0.999999996              -0.000003800               0.000525565               0.999999996              -0.000005681               0.000548640               0.999999996              -0.000007692               0.000572971               0.999999996              -0.000009604               0.000598334               0.999999996              -0.000011149               0.000624441               0.999999996              -0.000012137               0.000651088               0.999999996              -0.000012389               0.000678034               0.999999996              -0.000011587               0.000705079               0.999999996              -0.000000000               0.000422351               0.999999996              -0.000000000               0.000423887               0.999999996               0.000000000               0.000426737               0.999999996              -0.000000000               0.000432729               0.999999996              -0.000000000               0.000441937               0.999999996               0.000000000               0.000454328               0.999999996               0.000000000               0.000469631               0.999999996              -0.000000000               0.000487409               0.999999996              -0.000000000               0.000507301               0.999999996              -0.000000000               0.000528763               0.999999996               0.000000000               0.000551560               0.999999996               0.000000000               0.000575630               0.999999996              -0.000000000               0.000600836               0.999999996               0.000000000               0.000626987               0.999999996               0.000000000               0.000653776               0.999999996               0.000000000               0.000680897               0.999999996              -0.000000000               0.000708074               0.999999996              -0.000034428              -0.000000000               0.999999996              -0.000051398               0.000000000               0.999999996              -0.000059684              -0.000000000               0.999999996              -0.000064719               0.000000000               0.999999996              -0.000068643               0.000000000               0.999999996              -0.000072391              -0.000000000               0.999999996              -0.000076427              -0.000000000               0.999999996              -0.000080980              -0.000000000               0.999999996              -0.000086139              -0.000000000               0.999999996              -0.000091977               0.000000000               0.999999996              -0.000098572               0.000000000               0.999999996              -0.000105926               0.000000000               0.999999996              -0.000114013               0.000000000               0.999999996              -0.000122781               0.000000000               0.999999996              -0.000132201               0.000000000               0.999999996              -0.000142199               0.000000000               0.999999996              -0.000152644               0.000000000               0.999999996              -0.000034110              -0.000042177               0.999999996              -0.000050364              -0.000037238               0.999999996              -0.000058270              -0.000036021               0.999999996              -0.000063127              -0.000036765               0.999999996              -0.000066992              -0.000038701               0.999999996              -0.000070770              -0.000041428               0.999999996              -0.000074870              -0.000044703               0.999999996              -0.000079494              -0.000048239               0.999999996              -0.000084767              -0.000052080               0.999999996              -0.000090724              -0.000056193               0.999999996              -0.000097429              -0.000060481               0.999999996              -0.000104904              -0.000064934               0.999999996              -0.000113093              -0.000069443               0.999999996              -0.000121922              -0.000074017               0.999999996              -0.000131375              -0.000078528               0.999999996              -0.000141351              -0.000082881               0.999999996              -0.000151740              -0.000086839               0.999999996              -0.000033313              -0.000083861               0.999999996              -0.000047434              -0.000074089               0.999999996              -0.000054167              -0.000071838               0.999999996              -0.000058470              -0.000073546               0.999999996              -0.000062222              -0.000077562               0.999999996              -0.000066135              -0.000083062               0.999999996              -0.000070467              -0.000089532               0.999999996              -0.000075376              -0.000096650               0.999999996              -0.000081002              -0.000104293               0.999999996              -0.000087327              -0.000112475               0.999999996              -0.000094395              -0.000121081               0.999999996              -0.000102186              -0.000129940               0.999999996              -0.000110640              -0.000138965               0.999999996              -0.000119680              -0.000148049               0.999999996              -0.000129255              -0.000157163               0.999999996              -0.000139310              -0.000166064               0.999999996              -0.000149812              -0.000174564               0.999999996              -0.000032159              -0.000124571               0.999999996              -0.000042823              -0.000110130               0.999999996              -0.000047857              -0.000107240               0.999999996              -0.000051545              -0.000110244               0.999999996              -0.000055211              -0.000116539               0.999999996              -0.000059370              -0.000124875               0.999999996              -0.000064221              -0.000134677               0.999999996              -0.000069769              -0.000145409               0.999999996              -0.000076067              -0.000156893               0.999999996              -0.000083093              -0.000169137               0.999999996              -0.000090786              -0.000182016               0.999999996              -0.000099150              -0.000195305               0.999999996              -0.000108117              -0.000208869               0.999999996              -0.000117606              -0.000222614               0.999999996              -0.000127615              -0.000236531               0.999999996              -0.000138145              -0.000250489               0.999999996              -0.000149277              -0.000264441               0.999999996              -0.000030607              -0.000163854               0.999999996              -0.000036807              -0.000145045               0.999999996              -0.000040055              -0.000142019               0.999999996              -0.000043263              -0.000146654               0.999999996              -0.000047181              -0.000155417               0.999999996              -0.000052000              -0.000166771               0.999999996              -0.000057654              -0.000179926               0.999999996              -0.000064095              -0.000194392               0.999999996              -0.000071326              -0.000209788               0.999999996              -0.000079280              -0.000226143               0.999999996              -0.000087890              -0.000243334               0.999999996              -0.000097104              -0.000261160               0.999999996              -0.000106908              -0.000279378               0.999999996              -0.000117309              -0.000298005               0.999999996              -0.000128337              -0.000317015               0.999999996              -0.000140035              -0.000336545               0.999999996              -0.000152470              -0.000356824               0.999999996              -0.000028657              -0.000201302               0.999999996              -0.000029788              -0.000178668               0.999999996              -0.000031505              -0.000176009               0.999999996              -0.000034686              -0.000182487               0.999999996              -0.000039262              -0.000193868               0.999999996              -0.000045001              -0.000208449               0.999999996              -0.000051678              -0.000225044               0.999999996              -0.000059196              -0.000243335               0.999999996              -0.000067635              -0.000262818               0.999999996              -0.000076896              -0.000283324               0.999999996              -0.000086871              -0.000304863               0.999999996              -0.000097492              -0.000327153               0.999999996              -0.000108789              -0.000350097               0.999999996              -0.000120804              -0.000373673               0.999999996              -0.000133545              -0.000397888               0.999999996              -0.000146953              -0.000422919               0.999999996              -0.000160857              -0.000448950               0.999999996              -0.000026418              -0.000236526               0.999999996              -0.000022317              -0.000210872               0.999999996              -0.000023033              -0.000208952               0.999999996              -0.000026677              -0.000217450               0.999999996              -0.000032174              -0.000231578               0.999999996              -0.000039061              -0.000249382               0.999999996              -0.000047025              -0.000269497               0.999999996              -0.000056042              -0.000291668               0.999999996              -0.000066098              -0.000315397               0.999999996              -0.000077040              -0.000340118               0.999999996              -0.000088748              -0.000365943               0.999999996              -0.000101173              -0.000392638               0.999999996              -0.000114311              -0.000420223               0.999999996              -0.000128085              -0.000448584               0.999999996              -0.000142388              -0.000477647               0.999999996              -0.000157034              -0.000507558               0.999999996              -0.000171723              -0.000537967               0.999999996              -0.000024013              -0.000269124               0.999999996              -0.000014892              -0.000241560               0.999999996              -0.000015254              -0.000240608               0.999999996              -0.000019773              -0.000251194               0.999999996              -0.000026433              -0.000268090               0.999999996              -0.000034682              -0.000289159               0.999999996              -0.000044251              -0.000312910               0.999999996              -0.000055008              -0.000339082               0.999999996              -0.000066836              -0.000367049               0.999999996              -0.000079529              -0.000395978               0.999999996              -0.000093003              -0.000425986               0.999999996              -0.000107111              -0.000457012               0.999999996              -0.000121715              -0.000488945               0.999999996              -0.000136717              -0.000521768               0.999999996              -0.000151988              -0.000555383               0.999999996              -0.000167316              -0.000589519               0.999999996              -0.000182372              -0.000623735               0.999999996              -0.000021710              -0.000298555               0.999999996              -0.000007873              -0.000270614               0.999999996              -0.000008587              -0.000270730               0.999999996              -0.000014187              -0.000283349               0.999999996              -0.000022256              -0.000303014               0.999999996              -0.000032094              -0.000327422               0.999999996              -0.000043350              -0.000355098               0.999999996              -0.000055844              -0.000385320               0.999999996              -0.000069345              -0.000417359               0.999999996              -0.000083569              -0.000450464               0.999999996              -0.000098433              -0.000484600               0.999999996              -0.000113736              -0.000519697               0.999999996              -0.000129367              -0.000555774               0.999999996              -0.000145306              -0.000592685               0.999999996              -0.000161469              -0.000630238               0.999999996              -0.000177662              -0.000667950               0.999999996              -0.000193669              -0.000705433               0.999999996              -0.000019853              -0.000325948               0.999999996              -0.000002896              -0.000300664               0.999999996              -0.000001931              -0.000298062               0.999999996              -0.000006524              -0.000307486               0.999999996              -0.000013621              -0.000324035               0.999999996              -0.000022474              -0.000345479               0.999999996              -0.000032582              -0.000370453               0.999999996              -0.000043637              -0.000397983               0.999999996              -0.000055586              -0.000427421               0.999999996              -0.000068220              -0.000458171               0.999999996              -0.000081239              -0.000489760               0.999999996              -0.000094569              -0.000522140               0.999999996              -0.000107965              -0.000555254               0.999999996              -0.000121593              -0.000589122               0.999999996              -0.000135568              -0.000623710               0.999999996              -0.000149947              -0.000658805               0.999999996              -0.000164637              -0.000694134               0.999999996              -0.000017680              -0.000350507               0.999999996               0.000000704              -0.000329166               0.999999996               0.000003339              -0.000325412               0.999999996               0.000000066              -0.000332374               0.999999996              -0.000005925              -0.000346193               0.999999996              -0.000013638              -0.000364879               0.999999996              -0.000022547              -0.000387195               0.999999996              -0.000032182              -0.000412139               0.999999996              -0.000042485              -0.000439085               0.999999996              -0.000053378              -0.000467500               0.999999996              -0.000064729              -0.000496929               0.999999996              -0.000076180              -0.000526965               0.999999996              -0.000087390              -0.000557612               0.999999996              -0.000098501              -0.000588741               0.999999996              -0.000109705              -0.000620528               0.999999996              -0.000121138              -0.000652946               0.999999996              -0.000132970              -0.000685993               0.999999996              -0.000015317              -0.000371797               0.999999996               0.000002939              -0.000355367               0.999999996               0.000006880              -0.000351785               0.999999996               0.000004941              -0.000357179               0.999999996               0.000000181              -0.000368833               0.999999996              -0.000006269              -0.000385175               0.999999996              -0.000013745              -0.000405089               0.999999996              -0.000021814              -0.000427698               0.999999996              -0.000030430              -0.000452346               0.999999996              -0.000039702              -0.000478618               0.999999996              -0.000049303              -0.000506004               0.999999996              -0.000058816              -0.000534167               0.999999996              -0.000068046              -0.000562862               0.999999996              -0.000076917              -0.000591950               0.999999996              -0.000085274              -0.000621481               0.999999996              -0.000093309              -0.000651491               0.999999996              -0.000101405              -0.000682167               0.999999996              -0.000012665              -0.000389651               0.999999996               0.000003962              -0.000378505               0.999999996               0.000008541              -0.000376074               0.999999996               0.000007735              -0.000380788               0.999999996               0.000004280              -0.000390957               0.999999996              -0.000000742              -0.000405549               0.999999996              -0.000006600              -0.000423498               0.999999996              -0.000013074              -0.000444126               0.999999996              -0.000020033              -0.000466830               0.999999996              -0.000027413              -0.000491276               0.999999996              -0.000035129              -0.000516970               0.999999996              -0.000042886              -0.000543588               0.999999996              -0.000050333              -0.000570809               0.999999996              -0.000057091              -0.000598494               0.999999996              -0.000062886              -0.000626501               0.999999996              -0.000067779              -0.000654858               0.999999996              -0.000071983              -0.000683652               0.999999996              -0.000009778              -0.000403733               0.999999996               0.000003938              -0.000397649               0.999999996               0.000008339              -0.000396925               0.999999996               0.000008316              -0.000401633               0.999999996               0.000006101              -0.000411058               0.999999996               0.000002656              -0.000424471               0.999999996              -0.000001664              -0.000441138               0.999999996              -0.000006598              -0.000460300               0.999999996              -0.000011683              -0.000481606               0.999999996              -0.000017038              -0.000504733               0.999999996              -0.000022850              -0.000529201               0.999999996              -0.000028836              -0.000554705               0.999999996              -0.000034433              -0.000580919               0.999999996              -0.000039222              -0.000607658               0.999999996              -0.000042900              -0.000634805               0.999999996              -0.000045285              -0.000662260               0.999999996              -0.000046396              -0.000689948               0.999999996              -0.000006652              -0.000413996               0.999999996               0.000003112              -0.000411989               0.999999996               0.000006561              -0.000413059               0.999999996               0.000006901              -0.000418249               0.999999996               0.000005669              -0.000427443               0.999999996               0.000003608              -0.000440180               0.999999996               0.000000755              -0.000455968               0.999999996              -0.000002544              -0.000474315               0.999999996              -0.000005775              -0.000494786               0.999999996              -0.000009172              -0.000516951               0.999999996              -0.000013036              -0.000540604               0.999999996              -0.000017057              -0.000565437               0.999999996              -0.000020740              -0.000591116               0.999999996              -0.000023826              -0.000617385               0.999999996              -0.000025931              -0.000644090               0.999999996              -0.000026768              -0.000671061               0.999999996              -0.000026260              -0.000698202               0.999999996              -0.000003351              -0.000420291               0.999999996               0.000001702              -0.000420888               0.999999996               0.000003582              -0.000423205               0.999999996               0.000003869              -0.000428963               0.999999996               0.000003410              -0.000438182               0.999999996               0.000002428              -0.000450640               0.999999996               0.000001019              -0.000466042               0.999999996              -0.000000573              -0.000483943               0.999999996              -0.000002134              -0.000503935               0.999999996              -0.000003800              -0.000525565               0.999999996              -0.000005681              -0.000548640               0.999999996              -0.000007692              -0.000572971               0.999999996              -0.000009604              -0.000598334               0.999999996              -0.000011149              -0.000624441               0.999999996              -0.000012137              -0.000651088               0.999999996              -0.000012389              -0.000678034               0.999999996              -0.000011587              -0.000705079               0.999999996              -0.000000000              -0.000422351               0.999999996              -0.000000000              -0.000423887               0.999999996              -0.000000000              -0.000426737               0.999999996               0.000000000              -0.000432729               0.999999996              -0.000000000              -0.000441937               0.999999996               0.000000000              -0.000454328               0.999999996              -0.000000000              -0.000469631               0.999999996               0.000000000              -0.000487409               0.999999996               0.000000000              -0.000507301               0.999999996               0.000000000              -0.000528763               0.999999996               0.000000000              -0.000551560               0.999999996               0.000000000              -0.000575630               0.999999996               0.000000000              -0.000600836               0.999999996               0.000000000              -0.000626987               0.999999996              -0.000000000              -0.000653776               0.999999996              -0.000000000              -0.000680897               0.999999996               0.000000000              -0.000708074               0.999999996               0.000034428              -0.000000000               0.999999996               0.000051398               0.000000000               0.999999996               0.000059684               0.000000000               0.999999996               0.000064719               0.000000000               0.999999996               0.000068643               0.000000000               0.999999996               0.000072391              -0.000000000               0.999999996               0.000076427              -0.000000000               0.999999996               0.000080980              -0.000000000               0.999999996               0.000086139              -0.000000000               0.999999996               0.000091977              -0.000000000               0.999999996               0.000098572              -0.000000000               0.999999996               0.000105926               0.000000000               0.999999996               0.000114013               0.000000000               0.999999996               0.000122781               0.000000000               0.999999996               0.000132201               0.000000000               0.999999996               0.000142199              -0.000000000               0.999999996               0.000152644              -0.000000000               0.999999996               0.000034110              -0.000042177               0.999999996               0.000050364              -0.000037238               0.999999996               0.000058270              -0.000036021               0.999999996               0.000063127              -0.000036765               0.999999996               0.000066992              -0.000038701               0.999999996               0.000070770              -0.000041428               0.999999996               0.000074870              -0.000044703               0.999999996               0.000079494              -0.000048239               0.999999996               0.000084767              -0.000052080               0.999999996               0.000090724              -0.000056193               0.999999996               0.000097429              -0.000060481               0.999999996               0.000104904              -0.000064934               0.999999996               0.000113093              -0.000069443               0.999999996               0.000121922              -0.000074017               0.999999996               0.000131375              -0.000078528               0.999999996               0.000141351              -0.000082881               0.999999996               0.000151740              -0.000086839               0.999999996               0.000033313              -0.000083861               0.999999996               0.000047434              -0.000074089               0.999999996               0.000054167              -0.000071838               0.999999996               0.000058470              -0.000073546               0.999999996               0.000062222              -0.000077562               0.999999996               0.000066135              -0.000083062               0.999999996               0.000070467              -0.000089532               0.999999996               0.000075376              -0.000096650               0.999999996               0.000081002              -0.000104293               0.999999996               0.000087327              -0.000112475               0.999999996               0.000094395              -0.000121081               0.999999996               0.000102186              -0.000129940               0.999999996               0.000110640              -0.000138965               0.999999996               0.000119680              -0.000148049               0.999999996               0.000129255              -0.000157163               0.999999996               0.000139310              -0.000166064               0.999999996               0.000149812              -0.000174564               0.999999996               0.000032159              -0.000124571               0.999999996               0.000042823              -0.000110130               0.999999996               0.000047857              -0.000107240               0.999999996               0.000051545              -0.000110244               0.999999996               0.000055211              -0.000116539               0.999999996               0.000059370              -0.000124875               0.999999996               0.000064221              -0.000134677               0.999999996               0.000069769              -0.000145409               0.999999996               0.000076067              -0.000156893               0.999999996               0.000083093              -0.000169137               0.999999996               0.000090786              -0.000182016               0.999999996               0.000099150              -0.000195305               0.999999996               0.000108117              -0.000208869               0.999999996               0.000117606              -0.000222614               0.999999996               0.000127615              -0.000236531               0.999999996               0.000138145              -0.000250489               0.999999996               0.000149277              -0.000264441               0.999999996               0.000030607              -0.000163854               0.999999996               0.000036807              -0.000145045               0.999999996               0.000040055              -0.000142019               0.999999996               0.000043263              -0.000146654               0.999999996               0.000047181              -0.000155417               0.999999996               0.000052000              -0.000166771               0.999999996               0.000057654              -0.000179926               0.999999996               0.000064095              -0.000194392               0.999999996               0.000071326              -0.000209788               0.999999996               0.000079280              -0.000226143               0.999999996               0.000087890              -0.000243334               0.999999996               0.000097104              -0.000261160               0.999999996               0.000106908              -0.000279378               0.999999996               0.000117309              -0.000298005               0.999999996               0.000128337              -0.000317015               0.999999996               0.000140035              -0.000336545               0.999999996               0.000152470              -0.000356824               0.999999996               0.000028657              -0.000201302               0.999999996               0.000029788              -0.000178668               0.999999996               0.000031505              -0.000176009               0.999999996               0.000034686              -0.000182487               0.999999996               0.000039262              -0.000193868               0.999999996               0.000045001              -0.000208449               0.999999996               0.000051678              -0.000225044               0.999999996               0.000059196              -0.000243335               0.999999996               0.000067635              -0.000262818               0.999999996               0.000076896              -0.000283324               0.999999996               0.000086871              -0.000304863               0.999999996               0.000097492              -0.000327153               0.999999996               0.000108789              -0.000350097               0.999999996               0.000120804              -0.000373673               0.999999996               0.000133545              -0.000397888               0.999999996               0.000146953              -0.000422919               0.999999996               0.000160857              -0.000448950               0.999999996               0.000026418              -0.000236526               0.999999996               0.000022317              -0.000210872               0.999999996               0.000023033              -0.000208952               0.999999996               0.000026677              -0.000217450               0.999999996               0.000032174              -0.000231578               0.999999996               0.000039061              -0.000249382               0.999999996               0.000047025              -0.000269497               0.999999996               0.000056042              -0.000291668               0.999999996               0.000066098              -0.000315397               0.999999996               0.000077040              -0.000340118               0.999999996               0.000088748              -0.000365943               0.999999996               0.000101173              -0.000392638               0.999999996               0.000114311              -0.000420223               0.999999996               0.000128085              -0.000448584               0.999999996               0.000142388              -0.000477647               0.999999996               0.000157034              -0.000507558               0.999999996               0.000171723              -0.000537967               0.999999996               0.000024013              -0.000269124               0.999999996               0.000014892              -0.000241560               0.999999996               0.000015254              -0.000240608               0.999999996               0.000019773              -0.000251194               0.999999996               0.000026433              -0.000268090               0.999999996               0.000034682              -0.000289159               0.999999996               0.000044251              -0.000312910               0.999999996               0.000055008              -0.000339082               0.999999996               0.000066836              -0.000367049               0.999999996               0.000079529              -0.000395978               0.999999996               0.000093003              -0.000425986               0.999999996               0.000107111              -0.000457012               0.999999996               0.000121715              -0.000488945               0.999999996               0.000136717              -0.000521768               0.999999996               0.000151988              -0.000555383               0.999999996               0.000167316              -0.000589519               0.999999996               0.000182372              -0.000623735               0.999999996               0.000021710              -0.000298555               0.999999996               0.000007873              -0.000270614               0.999999996               0.000008587              -0.000270730               0.999999996               0.000014187              -0.000283349               0.999999996               0.000022256              -0.000303014               0.999999996               0.000032094              -0.000327422               0.999999996               0.000043350              -0.000355098               0.999999996               0.000055844              -0.000385320               0.999999996               0.000069345              -0.000417359               0.999999996               0.000083569              -0.000450464               0.999999996               0.000098433              -0.000484600               0.999999996               0.000113736              -0.000519697               0.999999996               0.000129367              -0.000555774               0.999999996               0.000145306              -0.000592685               0.999999996               0.000161469              -0.000630238               0.999999996               0.000177662              -0.000667950               0.999999996               0.000193669              -0.000705433               0.999999996               0.000019853              -0.000325948               0.999999996               0.000002896              -0.000300664               0.999999996               0.000001931              -0.000298062               0.999999996               0.000006524              -0.000307486               0.999999996               0.000013621              -0.000324035               0.999999996               0.000022474              -0.000345479               0.999999996               0.000032582              -0.000370453               0.999999996               0.000043637              -0.000397983               0.999999996               0.000055586              -0.000427421               0.999999996               0.000068220              -0.000458171               0.999999996               0.000081239              -0.000489760               0.999999996               0.000094569              -0.000522140               0.999999996               0.000107965              -0.000555254               0.999999996               0.000121593              -0.000589122               0.999999996               0.000135568              -0.000623710               0.999999996               0.000149947              -0.000658805               0.999999996               0.000164637              -0.000694134               0.999999996               0.000017680              -0.000350507               0.999999996              -0.000000704              -0.000329166               0.999999996              -0.000003339              -0.000325412               0.999999996              -0.000000066              -0.000332374               0.999999996               0.000005925              -0.000346193               0.999999996               0.000013638              -0.000364879               0.999999996               0.000022547              -0.000387195               0.999999996               0.000032182              -0.000412139               0.999999996               0.000042485              -0.000439085               0.999999996               0.000053378              -0.000467500               0.999999996               0.000064729              -0.000496929               0.999999996               0.000076180              -0.000526965               0.999999996               0.000087390              -0.000557612               0.999999996               0.000098501              -0.000588741               0.999999996               0.000109705              -0.000620528               0.999999996               0.000121138              -0.000652946               0.999999996               0.000132970              -0.000685993               0.999999996               0.000015317              -0.000371797               0.999999996              -0.000002939              -0.000355367               0.999999996              -0.000006880              -0.000351785               0.999999996              -0.000004941              -0.000357179               0.999999996              -0.000000181              -0.000368833               0.999999996               0.000006269              -0.000385175               0.999999996               0.000013745              -0.000405089               0.999999996               0.000021814              -0.000427698               0.999999996               0.000030430              -0.000452346               0.999999996               0.000039702              -0.000478618               0.999999996               0.000049303              -0.000506004               0.999999996               0.000058816              -0.000534167               0.999999996               0.000068046              -0.000562862               0.999999996               0.000076917              -0.000591950               0.999999996               0.000085274              -0.000621481               0.999999996               0.000093309              -0.000651491               0.999999996               0.000101405              -0.000682167               0.999999996               0.000012665              -0.000389651               0.999999996              -0.000003962              -0.000378505               0.999999996              -0.000008541              -0.000376074               0.999999996              -0.000007735              -0.000380788               0.999999996              -0.000004280              -0.000390957               0.999999996               0.000000742              -0.000405549               0.999999996               0.000006600              -0.000423498               0.999999996               0.000013074              -0.000444126               0.999999996               0.000020033              -0.000466830               0.999999996               0.000027413              -0.000491276               0.999999996               0.000035129              -0.000516970               0.999999996               0.000042886              -0.000543588               0.999999996               0.000050333              -0.000570809               0.999999996               0.000057091              -0.000598494               0.999999996               0.000062886              -0.000626501               0.999999996               0.000067779              -0.000654858               0.999999996               0.000071983              -0.000683652               0.999999996               0.000009778              -0.000403733               0.999999996              -0.000003938              -0.000397649               0.999999996              -0.000008339              -0.000396925               0.999999996              -0.000008316              -0.000401633               0.999999996              -0.000006101              -0.000411058               0.999999996              -0.000002656              -0.000424471               0.999999996               0.000001664              -0.000441138               0.999999996               0.000006598              -0.000460300               0.999999996               0.000011683              -0.000481606               0.999999996               0.000017038              -0.000504733               0.999999996               0.000022850              -0.000529201               0.999999996               0.000028836              -0.000554705               0.999999996               0.000034433              -0.000580919               0.999999996               0.000039222              -0.000607658               0.999999996               0.000042900              -0.000634805               0.999999996               0.000045285              -0.000662260               0.999999996               0.000046396              -0.000689948               0.999999996               0.000006652              -0.000413996               0.999999996              -0.000003112              -0.000411989               0.999999996              -0.000006561              -0.000413059               0.999999996              -0.000006901              -0.000418249               0.999999996              -0.000005669              -0.000427443               0.999999996              -0.000003608              -0.000440180               0.999999996              -0.000000755              -0.000455968               0.999999996               0.000002544              -0.000474315               0.999999996               0.000005775              -0.000494786               0.999999996               0.000009172              -0.000516951               0.999999996               0.000013036              -0.000540604               0.999999996               0.000017057              -0.000565437               0.999999996               0.000020740              -0.000591116               0.999999996               0.000023826              -0.000617385               0.999999996               0.000025931              -0.000644090               0.999999996               0.000026768              -0.000671061               0.999999996               0.000026260              -0.000698202               0.999999996               0.000003351              -0.000420291               0.999999996              -0.000001702              -0.000420888               0.999999996              -0.000003582              -0.000423205               0.999999996              -0.000003869              -0.000428963               0.999999996              -0.000003410              -0.000438182               0.999999996              -0.000002428              -0.000450640               0.999999996              -0.000001019              -0.000466042               0.999999996               0.000000573              -0.000483943               0.999999996               0.000002134              -0.000503935               0.999999996               0.000003800              -0.000525565               0.999999996               0.000005681              -0.000548640               0.999999996               0.000007692              -0.000572971               0.999999996               0.000009604              -0.000598334               0.999999996               0.000011149              -0.000624441               0.999999996               0.000012137              -0.000651088               0.999999996               0.000012389              -0.000678034               0.999999996               0.000011587              -0.000705079               0.999999996              -0.000000000              -0.000422351               0.999999996              -0.000000000              -0.000423887               0.999999996              -0.000000000              -0.000426737               0.999999996               0.000000000              -0.000432729               0.999999996              -0.000000000              -0.000441937               0.999999996               0.000000000              -0.000454328               0.999999996              -0.000000000              -0.000469631               0.999999996               0.000000000              -0.000487409               0.999999996               0.000000000              -0.000507301               0.999999996               0.000000000              -0.000528763               0.999999996               0.000000000              -0.000551560               0.999999996               0.000000000              -0.000575630               0.999999996               0.000000000              -0.000600836               0.999999996               0.000000000              -0.000626987               0.999999996              -0.000000000              -0.000653776               0.999999996              -0.000000000              -0.000680897               0.999999996               0.000000000              -0.000708074               0.999999996               0.000034428              -0.000000000               0.999999996               0.000051398               0.000000000               0.999999996               0.000059684               0.000000000               0.999999996               0.000064719               0.000000000               0.999999996               0.000068643               0.000000000               0.999999996               0.000072391              -0.000000000               0.999999996               0.000076427              -0.000000000               0.999999996               0.000080980              -0.000000000               0.999999996               0.000086139              -0.000000000               0.999999996               0.000091977              -0.000000000               0.999999996               0.000098572              -0.000000000               0.999999996               0.000105926               0.000000000               0.999999996               0.000114013               0.000000000               0.999999996               0.000122781               0.000000000               0.999999996               0.000132201               0.000000000               0.999999996               0.000142199              -0.000000000               0.999999996               0.000152644              -0.000000000               0.999999996               0.000034110               0.000042177               0.999999996               0.000050364               0.000037238               0.999999996               0.000058270               0.000036021               0.999999996               0.000063127               0.000036765               0.999999996               0.000066992               0.000038701               0.999999996               0.000070770               0.000041428               0.999999996               0.000074870               0.000044703               0.999999996               0.000079494               0.000048239               0.999999996               0.000084767               0.000052080               0.999999996               0.000090724               0.000056193               0.999999996               0.000097429               0.000060481               0.999999996               0.000104904               0.000064934               0.999999996               0.000113093               0.000069443               0.999999996               0.000121922               0.000074017               0.999999996               0.000131375               0.000078528               0.999999996               0.000141351               0.000082881               0.999999996               0.000151740               0.000086839               0.999999996               0.000033313               0.000083861               0.999999996               0.000047434               0.000074089               0.999999996               0.000054167               0.000071838               0.999999996               0.000058470               0.000073546               0.999999996               0.000062222               0.000077562               0.999999996               0.000066135               0.000083062               0.999999996               0.000070467               0.000089532               0.999999996               0.000075376               0.000096650               0.999999996               0.000081002               0.000104293               0.999999996               0.000087327               0.000112475               0.999999996               0.000094395               0.000121081               0.999999996               0.000102186               0.000129940               0.999999996               0.000110640               0.000138965               0.999999996               0.000119680               0.000148049               0.999999996               0.000129255               0.000157163               0.999999996               0.000139310               0.000166064               0.999999996               0.000149812               0.000174564               0.999999996               0.000032159               0.000124571               0.999999996               0.000042823               0.000110130               0.999999996               0.000047857               0.000107240               0.999999996               0.000051545               0.000110244               0.999999996               0.000055211               0.000116539               0.999999996               0.000059370               0.000124875               0.999999996               0.000064221               0.000134677               0.999999996               0.000069769               0.000145409               0.999999996               0.000076067               0.000156893               0.999999996               0.000083093               0.000169137               0.999999996               0.000090786               0.000182016               0.999999996               0.000099150               0.000195305               0.999999996               0.000108117               0.000208869               0.999999996               0.000117606               0.000222614               0.999999996               0.000127615               0.000236531               0.999999996               0.000138145               0.000250489               0.999999996               0.000149277               0.000264441               0.999999996               0.000030607               0.000163854               0.999999996               0.000036807               0.000145045               0.999999996               0.000040055               0.000142019               0.999999996               0.000043263               0.000146654               0.999999996               0.000047181               0.000155417               0.999999996               0.000052000               0.000166771               0.999999996               0.000057654               0.000179926               0.999999996               0.000064095               0.000194392               0.999999996               0.000071326               0.000209788               0.999999996               0.000079280               0.000226143               0.999999996               0.000087890               0.000243334               0.999999996               0.000097104               0.000261160               0.999999996               0.000106908               0.000279378               0.999999996               0.000117309               0.000298005               0.999999996               0.000128337               0.000317015               0.999999996               0.000140035               0.000336545               0.999999996               0.000152470               0.000356824               0.999999996               0.000028657               0.000201302               0.999999996               0.000029788               0.000178668               0.999999996               0.000031505               0.000176009               0.999999996               0.000034686               0.000182487               0.999999996               0.000039262               0.000193868               0.999999996               0.000045001               0.000208449               0.999999996               0.000051678               0.000225044               0.999999996               0.000059196               0.000243335               0.999999996               0.000067635               0.000262818               0.999999996               0.000076896               0.000283324               0.999999996               0.000086871               0.000304863               0.999999996               0.000097492               0.000327153               0.999999996               0.000108789               0.000350097               0.999999996               0.000120804               0.000373673               0.999999996               0.000133545               0.000397888               0.999999996               0.000146953               0.000422919               0.999999996               0.000160857               0.000448950               0.999999996               0.000026418               0.000236526               0.999999996               0.000022317               0.000210872               0.999999996               0.000023033               0.000208952               0.999999996               0.000026677               0.000217450               0.999999996               0.000032174               0.000231578               0.999999996               0.000039061               0.000249382               0.999999996               0.000047025               0.000269497               0.999999996               0.000056042               0.000291668               0.999999996               0.000066098               0.000315397               0.999999996               0.000077040               0.000340118               0.999999996               0.000088748               0.000365943               0.999999996               0.000101173               0.000392638               0.999999996               0.000114311               0.000420223               0.999999996               0.000128085               0.000448584               0.999999996               0.000142388               0.000477647               0.999999996               0.000157034               0.000507558               0.999999996               0.000171723               0.000537967               0.999999996               0.000024013               0.000269124               0.999999996               0.000014892               0.000241560               0.999999996               0.000015254               0.000240608               0.999999996               0.000019773               0.000251194               0.999999996               0.000026433               0.000268090               0.999999996               0.000034682               0.000289159               0.999999996               0.000044251               0.000312910               0.999999996               0.000055008               0.000339082               0.999999996               0.000066836               0.000367049               0.999999996               0.000079529               0.000395978               0.999999996               0.000093003               0.000425986               0.999999996               0.000107111               0.000457012               0.999999996               0.000121715               0.000488945               0.999999996               0.000136717               0.000521768               0.999999996               0.000151988               0.000555383               0.999999996               0.000167316               0.000589519               0.999999996               0.000182372               0.000623735               0.999999996               0.000021710               0.000298555               0.999999996               0.000007873               0.000270614               0.999999996               0.000008587               0.000270730               0.999999996               0.000014187               0.000283349               0.999999996               0.000022256               0.000303014               0.999999996               0.000032094               0.000327422               0.999999996               0.000043350               0.000355098               0.999999996               0.000055844               0.000385320               0.999999996               0.000069345               0.000417359               0.999999996               0.000083569               0.000450464               0.999999996               0.000098433               0.000484600               0.999999996               0.000113736               0.000519697               0.999999996               0.000129367               0.000555774               0.999999996               0.000145306               0.000592685               0.999999996               0.000161469               0.000630238               0.999999996               0.000177662               0.000667950               0.999999996               0.000193669               0.000705433               0.999999996               0.000019853               0.000325948               0.999999996               0.000002896               0.000300664               0.999999996               0.000001931               0.000298062               0.999999996               0.000006524               0.000307486               0.999999996               0.000013621               0.000324035               0.999999996               0.000022474               0.000345479               0.999999996               0.000032582               0.000370453               0.999999996               0.000043637               0.000397983               0.999999996               0.000055586               0.000427421               0.999999996               0.000068220               0.000458171               0.999999996               0.000081239               0.000489760               0.999999996               0.000094569               0.000522140               0.999999996               0.000107965               0.000555254               0.999999996               0.000121593               0.000589122               0.999999996               0.000135568               0.000623710               0.999999996               0.000149947               0.000658805               0.999999996               0.000164637               0.000694134               0.999999996               0.000017680               0.000350507               0.999999996              -0.000000704               0.000329166               0.999999996              -0.000003339               0.000325412               0.999999996              -0.000000066               0.000332374               0.999999996               0.000005925               0.000346193               0.999999996               0.000013638               0.000364879               0.999999996               0.000022547               0.000387195               0.999999996               0.000032182               0.000412139               0.999999996               0.000042485               0.000439085               0.999999996               0.000053378               0.000467500               0.999999996               0.000064729               0.000496929               0.999999996               0.000076180               0.000526965               0.999999996               0.000087390               0.000557612               0.999999996               0.000098501               0.000588741               0.999999996               0.000109705               0.000620528               0.999999996               0.000121138               0.000652946               0.999999996               0.000132970               0.000685993               0.999999996               0.000015317               0.000371797               0.999999996              -0.000002939               0.000355367               0.999999996              -0.000006880               0.000351785               0.999999996              -0.000004941               0.000357179               0.999999996              -0.000000181               0.000368833               0.999999996               0.000006269               0.000385175               0.999999996               0.000013745               0.000405089               0.999999996               0.000021814               0.000427698               0.999999996               0.000030430               0.000452346               0.999999996               0.000039702               0.000478618               0.999999996               0.000049303               0.000506004               0.999999996               0.000058816               0.000534167               0.999999996               0.000068046               0.000562862               0.999999996               0.000076917               0.000591950               0.999999996               0.000085274               0.000621481               0.999999996               0.000093309               0.000651491               0.999999996               0.000101405               0.000682167               0.999999996               0.000012665               0.000389651               0.999999996              -0.000003962               0.000378505               0.999999996              -0.000008541               0.000376074               0.999999996              -0.000007735               0.000380788               0.999999996              -0.000004280               0.000390957               0.999999996               0.000000742               0.000405549               0.999999996               0.000006600               0.000423498               0.999999996               0.000013074               0.000444126               0.999999996               0.000020033               0.000466830               0.999999996               0.000027413               0.000491276               0.999999996               0.000035129               0.000516970               0.999999996               0.000042886               0.000543588               0.999999996               0.000050333               0.000570809               0.999999996               0.000057091               0.000598494               0.999999996               0.000062886               0.000626501               0.999999996               0.000067779               0.000654858               0.999999996               0.000071983               0.000683652               0.999999996               0.000009778               0.000403733               0.999999996              -0.000003938               0.000397649               0.999999996              -0.000008339               0.000396925               0.999999996              -0.000008316               0.000401633               0.999999996              -0.000006101               0.000411058               0.999999996              -0.000002656               0.000424471               0.999999996               0.000001664               0.000441138               0.999999996               0.000006598               0.000460300               0.999999996               0.000011683               0.000481606               0.999999996               0.000017038               0.000504733               0.999999996               0.000022850               0.000529201               0.999999996               0.000028836               0.000554705               0.999999996               0.000034433               0.000580919               0.999999996               0.000039222               0.000607658               0.999999996               0.000042900               0.000634805               0.999999996               0.000045285               0.000662260               0.999999996               0.000046396               0.000689948               0.999999996               0.000006652               0.000413996               0.999999996              -0.000003112               0.000411989               0.999999996              -0.000006561               0.000413059               0.999999996              -0.000006901               0.000418249               0.999999996              -0.000005669               0.000427443               0.999999996              -0.000003608               0.000440180               0.999999996              -0.000000755               0.000455968               0.999999996               0.000002544               0.000474315               0.999999996               0.000005775               0.000494786               0.999999996               0.000009172               0.000516951               0.999999996               0.000013036               0.000540604               0.999999996               0.000017057               0.000565437               0.999999996               0.000020740               0.000591116               0.999999996               0.000023826               0.000617385               0.999999996               0.000025931               0.000644090               0.999999996               0.000026768               0.000671061               0.999999996               0.000026260               0.000698202               0.999999996               0.000003351               0.000420291               0.999999996              -0.000001702               0.000420888               0.999999996              -0.000003582               0.000423205               0.999999996              -0.000003869               0.000428963               0.999999996              -0.000003410               0.000438182               0.999999996              -0.000002428               0.000450640               0.999999996              -0.000001019               0.000466042               0.999999996               0.000000573               0.000483943               0.999999996               0.000002134               0.000503935               0.999999996               0.000003800               0.000525565               0.999999996               0.000005681               0.000548640               0.999999996               0.000007692               0.000572971               0.999999996               0.000009604               0.000598334               0.999999996               0.000011149               0.000624441               0.999999996               0.000012137               0.000651088               0.999999996               0.000012389               0.000678034               0.999999996               0.000011587               0.000705079               0.999999996              -0.000000000               0.000422351               0.999999996              -0.000000000               0.000423887               0.999999996               0.000000000               0.000426737               0.999999996              -0.000000000               0.000432729               0.999999996              -0.000000000               0.000441937               0.999999996               0.000000000               0.000454328               0.999999996               0.000000000               0.000469631               0.999999996              -0.000000000               0.000487409               0.999999996              -0.000000000               0.000507301               0.999999996              -0.000000000               0.000528763               0.999999996               0.000000000               0.000551560               0.999999996               0.000000000               0.000575630               0.999999996              -0.000000000               0.000600836               0.999999996               0.000000000               0.000626987               0.999999996               0.000000000               0.000653776               0.999999996               0.000000000               0.000680897               0.999999996              -0.000000000               0.000708074               0.999999996 </DataArray>
<DataArray type="Float64"                                    Name="stress"                                                      NumberOfComponents="10" format="ascii">
              0.000684437               0.007887818               0.000000000              -0.000729311               0.002872350               0.002143039               0.000000000               0.000000000               0.000000000               0.000000000               0.000745351               0.006493308              -0.000000000              -0.000532156               0.002341799               0.001809644               0.000000000               0.000000000               0.000000000               0.000000000               0.001032801               0.005380697              -0.000000000              -0.000285286               0.001888643               0.001603357               0.000000000               0.000000000               0.000000000               0.000000000               0.001069513               0.004771193              -0.000000000              -0.000195331               0.001655492               0.001460161               0.000000000               0.000000000               0.000000000               0.000000000               0.001019422               0.004414700              -0.000000000              -0.000169554               0.001528070               0.001358516               0.000000000               0.000000000               0.000000000               0.000000000               0.000938049               0.004197542              -0.000000000              -0.000172924               0.001456808               0.001283884               0.000000000               0.000000000               0.000000000               0.000000000               0.000844821               0.004059006               0.000000000              -0.000190567               0.001416511               0.001225944               0.000000000               0.000000000               0.000000000               0.000000000               0.000747068               0.003962344               0.000000000              -0.000215142               0.001392482               0.001177340               0.000000000               0.000000000               0.000000000               0.000000000               0.000650509               0.003897163               0.000000000              -0.000243204               0.001380109               0.001136906               0.000000000               0.000000000               0.000000000               0.000000000               0.000553267               0.003853721               0.000000000              -0.000274240               0.001375974               0.001101735               0.000000000               0.000000000               0.000000000               0.000000000               0.000455576               0.003823184              -0.000000000              -0.000307056               0.001376734               0.001069678               0.000000000               0.000000000               0.000000000               0.000000000               0.000362758               0.003802384              -0.000000000              -0.000339263               0.001380536               0.001041273               0.000000000               0.000000000               0.000000000               0.000000000               0.000277023               0.003786718              -0.000000000              -0.000369455               0.001385378               0.001015923               0.000000000               0.000000000               0.000000000               0.000000000               0.000196784               0.003773481              -0.000000000              -0.000397890               0.001390444               0.000992554               0.000000000               0.000000000               0.000000000               0.000000000               0.000122002               0.003757847              -0.000000000              -0.000423979               0.001393930               0.000969951               0.000000000               0.000000000               0.000000000               0.000000000               0.000057251               0.003736446               0.000000000              -0.000445585               0.001393998               0.000948413               0.000000000               0.000000000               0.000000000               0.000000000               0.000026538               0.003718885               0.000000000              -0.000454908               0.001391252               0.000936344               0.000000000               0.000000000               0.000000000               0.000000000               0.000720603               0.007749254              -0.000579583              -0.000698429               0.002815868               0.002117439               0.000000000               0.000000000               0.000000000               0.000000000               0.000751440               0.006399089              -0.000359698              -0.000518095               0.002305707               0.001787612               0.000000000               0.000000000               0.000000000               0.000000000               0.001006175               0.005331932              -0.000134854              -0.000289175               0.001873684               0.001584509               0.000000000               0.000000000               0.000000000               0.000000000               0.001029903               0.004748096              -0.000032792              -0.000207298               0.001651782               0.001444484               0.000000000               0.000000000               0.000000000               0.000000000               0.000975215               0.004404617               0.000015377              -0.000184871               0.001529815               0.001344944               0.000000000               0.000000000               0.000000000               0.000000000               0.000893905               0.004191913               0.000037951              -0.000188774               0.001460215               0.001271441               0.000000000               0.000000000               0.000000000               0.000000000               0.000803383               0.004053188               0.000046219              -0.000205379               0.001419509               0.001214130               0.000000000               0.000000000               0.000000000               0.000000000               0.000708331               0.003957779               0.000048655              -0.000229098               0.001395613               0.001166515               0.000000000               0.000000000               0.000000000               0.000000000               0.000613920               0.003892077               0.000050392              -0.000256289               0.001382776               0.001126487               0.000000000               0.000000000               0.000000000               0.000000000               0.000520600               0.003848507               0.000050339              -0.000285838               0.001378102               0.001092264               0.000000000               0.000000000               0.000000000               0.000000000               0.000427052               0.003818987               0.000048730              -0.000317228               0.001378726               0.001061498               0.000000000               0.000000000               0.000000000               0.000000000               0.000338077               0.003798189               0.000045762              -0.000347994               0.001382048               0.001034054               0.000000000               0.000000000               0.000000000               0.000000000               0.000257403               0.003783292               0.000042210              -0.000376385               0.001386546               0.001010162               0.000000000               0.000000000               0.000000000               0.000000000               0.000182269               0.003770612               0.000038009              -0.000402975               0.001391183               0.000988208               0.000000000               0.000000000               0.000000000               0.000000000               0.000113364               0.003758474               0.000031118              -0.000427297               0.001395244               0.000967948               0.000000000               0.000000000               0.000000000               0.000000000               0.000054242               0.003743918               0.000019078              -0.000447648               0.001397176               0.000949528               0.000000000               0.000000000               0.000000000               0.000000000               0.000027188               0.003734187               0.000011203              -0.000456577               0.001396909               0.000940332               0.000000000               0.000000000               0.000000000               0.000000000               0.000825193               0.007351373              -0.001100852              -0.000609473               0.002653591               0.002044118               0.000000000               0.000000000               0.000000000               0.000000000               0.000771796               0.006127460              -0.000685905              -0.000476508               0.002201302               0.001724794               0.000000000               0.000000000               0.000000000               0.000000000               0.000935852               0.005192895              -0.000263010              -0.000298167               0.001830337               0.001532170               0.000000000               0.000000000               0.000000000               0.000000000               0.000922508               0.004678787              -0.000075219              -0.000238907               0.001639216               0.001400309               0.000000000               0.000000000               0.000000000               0.000000000               0.000854232               0.004369013               0.000012115              -0.000225789               0.001531586               0.001305797               0.000000000               0.000000000               0.000000000               0.000000000               0.000772867               0.004170485               0.000052847              -0.000231485               0.001467309               0.001235825               0.000000000               0.000000000               0.000000000               0.000000000               0.000691225               0.004039839               0.000068403              -0.000245770               0.001428523               0.001182753               0.000000000               0.000000000               0.000000000               0.000000000               0.000606349               0.003949927               0.000072513              -0.000266359               0.001405416               0.001139056               0.000000000               0.000000000               0.000000000               0.000000000               0.000521517               0.003886389               0.000075026              -0.000290229               0.001392193               0.001101964               0.000000000               0.000000000               0.000000000               0.000000000               0.000440002               0.003844057               0.000076562              -0.000315506               0.001386508               0.001071003               0.000000000               0.000000000               0.000000000               0.000000000               0.000359350               0.003816311               0.000074682              -0.000342282               0.001386185               0.001043903               0.000000000               0.000000000               0.000000000               0.000000000               0.000283210               0.003797475               0.000070022              -0.000368480               0.001388639               0.001020159               0.000000000               0.000000000               0.000000000               0.000000000               0.000215226               0.003785707               0.000063893              -0.000392503               0.001392724               0.001000221               0.000000000               0.000000000               0.000000000               0.000000000               0.000153461               0.003778437               0.000057188              -0.000414756               0.001397718               0.000982963               0.000000000               0.000000000               0.000000000               0.000000000               0.000097421               0.003776479               0.000046606              -0.000435526               0.001403989               0.000968463               0.000000000               0.000000000               0.000000000               0.000000000               0.000047486               0.003780132               0.000028174              -0.000454708               0.001411601               0.000956893               0.000000000               0.000000000               0.000000000               0.000000000               0.000027213               0.003789615               0.000015387              -0.000463496               0.001417691               0.000954195               0.000000000               0.000000000               0.000000000               0.000000000               0.000972936               0.006743061              -0.001506856              -0.000478031               0.002407008               0.001928977               0.000000000               0.000000000               0.000000000               0.000000000               0.000796530               0.005712847              -0.000946491              -0.000415407               0.002042732               0.001627325               0.000000000               0.000000000               0.000000000               0.000000000               0.000829659               0.004980515              -0.000380917              -0.000311442               0.001763969               0.001452527               0.000000000               0.000000000               0.000000000               0.000000000               0.000770535               0.004565712              -0.000137301              -0.000281763               0.001615810               0.001334047               0.000000000               0.000000000               0.000000000               0.000000000               0.000692941               0.004305083              -0.000026513              -0.000278282               0.001527774               0.001249492               0.000000000               0.000000000               0.000000000               0.000000000               0.000614955               0.004132471               0.000026027              -0.000285950               0.001472793               0.001186843               0.000000000               0.000000000               0.000000000               0.000000000               0.000543853               0.004017285               0.000048665              -0.000298215               0.001438487               0.001140272               0.000000000               0.000000000               0.000000000               0.000000000               0.000475521               0.003938931               0.000055613              -0.000314045               0.001417646               0.001103600               0.000000000               0.000000000               0.000000000               0.000000000               0.000407648               0.003883447               0.000060378              -0.000332562               0.001405323               0.001072761               0.000000000               0.000000000               0.000000000               0.000000000               0.000344821               0.003846696               0.000065175              -0.000351528               0.001399395               0.001047867               0.000000000               0.000000000               0.000000000               0.000000000               0.000284308               0.003823665               0.000065759              -0.000371342               0.001398323               0.001026981               0.000000000               0.000000000               0.000000000               0.000000000               0.000226481               0.003810927               0.000061586              -0.000391435               0.001400775               0.001009340               0.000000000               0.000000000               0.000000000               0.000000000               0.000175093               0.003806153               0.000054916              -0.000410108               0.001405408               0.000995300               0.000000000               0.000000000               0.000000000               0.000000000               0.000128493               0.003809477               0.000047134              -0.000427999               0.001412479               0.000984481               0.000000000               0.000000000               0.000000000               0.000000000               0.000084235               0.003821172               0.000036339              -0.000446057               0.001422397               0.000976340               0.000000000               0.000000000               0.000000000               0.000000000               0.000041578               0.003847113               0.000020498              -0.000465296               0.001437457               0.000972161               0.000000000               0.000000000               0.000000000               0.000000000               0.000027941               0.003878571               0.000007431              -0.000474342               0.001450958               0.000976616               0.000000000               0.000000000               0.000000000               0.000000000               0.001117796               0.005992835              -0.001768261              -0.000329932               0.002107569               0.001777637               0.000000000               0.000000000               0.000000000               0.000000000               0.000807855               0.005209153              -0.001128525              -0.000348198               0.001852433               0.001504234               0.000000000               0.000000000               0.000000000               0.000000000               0.000701068               0.004722108              -0.000488165              -0.000327362               0.001683141               0.001355779               0.000000000               0.000000000               0.000000000               0.000000000               0.000601960               0.004417019              -0.000220414              -0.000326391               0.001581122               0.001254731               0.000000000               0.000000000               0.000000000               0.000000000               0.000521829               0.004213465              -0.000099008              -0.000330996               0.001514806               0.001183810               0.000000000               0.000000000               0.000000000               0.000000000               0.000458687               0.004078579              -0.000039551              -0.000337814               0.001472117               0.001134304               0.000000000               0.000000000               0.000000000               0.000000000               0.000405094               0.003983937              -0.000007888              -0.000346081               0.001443326               0.001097245               0.000000000               0.000000000               0.000000000               0.000000000               0.000354212               0.003921509               0.000006469              -0.000357358               0.001426276               0.001068918               0.000000000               0.000000000               0.000000000               0.000000000               0.000305341               0.003879297               0.000014368              -0.000370408               0.001416556               0.001046147               0.000000000               0.000000000               0.000000000               0.000000000               0.000262212               0.003850881               0.000022373              -0.000383029               0.001411291               0.001028261               0.000000000               0.000000000               0.000000000               0.000000000               0.000223677               0.003834669               0.000025841              -0.000395454               0.001410028               0.001014574               0.000000000               0.000000000               0.000000000               0.000000000               0.000186065               0.003827321               0.000022653              -0.000408640               0.001411974               0.001003334               0.000000000               0.000000000               0.000000000               0.000000000               0.000149052               0.003828695               0.000015787              -0.000422692               0.001417116               0.000994425               0.000000000               0.000000000               0.000000000               0.000000000               0.000112444               0.003839090               0.000007664              -0.000437719               0.001425590               0.000987871               0.000000000               0.000000000               0.000000000               0.000000000               0.000075478               0.003858667               0.000000213              -0.000454028               0.001437552               0.000983524               0.000000000               0.000000000               0.000000000               0.000000000               0.000038098               0.003891494              -0.000002671              -0.000472149               0.001454535               0.000982386               0.000000000               0.000000000               0.000000000               0.000000000               0.000027452               0.003925717              -0.000007163              -0.000480419               0.001468699               0.000988280               0.000000000               0.000000000               0.000000000               0.000000000               0.001224726               0.005174158              -0.001886644              -0.000187499               0.001787201               0.001599702               0.000000000               0.000000000               0.000000000               0.000000000               0.000800581               0.004669346              -0.001237876              -0.000283451               0.001650916               0.001367466               0.000000000               0.000000000               0.000000000               0.000000000               0.000568181               0.004440269              -0.000589149              -0.000341965               0.001594063               0.001252098               0.000000000               0.000000000               0.000000000               0.000000000               0.000447187               0.004245921              -0.000320875              -0.000363044               0.001536307               0.001173263               0.000000000               0.000000000               0.000000000               0.000000000               0.000375927               0.004102808              -0.000191200              -0.000371878               0.001491548               0.001119671               0.000000000               0.000000000               0.000000000               0.000000000               0.000331363               0.004004409              -0.000123058              -0.000376289               0.001460219               0.001083930               0.000000000               0.000000000               0.000000000               0.000000000               0.000297905               0.003933905              -0.000083157              -0.000380023               0.001437963               0.001057940               0.000000000               0.000000000               0.000000000               0.000000000               0.000264522               0.003889673              -0.000061074              -0.000387012               0.001425549               0.001038536               0.000000000               0.000000000               0.000000000               0.000000000               0.000231852               0.003863114              -0.000052661              -0.000395944               0.001419673               0.001023729               0.000000000               0.000000000               0.000000000               0.000000000               0.000204328               0.003842838              -0.000044571              -0.000403731               0.001415510               0.001011779               0.000000000               0.000000000               0.000000000               0.000000000               0.000180881               0.003829399              -0.000039011              -0.000410844               0.001413401               0.001002558               0.000000000               0.000000000               0.000000000               0.000000000               0.000155932               0.003821677              -0.000039133              -0.000419234               0.001413624               0.000994390               0.000000000               0.000000000               0.000000000               0.000000000               0.000127181               0.003822527              -0.000041685              -0.000430122               0.001417537               0.000987415               0.000000000               0.000000000               0.000000000               0.000000000               0.000094455               0.003829294              -0.000043838              -0.000443240               0.001424165               0.000980925               0.000000000               0.000000000               0.000000000               0.000000000               0.000060216               0.003840582              -0.000040037              -0.000457490               0.001432678               0.000975187               0.000000000               0.000000000               0.000000000               0.000000000               0.000029777               0.003855111              -0.000025782              -0.000470721               0.001441931               0.000971210               0.000000000               0.000000000               0.000000000               0.000000000               0.000017878               0.003864376              -0.000016958              -0.000476341               0.001446893               0.000970552               0.000000000               0.000000000               0.000000000               0.000000000               0.001273667               0.004350711              -0.001879171              -0.000066216               0.001472294               0.001406078               0.000000000               0.000000000               0.000000000               0.000000000               0.000775601               0.004133733              -0.001286966              -0.000225867               0.001453186               0.001227319               0.000000000               0.000000000               0.000000000               0.000000000               0.000451310               0.004151861              -0.000684405              -0.000349741               0.001500520               0.001150779               0.000000000               0.000000000               0.000000000               0.000000000               0.000331259               0.004063692              -0.000426172              -0.000383738               0.001482463               0.001098725               0.000000000               0.000000000               0.000000000               0.000000000               0.000276576               0.003977874              -0.000289430              -0.000393517               0.001457117               0.001063600               0.000000000               0.000000000               0.000000000               0.000000000               0.000246871               0.003911588              -0.000212747              -0.000396371               0.001435973               0.001039602               0.000000000               0.000000000               0.000000000               0.000000000               0.000227737               0.003866186              -0.000166410              -0.000397871               0.001421339               0.001023469               0.000000000               0.000000000               0.000000000               0.000000000               0.000207719               0.003841247              -0.000136827              -0.000402260               0.001414489               0.001012229               0.000000000               0.000000000               0.000000000               0.000000000               0.000187190               0.003826164              -0.000125562              -0.000408073               0.001411400               0.001003327               0.000000000               0.000000000               0.000000000               0.000000000               0.000167513               0.003809664              -0.000116381              -0.000413389               0.001407672               0.000994282               0.000000000               0.000000000               0.000000000               0.000000000               0.000147442               0.003793600              -0.000104860              -0.000418908               0.001404157               0.000985249               0.000000000               0.000000000               0.000000000               0.000000000               0.000123528               0.003781010              -0.000094742              -0.000426302               0.001402425               0.000976123               0.000000000               0.000000000               0.000000000               0.000000000               0.000094117               0.003771903              -0.000082966              -0.000436193               0.001402686               0.000966493               0.000000000               0.000000000               0.000000000               0.000000000               0.000062115               0.003766096              -0.000069607              -0.000447468               0.001404509               0.000957041               0.000000000               0.000000000               0.000000000               0.000000000               0.000032300               0.003761449              -0.000049885              -0.000458067               0.001406493               0.000948426               0.000000000               0.000000000               0.000000000               0.000000000               0.000012376               0.003751034              -0.000025193              -0.000464237               0.001405078               0.000940841               0.000000000               0.000000000               0.000000000               0.000000000               0.000001204               0.003735936              -0.000010327              -0.000466539               0.001400813               0.000934273               0.000000000               0.000000000               0.000000000               0.000000000               0.001266096               0.003570950              -0.001766778               0.000028414               0.001180833               0.001209247               0.000000000               0.000000000               0.000000000               0.000000000               0.000736153               0.003630550              -0.001285506              -0.000177762               0.001269425               0.001091663               0.000000000               0.000000000               0.000000000               0.000000000               0.000361871               0.003867741              -0.000770087              -0.000347765               0.001405156               0.001057390               0.000000000               0.000000000               0.000000000               0.000000000               0.000257955               0.003872470              -0.000523503              -0.000387325               0.001419918               0.001032594               0.000000000               0.000000000               0.000000000               0.000000000               0.000224016               0.003840417              -0.000381175              -0.000396045               0.001412141               0.001016096               0.000000000               0.000000000               0.000000000               0.000000000               0.000206618               0.003810781              -0.000297284              -0.000398865               0.001403203               0.001004338               0.000000000               0.000000000               0.000000000               0.000000000               0.000195666               0.003795959              -0.000244681              -0.000401119               0.001399013               0.000997894               0.000000000               0.000000000               0.000000000               0.000000000               0.000180881               0.003786452              -0.000205819              -0.000405475               0.001397297               0.000991821               0.000000000               0.000000000               0.000000000               0.000000000               0.000161732               0.003771470              -0.000185153              -0.000410783               0.001394072               0.000983288               0.000000000               0.000000000               0.000000000               0.000000000               0.000138114               0.003751793              -0.000168866              -0.000417180               0.001389645               0.000972465               0.000000000               0.000000000               0.000000000               0.000000000               0.000110643               0.003729190              -0.000145735              -0.000424656               0.001384603               0.000959947               0.000000000               0.000000000               0.000000000               0.000000000               0.000081539               0.003706487              -0.000119571              -0.000432733               0.001379728               0.000946995               0.000000000               0.000000000               0.000000000               0.000000000               0.000048914               0.003683942              -0.000090380              -0.000442149               0.001375351               0.000933202               0.000000000               0.000000000               0.000000000               0.000000000               0.000016233               0.003661573              -0.000059908              -0.000451608               0.001371048               0.000919440               0.000000000               0.000000000               0.000000000               0.000000000              -0.000008058               0.003637804              -0.000031315              -0.000457746               0.001365171               0.000907425               0.000000000               0.000000000               0.000000000               0.000000000              -0.000013879               0.003607021              -0.000008632              -0.000456081               0.001354355               0.000898274               0.000000000               0.000000000               0.000000000               0.000000000              -0.000014939               0.003580749               0.000003467              -0.000453195               0.001344636               0.000891441               0.000000000               0.000000000               0.000000000               0.000000000               0.001222490               0.002893866              -0.001586589               0.000096698               0.000932379               0.001029077               0.000000000               0.000000000               0.000000000               0.000000000               0.000708324               0.003179365              -0.001256294              -0.000131800               0.001103711               0.000971910               0.000000000               0.000000000               0.000000000               0.000000000               0.000318919               0.003601093              -0.000859412              -0.000330542               0.001310533               0.000979991               0.000000000               0.000000000               0.000000000               0.000000000               0.000230146               0.003694830              -0.000623061              -0.000375548               0.001356780               0.000981232               0.000000000               0.000000000               0.000000000               0.000000000               0.000208589               0.003719434              -0.000474723              -0.000386708               0.001368701               0.000981994               0.000000000               0.000000000               0.000000000               0.000000000               0.000202292               0.003731059              -0.000380462              -0.000390522               0.001373848               0.000983326               0.000000000               0.000000000               0.000000000               0.000000000               0.000196117               0.003743510              -0.000318088              -0.000394394               0.001379289               0.000984895               0.000000000               0.000000000               0.000000000               0.000000000               0.000179474               0.003743140              -0.000270290              -0.000400589               0.001381230               0.000980642               0.000000000               0.000000000               0.000000000               0.000000000               0.000156196               0.003723436              -0.000235992              -0.000406855               0.001376751               0.000969896               0.000000000               0.000000000               0.000000000               0.000000000               0.000129595               0.003697963              -0.000208085              -0.000413646               0.001370524               0.000956878               0.000000000               0.000000000               0.000000000               0.000000000               0.000096596               0.003669161              -0.000174926              -0.000422421               0.001363848               0.000941428               0.000000000               0.000000000               0.000000000               0.000000000               0.000060690               0.003639258              -0.000136205              -0.000432148               0.001357123               0.000924975               0.000000000               0.000000000               0.000000000               0.000000000               0.000019220               0.003607477              -0.000095105              -0.000443726               0.001350389               0.000906663               0.000000000               0.000000000               0.000000000               0.000000000              -0.000022464               0.003572684              -0.000056927              -0.000455008               0.001342552               0.000887544               0.000000000               0.000000000               0.000000000               0.000000000              -0.000055353               0.003530555              -0.000025999              -0.000462076               0.001330865               0.000868790               0.000000000               0.000000000               0.000000000               0.000000000              -0.000070367               0.003479740              -0.000005603              -0.000461354               0.001313686               0.000852332               0.000000000               0.000000000               0.000000000               0.000000000              -0.000071620               0.003447064               0.000003213              -0.000457739               0.001301589               0.000843850               0.000000000               0.000000000               0.000000000               0.000000000               0.001131983               0.002243468              -0.001375865               0.000144057               0.000699796               0.000843853               0.000000000               0.000000000               0.000000000               0.000000000               0.000702134               0.002657896              -0.001214767              -0.000068938               0.000908935               0.000839997               0.000000000               0.000000000               0.000000000               0.000000000               0.000331953               0.003211713              -0.000963065              -0.000276982               0.001162887               0.000885906               0.000000000               0.000000000               0.000000000               0.000000000               0.000245460               0.003417277              -0.000746430              -0.000335112               0.001250785               0.000915673               0.000000000               0.000000000               0.000000000               0.000000000               0.000229207               0.003517862              -0.000592610              -0.000353779               0.001290535               0.000936756               0.000000000               0.000000000               0.000000000               0.000000000               0.000228857               0.003583523              -0.000485415              -0.000362118               0.001315202               0.000953083               0.000000000               0.000000000               0.000000000               0.000000000               0.000226723               0.003627092              -0.000406602              -0.000368365               0.001331807               0.000963442               0.000000000               0.000000000               0.000000000               0.000000000               0.000209117               0.003645266              -0.000344841              -0.000377239               0.001340823               0.000963584               0.000000000               0.000000000               0.000000000               0.000000000               0.000179986               0.003639895              -0.000296486              -0.000387491               0.001342450               0.000954959               0.000000000               0.000000000               0.000000000               0.000000000               0.000147352               0.003617587              -0.000256095              -0.000396940               0.001338164               0.000941223               0.000000000               0.000000000               0.000000000               0.000000000               0.000111958               0.003587034              -0.000216419              -0.000406394               0.001331131               0.000924737               0.000000000               0.000000000               0.000000000               0.000000000               0.000070985               0.003554241              -0.000170563              -0.000417660               0.001323955               0.000906295               0.000000000               0.000000000               0.000000000               0.000000000               0.000020077               0.003518993              -0.000121527              -0.000432344               0.001317101               0.000884756               0.000000000               0.000000000               0.000000000               0.000000000              -0.000036223               0.003484140              -0.000077424              -0.000449100               0.001311068               0.000861968               0.000000000               0.000000000               0.000000000               0.000000000              -0.000091212               0.003447288              -0.000041288              -0.000465114               0.001304123               0.000839008               0.000000000               0.000000000               0.000000000               0.000000000              -0.000138435               0.003405779              -0.000015125              -0.000477634               0.001294460               0.000816826               0.000000000               0.000000000               0.000000000               0.000000000              -0.000162264               0.003378844              -0.000002202              -0.000483203               0.001287338               0.000804134               0.000000000               0.000000000               0.000000000               0.000000000               0.000973278               0.001639114              -0.001137152               0.000160088               0.000493003               0.000653090               0.000000000               0.000000000               0.000000000               0.000000000               0.000694080               0.002137644              -0.001138827              -0.000006927               0.000714849               0.000707922               0.000000000               0.000000000               0.000000000               0.000000000               0.000391604               0.002782890              -0.001040627              -0.000201010               0.000994624               0.000793614               0.000000000               0.000000000               0.000000000               0.000000000               0.000306086               0.003094811              -0.000866493              -0.000272069               0.001122283               0.000850214               0.000000000               0.000000000               0.000000000               0.000000000               0.000286720               0.003273090              -0.000717220              -0.000301616               0.001191557               0.000889942               0.000000000               0.000000000               0.000000000               0.000000000               0.000282522               0.003394801              -0.000600722              -0.000318404               0.001237723               0.000919320               0.000000000               0.000000000               0.000000000               0.000000000               0.000274986               0.003475545              -0.000506059              -0.000331323               0.001268944               0.000937621               0.000000000               0.000000000               0.000000000               0.000000000               0.000255313               0.003522827              -0.000429206              -0.000344610               0.001289134               0.000944524               0.000000000               0.000000000               0.000000000               0.000000000               0.000225099               0.003545620              -0.000369476              -0.000358790               0.001301458               0.000942668               0.000000000               0.000000000               0.000000000               0.000000000               0.000193036               0.003547956              -0.000322303              -0.000371105               0.001306342               0.000935237               0.000000000               0.000000000               0.000000000               0.000000000               0.000158188               0.003530553              -0.000277768              -0.000381998               0.001304172               0.000922174               0.000000000               0.000000000               0.000000000               0.000000000               0.000116564               0.003503731              -0.000226071              -0.000394254               0.001299316               0.000905063               0.000000000               0.000000000               0.000000000               0.000000000               0.000067047               0.003472366              -0.000171877              -0.000408902               0.001293744               0.000884842               0.000000000               0.000000000               0.000000000               0.000000000               0.000006364               0.003440974              -0.000120552              -0.000427734               0.001289558               0.000861824               0.000000000               0.000000000               0.000000000               0.000000000              -0.000066958               0.003412919              -0.000072329              -0.000451723               0.001288203               0.000836480               0.000000000               0.000000000               0.000000000               0.000000000              -0.000148289               0.003386871              -0.000031503              -0.000478966               0.001288601               0.000809635               0.000000000               0.000000000               0.000000000               0.000000000              -0.000204209               0.003364058              -0.000007291              -0.000497084               0.001287036               0.000789952               0.000000000               0.000000000               0.000000000               0.000000000               0.000747678               0.001119380              -0.000880603               0.000140455               0.000326304               0.000466759               0.000000000               0.000000000               0.000000000               0.000000000               0.000654692               0.001649630              -0.001012791               0.000039304               0.000536769               0.000576073               0.000000000               0.000000000               0.000000000               0.000000000               0.000470900               0.002322041              -0.001050753              -0.000113669               0.000811895               0.000698226               0.000000000               0.000000000               0.000000000               0.000000000               0.000405049               0.002709913              -0.000935086              -0.000186846               0.000965577               0.000778731               0.000000000               0.000000000               0.000000000               0.000000000               0.000380817               0.002960916              -0.000804460              -0.000227308               0.001062731               0.000835423               0.000000000               0.000000000               0.000000000               0.000000000               0.000366606               0.003142072              -0.000688317              -0.000255282               0.001132440               0.000877159               0.000000000               0.000000000               0.000000000               0.000000000               0.000346099               0.003268006              -0.000585725              -0.000278713               0.001182229               0.000903516               0.000000000               0.000000000               0.000000000               0.000000000               0.000320879               0.003353890              -0.000501250              -0.000298906               0.001217587               0.000918681               0.000000000               0.000000000               0.000000000               0.000000000               0.000290566               0.003413313              -0.000436924              -0.000317701               0.001243660               0.000925959               0.000000000               0.000000000               0.000000000               0.000000000               0.000255818               0.003448267              -0.000385261              -0.000335101               0.001261111               0.000926010               0.000000000               0.000000000               0.000000000               0.000000000               0.000217644               0.003457282              -0.000333996              -0.000350543               0.001269264               0.000918720               0.000000000               0.000000000               0.000000000               0.000000000               0.000179411               0.003451792              -0.000280238              -0.000364194               0.001271984               0.000907790               0.000000000               0.000000000               0.000000000               0.000000000               0.000137894               0.003435081              -0.000225118              -0.000377674               0.001270907               0.000893233               0.000000000               0.000000000               0.000000000               0.000000000               0.000084358               0.003414605              -0.000166297              -0.000395190               0.001269920               0.000874730               0.000000000               0.000000000               0.000000000               0.000000000               0.000011166               0.003392538              -0.000104645              -0.000419879               0.001270794               0.000850915               0.000000000               0.000000000               0.000000000               0.000000000              -0.000079554               0.003375209              -0.000049158              -0.000451733               0.001275636               0.000823903               0.000000000               0.000000000               0.000000000               0.000000000              -0.000150622               0.003354529              -0.000015549              -0.000475798               0.001276764               0.000800966               0.000000000               0.000000000               0.000000000               0.000000000               0.000474482               0.000707318              -0.000629773               0.000089514               0.000205932               0.000295446               0.000000000               0.000000000               0.000000000               0.000000000               0.000583520               0.001214767              -0.000845501               0.000066972               0.000382594               0.000449566               0.000000000               0.000000000               0.000000000               0.000000000               0.000552141               0.001855996              -0.000982104              -0.000024948               0.000626975               0.000602027               0.000000000               0.000000000               0.000000000               0.000000000               0.000523330               0.002286180              -0.000924372              -0.000089525               0.000791893               0.000702369               0.000000000               0.000000000               0.000000000               0.000000000               0.000498040               0.002598783              -0.000821744              -0.000138083               0.000912280               0.000774197               0.000000000               0.000000000               0.000000000               0.000000000               0.000470385               0.002835501              -0.000717137              -0.000178043               0.001004505               0.000826462               0.000000000               0.000000000               0.000000000               0.000000000               0.000442469               0.003011219              -0.000623037              -0.000210476               0.001073888               0.000863412               0.000000000               0.000000000               0.000000000               0.000000000               0.000415053               0.003143312              -0.000543034              -0.000237269               0.001126850               0.000889581               0.000000000               0.000000000               0.000000000               0.000000000               0.000379351               0.003246181              -0.000477211              -0.000263515               0.001169888               0.000906373               0.000000000               0.000000000               0.000000000               0.000000000               0.000335151               0.003319358              -0.000424323              -0.000289238               0.001202854               0.000913617               0.000000000               0.000000000               0.000000000               0.000000000               0.000294213               0.003364309              -0.000377137              -0.000310208               0.001224828               0.000914620               0.000000000               0.000000000               0.000000000               0.000000000               0.000259992               0.003388759              -0.000327479              -0.000326097               0.001238274               0.000912177               0.000000000               0.000000000               0.000000000               0.000000000               0.000223185               0.003396199              -0.000270335              -0.000340830               0.001245665               0.000904835               0.000000000               0.000000000               0.000000000               0.000000000               0.000176655               0.003392664              -0.000203984              -0.000357836               0.001250155               0.000892319               0.000000000               0.000000000               0.000000000               0.000000000               0.000116974               0.003382727              -0.000133358              -0.000378975               0.001253889               0.000874915               0.000000000               0.000000000               0.000000000               0.000000000               0.000040153               0.003372881              -0.000065355              -0.000406552               0.001259800               0.000853248               0.000000000               0.000000000               0.000000000               0.000000000              -0.000024776               0.003355433              -0.000025489              -0.000428719               0.001261373               0.000832654               0.000000000               0.000000000               0.000000000               0.000000000               0.000193679               0.000410903              -0.000408967               0.000021266               0.000129877               0.000151143               0.000000000               0.000000000               0.000000000               0.000000000               0.000493315               0.000853808              -0.000648755               0.000078266               0.000258511               0.000336777               0.000000000               0.000000000               0.000000000               0.000000000               0.000620711               0.001422908              -0.000830915               0.000054901               0.000455997               0.000510899               0.000000000               0.000000000               0.000000000               0.000000000               0.000642164               0.001868807              -0.000818727               0.000007209               0.000620526               0.000627736               0.000000000               0.000000000               0.000000000               0.000000000               0.000627947               0.002225294              -0.000747020              -0.000042682               0.000755984               0.000713302               0.000000000               0.000000000               0.000000000               0.000000000               0.000596537               0.002509975              -0.000665463              -0.000090046               0.000866665               0.000776619               0.000000000               0.000000000               0.000000000               0.000000000               0.000565427               0.002733071              -0.000592615              -0.000129599               0.000954214               0.000824615               0.000000000               0.000000000               0.000000000               0.000000000               0.000532635               0.002910620              -0.000523603              -0.000164089               0.001024893               0.000860804               0.000000000               0.000000000               0.000000000               0.000000000               0.000490144               0.003056900              -0.000461764              -0.000198308               0.001085059               0.000886751               0.000000000               0.000000000               0.000000000               0.000000000               0.000441275               0.003167943              -0.000416807              -0.000230514               0.001132809               0.000902294               0.000000000               0.000000000               0.000000000               0.000000000               0.000396635               0.003248670              -0.000380979              -0.000257345               0.001168661               0.000911316               0.000000000               0.000000000               0.000000000               0.000000000               0.000356654               0.003303536              -0.000338143              -0.000279196               0.001194233               0.000915037               0.000000000               0.000000000               0.000000000               0.000000000               0.000317592               0.003336274              -0.000283543              -0.000297937               0.001211393               0.000913456               0.000000000               0.000000000               0.000000000               0.000000000               0.000281317               0.003356511              -0.000219218              -0.000314069               0.001223516               0.000909446               0.000000000               0.000000000               0.000000000               0.000000000               0.000244536               0.003367447              -0.000148094              -0.000329229               0.001232214               0.000902985               0.000000000               0.000000000               0.000000000               0.000000000               0.000199627               0.003368725              -0.000074598              -0.000346230               0.001238307               0.000892077               0.000000000               0.000000000               0.000000000               0.000000000               0.000161952               0.003359796              -0.000034205              -0.000359242               0.001239668               0.000880426               0.000000000               0.000000000               0.000000000               0.000000000              -0.000055311               0.000215940              -0.000236830              -0.000047734               0.000087890               0.000040156               0.000000000               0.000000000               0.000000000               0.000000000               0.000405198               0.000584360              -0.000437487               0.000078903               0.000168483               0.000247386               0.000000000               0.000000000               0.000000000               0.000000000               0.000673641               0.001073584              -0.000602788               0.000118416               0.000318385               0.000436801               0.000000000               0.000000000               0.000000000               0.000000000               0.000746254               0.001514128              -0.000615689               0.000090578               0.000474512               0.000565089               0.000000000               0.000000000               0.000000000               0.000000000               0.000748219               0.001890721              -0.000573402               0.000044241               0.000615487               0.000659728               0.000000000               0.000000000               0.000000000               0.000000000               0.000725157               0.002209102              -0.000521141              -0.000004204               0.000737761               0.000733557               0.000000000               0.000000000               0.000000000               0.000000000               0.000690582               0.002473261              -0.000472101              -0.000050189               0.000841142               0.000790952               0.000000000               0.000000000               0.000000000               0.000000000               0.000649251               0.002690147              -0.000419288              -0.000092799               0.000927640               0.000834841               0.000000000               0.000000000               0.000000000               0.000000000               0.000605180               0.002864717              -0.000371032              -0.000131147               0.000998612               0.000867465               0.000000000               0.000000000               0.000000000               0.000000000               0.000558364               0.003004763              -0.000339159              -0.000166209               0.001056980               0.000890772               0.000000000               0.000000000               0.000000000               0.000000000               0.000509992               0.003118259              -0.000313972              -0.000198535               0.001105588               0.000907052               0.000000000               0.000000000               0.000000000               0.000000000               0.000463462               0.003202642              -0.000280769              -0.000226531               0.001143047               0.000916516               0.000000000               0.000000000               0.000000000               0.000000000               0.000424933               0.003261616              -0.000239059              -0.000248352               0.001169978               0.000921627               0.000000000               0.000000000               0.000000000               0.000000000               0.000398538               0.003304281              -0.000189767              -0.000263583               0.001189277               0.000925694               0.000000000               0.000000000               0.000000000               0.000000000               0.000384657               0.003334163              -0.000131879              -0.000272523               0.001202218               0.000929694               0.000000000               0.000000000               0.000000000               0.000000000               0.000379691               0.003351666              -0.000068608              -0.000276573               0.001209402               0.000932829               0.000000000               0.000000000               0.000000000               0.000000000               0.000377403               0.003356162              -0.000035091              -0.000277994               0.001211374               0.000933381               0.000000000               0.000000000               0.000000000               0.000000000              -0.000225537               0.000102279              -0.000105682              -0.000097361               0.000066546              -0.000030815               0.000000000               0.000000000               0.000000000               0.000000000               0.000341212               0.000414311              -0.000219855               0.000076165               0.000112714               0.000188879               0.000000000               0.000000000               0.000000000               0.000000000               0.000706775               0.000846140              -0.000317527               0.000159271               0.000228953               0.000388225               0.000000000               0.000000000               0.000000000               0.000000000               0.000818621               0.001274194              -0.000330786               0.000147707               0.000375491               0.000523199               0.000000000               0.000000000               0.000000000               0.000000000               0.000837220               0.001656021              -0.000312082               0.000106954               0.000516350               0.000623304               0.000000000               0.000000000               0.000000000               0.000000000               0.000822310               0.001995768              -0.000288235               0.000058894               0.000645618               0.000704512               0.000000000               0.000000000               0.000000000               0.000000000               0.000785317               0.002285666              -0.000263453               0.000008785               0.000758953               0.000767738               0.000000000               0.000000000               0.000000000               0.000000000               0.000740211               0.002525758              -0.000234664              -0.000038141               0.000854624               0.000816484               0.000000000               0.000000000               0.000000000               0.000000000               0.000697802               0.002718204              -0.000209330              -0.000078100               0.000932092               0.000853993               0.000000000               0.000000000               0.000000000               0.000000000               0.000652845               0.002872837              -0.000192376              -0.000114288               0.000995698               0.000881411               0.000000000               0.000000000               0.000000000               0.000000000               0.000602618               0.003004068              -0.000177567              -0.000149526               0.001051188               0.000901662               0.000000000               0.000000000               0.000000000               0.000000000               0.000554039               0.003113227              -0.000159181              -0.000181388               0.001098195               0.000916807               0.000000000               0.000000000               0.000000000               0.000000000               0.000516276               0.003199101              -0.000136424              -0.000206284               0.001135118               0.000928834               0.000000000               0.000000000               0.000000000               0.000000000               0.000494770               0.003264233              -0.000110096              -0.000222490               0.001162230               0.000939740               0.000000000               0.000000000               0.000000000               0.000000000               0.000494680               0.003311253              -0.000079782              -0.000228401               0.001179874               0.000951473               0.000000000               0.000000000               0.000000000               0.000000000               0.000518036               0.003341236              -0.000043101              -0.000223390               0.001188198               0.000964807               0.000000000               0.000000000               0.000000000               0.000000000               0.000545211               0.003355488              -0.000022887              -0.000214981               0.001190145               0.000975164               0.000000000               0.000000000               0.000000000               0.000000000              -0.000284191               0.000067221              -0.000000000              -0.000114974               0.000060731              -0.000054243               0.000000000               0.000000000               0.000000000               0.000000000               0.000318377               0.000359155              -0.000000000               0.000074496               0.000094885               0.000169381               0.000000000               0.000000000               0.000000000               0.000000000               0.000717099               0.000768963              -0.000000000               0.000172790               0.000198722               0.000371512               0.000000000               0.000000000               0.000000000               0.000000000               0.000842898               0.001187589              -0.000000000               0.000167637               0.000339980               0.000507617               0.000000000               0.000000000               0.000000000               0.000000000               0.000871655               0.001570986               0.000000000               0.000130496               0.000480158               0.000610654               0.000000000               0.000000000               0.000000000               0.000000000               0.000859382               0.001919031              -0.000000000               0.000082389               0.000612208               0.000694596               0.000000000               0.000000000               0.000000000               0.000000000               0.000821805               0.002217307              -0.000000000               0.000031013               0.000728757               0.000759771               0.000000000               0.000000000               0.000000000               0.000000000               0.000778003               0.002466747               0.000000000              -0.000016592               0.000827772               0.000811179               0.000000000               0.000000000               0.000000000               0.000000000               0.000736055               0.002665247               0.000000000              -0.000057135               0.000907452               0.000850317               0.000000000               0.000000000               0.000000000               0.000000000               0.000689318               0.002820183               0.000000000              -0.000094028               0.000971394               0.000877366               0.000000000               0.000000000               0.000000000               0.000000000               0.000638739               0.002955161               0.000000000              -0.000129868               0.001028333               0.000898465               0.000000000               0.000000000               0.000000000               0.000000000               0.000589678               0.003075047              -0.000000000              -0.000163251               0.001079422               0.000916171               0.000000000               0.000000000               0.000000000               0.000000000               0.000550998               0.003176149              -0.000000000              -0.000190394               0.001122170               0.000931776               0.000000000               0.000000000               0.000000000               0.000000000               0.000531074               0.003255122               0.000000000              -0.000207737               0.001154276               0.000946539               0.000000000               0.000000000               0.000000000               0.000000000               0.000534375               0.003309786               0.000000000              -0.000213332               0.001174362               0.000961030               0.000000000               0.000000000               0.000000000               0.000000000               0.000566115               0.003342973              -0.000000000              -0.000205578               0.001182839               0.000977261               0.000000000               0.000000000               0.000000000               0.000000000               0.000605812               0.003360248              -0.000000000              -0.000192851               0.001184355               0.000991504               0.000000000               0.000000000               0.000000000               0.000000000               0.000000000               0.000000000               0.000000000               0.000000000               0.000000000               0.000000000               0.000000000               0.000000000               0.000000000               0.000000000               0.000000000               0.000000000               0.000000000               0.000000000               0.000000000               0.000000000               0.000000000               0.000000000               0.000000000               0.000000000               0.000000000               0.000000000               0.000000000               0.000000000               0.000000000               0.000000000               0.000000000               0.000000000               0.000000000               0.000000000               0.000000000               0.000000000               0.000000000               0.000000000               0.000000000               0.000000000               0.000000000               0.000000000               0.000000000               0.000000000               0.000000000               0.000000000               0.000000000               0.000000000               0.000000000               0.000000000               0.000000000               0.000000000               0.000000000               0.000000000               0.000000000               0.000000000               0.000000000               0.000000000               0.000000000               0.000000000               0.000000000               0.000000000               0.000000000               0.000000000               0.000000000               0.000000000               0.000000000               0.000000000               0.000000000               0.000000000               0.000000000               0.000000000               0.000000000               0.000000000               0.000000000               0.000000000               0.000000000               0.000000000               0.000000000               0.000000000               0.000000000               0.000000000               0.000000000               0.000000000               0.000000000               0.000000000               0.000000000               0.000000000               0.000000000               0.000000000               0.000000000               0.000000000               0.000000000               0.000000000               0.000000000               0.000000000               0.000000000               0.000000000               0.000000000               0.000000000               0.000000000               0.000000000               0.000000000               0.000000000               0.000000000               0.000000000               0.000000000               0.000000000               0.000000000               0.000000000               0.000000000               0.000000000               0.000000000               0.000000000               0.000000000               0.000000000               0.000000000               0.000000000               0.000000000               0.000000000               0.000000000               0.000000000               0.000000000               0.000000000               0.000000000               0.000000000               0.000000000               0.000000000               0.000000000               0.000000000               0.000000000               0.000000000               0.000000000               0.000000000               0.000000000               0.000000000               0.000000000               0.000000000               0.000000000               0.000000000               0.000000000               0.000000000               0.000000000               0.000000000               0.000000000               0.000000000               0.000000000               0.000000000               0.000000000               0.000000000               0.000000000               0.000000000               0.000000000               0.000000000               0.000000000               0.000000000               0.000000000               0.000000000               0.000000000               0.000000000               0.000000000               0.000000000               0.000000000               0.000000000               0.000000000               0.000000000               0.000000000               0.000000000               0.000000000               0.000000000               0.000000000               0.000000000               0.000000000               0.000000000               0.000720603               0.007749254               0.000579583              -0.000698429               0.002815868               0.002117439               0.000000000               0.000000000               0.000000000               0.000000000               0.000751440               0.006399089               0.000359698              -0.000518095               0.002305707               0.001787612               0.000000000               0.000000000               0.000000000               0.000000000               0.001006175               0.005331932               0.000134854              -0.000289175               0.001873684               0.001584509               0.000000000               0.000000000               0.000000000               0.000000000               0.001029903               0.004748096               0.000032792              -0.000207298               0.001651782               0.001444484               0.000000000               0.000000000               0.000000000               0.000000000               0.000975215               0.004404617              -0.000015377              -0.000184871               0.001529815               0.001344944               0.000000000               0.000000000               0.000000000               0.000000000               0.000893905               0.004191913              -0.000037951              -0.000188774               0.001460215               0.001271441               0.000000000               0.000000000               0.000000000               0.000000000               0.000803383               0.004053188              -0.000046219              -0.000205379               0.001419509               0.001214130               0.000000000               0.000000000               0.000000000               0.000000000               0.000708331               0.003957779              -0.000048655              -0.000229098               0.001395613               0.001166515               0.000000000               0.000000000               0.000000000               0.000000000               0.000613920               0.003892077              -0.000050392              -0.000256289               0.001382776               0.001126487               0.000000000               0.000000000               0.000000000               0.000000000               0.000520600               0.003848507              -0.000050339              -0.000285838               0.001378102               0.001092264               0.000000000               0.000000000               0.000000000               0.000000000               0.000427052               0.003818987              -0.000048730              -0.000317228               0.001378726               0.001061498               0.000000000               0.000000000               0.000000000               0.000000000               0.000338077               0.003798189              -0.000045762              -0.000347994               0.001382048               0.001034054               0.000000000               0.000000000               0.000000000               0.000000000               0.000257403               0.003783292              -0.000042210              -0.000376385               0.001386546               0.001010162               0.000000000               0.000000000               0.000000000               0.000000000               0.000182269               0.003770612              -0.000038009              -0.000402975               0.001391183               0.000988208               0.000000000               0.000000000               0.000000000               0.000000000               0.000113364               0.003758474              -0.000031118              -0.000427297               0.001395244               0.000967948               0.000000000               0.000000000               0.000000000               0.000000000               0.000054242               0.003743918              -0.000019078              -0.000447648               0.001397176               0.000949528               0.000000000               0.000000000               0.000000000               0.000000000               0.000027188               0.003734187              -0.000011203              -0.000456577               0.001396909               0.000940332               0.000000000               0.000000000               0.000000000               0.000000000               0.000825193               0.007351373               0.001100852              -0.000609473               0.002653591               0.002044118               0.000000000               0.000000000               0.000000000               0.000000000               0.000771796               0.006127460               0.000685905              -0.000476508               0.002201302               0.001724794               0.000000000               0.000000000               0.000000000               0.000000000               0.000935852               0.005192895               0.000263010              -0.000298167               0.001830337               0.001532170               0.000000000               0.000000000               0.000000000               0.000000000               0.000922508               0.004678787               0.000075219              -0.000238907               0.001639216               0.001400309               0.000000000               0.000000000               0.000000000               0.000000000               0.000854232               0.004369013              -0.000012115              -0.000225789               0.001531586               0.001305797               0.000000000               0.000000000               0.000000000               0.000000000               0.000772867               0.004170485              -0.000052847              -0.000231485               0.001467309               0.001235825               0.000000000               0.000000000               0.000000000               0.000000000               0.000691225               0.004039839              -0.000068403              -0.000245770               0.001428523               0.001182753               0.000000000               0.000000000               0.000000000               0.000000000               0.000606349               0.003949927              -0.000072513              -0.000266359               0.001405416               0.001139056               0.000000000               0.000000000               0.000000000               0.000000000               0.000521517               0.003886389              -0.000075026              -0.000290229               0.001392193               0.001101964               0.000000000               0.000000000               0.000000000               0.000000000               0.000440002               0.003844057              -0.000076562              -0.000315506               0.001386508               0.001071003               0.000000000               0.000000000               0.000000000               0.000000000               0.000359350               0.003816311              -0.000074682              -0.000342282               0.001386185               0.001043903               0.000000000               0.000000000               0.000000000               0.000000000               0.000283210               0.003797475              -0.000070022              -0.000368480               0.001388639               0.001020159               0.000000000               0.000000000               0.000000000               0.000000000               0.000215226               0.003785707              -0.000063893              -0.000392503               0.001392724               0.001000221               0.000000000               0.000000000               0.000000000               0.000000000               0.000153461               0.003778437              -0.000057188              -0.000414756               0.001397718               0.000982963               0.000000000               0.000000000               0.000000000               0.000000000               0.000097421               0.003776479              -0.000046606              -0.000435526               0.001403989               0.000968463               0.000000000               0.000000000               0.000000000               0.000000000               0.000047486               0.003780132              -0.000028174              -0.000454708               0.001411601               0.000956893               0.000000000               0.000000000               0.000000000               0.000000000               0.000027213               0.003789615              -0.000015387              -0.000463496               0.001417691               0.000954195               0.000000000               0.000000000               0.000000000               0.000000000               0.000972936               0.006743061               0.001506856              -0.000478031               0.002407008               0.001928977               0.000000000               0.000000000               0.000000000               0.000000000               0.000796530               0.005712847               0.000946491              -0.000415407               0.002042732               0.001627325               0.000000000               0.000000000               0.000000000               0.000000000               0.000829659               0.004980515               0.000380917              -0.000311442               0.001763969               0.001452527               0.000000000               0.000000000               0.000000000               0.000000000               0.000770535               0.004565712               0.000137301              -0.000281763               0.001615810               0.001334047               0.000000000               0.000000000               0.000000000               0.000000000               0.000692941               0.004305083               0.000026513              -0.000278282               0.001527774               0.001249492               0.000000000               0.000000000               0.000000000               0.000000000               0.000614955               0.004132471              -0.000026027              -0.000285950               0.001472793               0.001186843               0.000000000               0.000000000               0.000000000               0.000000000               0.000543853               0.004017285              -0.000048665              -0.000298215               0.001438487               0.001140272               0.000000000               0.000000000               0.000000000               0.000000000               0.000475521               0.003938931              -0.000055613              -0.000314045               0.001417646               0.001103600               0.000000000               0.000000000               0.000000000               0.000000000               0.000407648               0.003883447              -0.000060378              -0.000332562               0.001405323               0.001072761               0.000000000               0.000000000               0.000000000               0.000000000               0.000344821               0.003846696              -0.000065175              -0.000351528               0.001399395               0.001047867               0.000000000               0.000000000               0.000000000               0.000000000               0.000284308               0.003823665              -0.000065759              -0.000371342               0.001398323               0.001026981               0.000000000               0.000000000               0.000000000               0.000000000               0.000226481               0.003810927              -0.000061586              -0.000391435               0.001400775               0.001009340               0.000000000               0.000000000               0.000000000               0.000000000               0.000175093               0.003806153              -0.000054916              -0.000410108               0.001405408               0.000995300               0.000000000               0.000000000               0.000000000               0.000000000               0.000128493               0.003809477              -0.000047134              -0.000427999               0.001412479               0.000984481               0.000000000               0.000000000               0.000000000               0.000000000               0.000084235               0.003821172              -0.000036339              -0.000446057               0.001422397               0.000976340               0.000000000               0.000000000               0.000000000               0.000000000               0.000041578               0.003847113              -0.000020498              -0.000465296               0.001437457               0.000972161               0.000000000               0.000000000               0.000000000               0.000000000               0.000027941               0.003878571              -0.000007431              -0.000474342               0.001450958               0.000976616               0.000000000               0.000000000               0.000000000               0.000000000               0.001117796               0.005992835               0.001768261              -0.000329932               0.002107569               0.001777637               0.000000000               0.000000000               0.000000000               0.000000000               0.000807855               0.005209153               0.001128525              -0.000348198               0.001852433               0.001504234               0.000000000               0.000000000               0.000000000               0.000000000               0.000701068               0.004722108               0.000488165              -0.000327362               0.001683141               0.001355779               0.000000000               0.000000000               0.000000000               0.000000000               0.000601960               0.004417019               0.000220414              -0.000326391               0.001581122               0.001254731               0.000000000               0.000000000               0.000000000               0.000000000               0.000521829               0.004213465               0.000099008              -0.000330996               0.001514806               0.001183810               0.000000000               0.000000000               0.000000000               0.000000000               0.000458687               0.004078579               0.000039551              -0.000337814               0.001472117               0.001134304               0.000000000               0.000000000               0.000000000               0.000000000               0.000405094               0.003983937               0.000007888              -0.000346081               0.001443326               0.001097245               0.000000000               0.000000000               0.000000000               0.000000000               0.000354212               0.003921509              -0.000006469              -0.000357358               0.001426276               0.001068918               0.000000000               0.000000000               0.000000000               0.000000000               0.000305341               0.003879297              -0.000014368              -0.000370408               0.001416556               0.001046147               0.000000000               0.000000000               0.000000000               0.000000000               0.000262212               0.003850881              -0.000022373              -0.000383029               0.001411291               0.001028261               0.000000000               0.000000000               0.000000000               0.000000000               0.000223677               0.003834669              -0.000025841              -0.000395454               0.001410028               0.001014574               0.000000000               0.000000000               0.000000000               0.000000000               0.000186065               0.003827321              -0.000022653              -0.000408640               0.001411974               0.001003334               0.000000000               0.000000000               0.000000000               0.000000000               0.000149052               0.003828695              -0.000015787              -0.000422692               0.001417116               0.000994425               0.000000000               0.000000000               0.000000000               0.000000000               0.000112444               0.003839090              -0.000007664              -0.000437719               0.001425590               0.000987871               0.000000000               0.000000000               0.000000000               0.000000000               0.000075478               0.003858667              -0.000000213              -0.000454028               0.001437552               0.000983524               0.000000000               0.000000000               0.000000000               0.000000000               0.000038098               0.003891494               0.000002671              -0.000472149               0.001454535               0.000982386               0.000000000               0.000000000               0.000000000               0.000000000               0.000027452               0.003925717               0.000007163              -0.000480419               0.001468699               0.000988280               0.000000000               0.000000000               0.000000000               0.000000000               0.001224726               0.005174158               0.001886644              -0.000187499               0.001787201               0.001599702               0.000000000               0.000000000               0.000000000               0.000000000               0.000800581               0.004669346               0.001237876              -0.000283451               0.001650916               0.001367466               0.000000000               0.000000000               0.000000000               0.000000000               0.000568181               0.004440269               0.000589149              -0.000341965               0.001594063               0.001252098               0.000000000               0.000000000               0.000000000               0.000000000               0.000447187               0.004245921               0.000320875              -0.000363044               0.001536307               0.001173263               0.000000000               0.000000000               0.000000000               0.000000000               0.000375927               0.004102808               0.000191200              -0.000371878               0.001491548               0.001119671               0.000000000               0.000000000               0.000000000               0.000000000               0.000331363               0.004004409               0.000123058              -0.000376289               0.001460219               0.001083930               0.000000000               0.000000000               0.000000000               0.000000000               0.000297905               0.003933905               0.000083157              -0.000380023               0.001437963               0.001057940               0.000000000               0.000000000               0.000000000               0.000000000               0.000264522               0.003889673               0.000061074              -0.000387012               0.001425549               0.001038536               0.000000000               0.000000000               0.000000000               0.000000000               0.000231852               0.003863114               0.000052661              -0.000395944               0.001419673               0.001023729               0.000000000               0.000000000               0.000000000               0.000000000               0.000204328               0.003842838               0.000044571              -0.000403731               0.001415510               0.001011779               0.000000000               0.000000000               0.000000000               0.000000000               0.000180881               0.003829399               0.000039011              -0.000410844               0.001413401               0.001002558               0.000000000               0.000000000               0.000000000               0.000000000               0.000155932               0.003821677               0.000039133              -0.000419234               0.001413624               0.000994390               0.000000000               0.000000000               0.000000000               0.000000000               0.000127181               0.003822527               0.000041685              -0.000430122               0.001417537               0.000987415               0.000000000               0.000000000               0.000000000               0.000000000               0.000094455               0.003829294               0.000043838              -0.000443240               0.001424165               0.000980925               0.000000000               0.000000000               0.000000000               0.000000000               0.000060216               0.003840582               0.000040037              -0.000457490               0.001432678               0.000975187               0.000000000               0.000000000               0.000000000               0.000000000               0.000029777               0.003855111               0.000025782              -0.000470721               0.001441931               0.000971210               0.000000000               0.000000000               0.000000000               0.000000000               0.000017878               0.003864376               0.000016958              -0.000476341               0.001446893               0.000970552               0.000000000               0.000000000               0.000000000               0.000000000               0.001273667               0.004350711               0.001879171              -0.000066216               0.001472294               0.001406078               0.000000000               0.000000000               0.000000000               0.000000000               0.000775601               0.004133733               0.001286966              -0.000225867               0.001453186               0.001227319               0.000000000               0.000000000               0.000000000               0.000000000               0.000451310               0.004151861               0.000684405              -0.000349741               0.001500520               0.001150779               0.000000000               0.000000000               0.000000000               0.000000000               0.000331259               0.004063692               0.000426172              -0.000383738               0.001482463               0.001098725               0.000000000               0.000000000               0.000000000               0.000000000               0.000276576               0.003977874               0.000289430              -0.000393517               0.001457117               0.001063600               0.000000000               0.000000000               0.000000000               0.000000000               0.000246871               0.003911588               0.000212747              -0.000396371               0.001435973               0.001039602               0.000000000               0.000000000               0.000000000               0.000000000               0.000227737               0.003866186               0.000166410              -0.000397871               0.001421339               0.001023469               0.000000000               0.000000000               0.000000000               0.000000000               0.000207719               0.003841247               0.000136827              -0.000402260               0.001414489               0.001012229               0.000000000               0.000000000               0.000000000               0.000000000               0.000187190               0.003826164               0.000125562              -0.000408073               0.001411400               0.001003327               0.000000000               0.000000000               0.000000000               0.000000000               0.000167513               0.003809664               0.000116381              -0.000413389               0.001407672               0.000994282               0.000000000               0.000000000               0.000000000               0.000000000               0.000147442               0.003793600               0.000104860              -0.000418908               0.001404157               0.000985249               0.000000000               0.000000000               0.000000000               0.000000000               0.000123528               0.003781010               0.000094742              -0.000426302               0.001402425               0.000976123               0.000000000               0.000000000               0.000000000               0.000000000               0.000094117               0.003771903               0.000082966              -0.000436193               0.001402686               0.000966493               0.000000000               0.000000000               0.000000000               0.000000000               0.000062115               0.003766096               0.000069607              -0.000447468               0.001404509               0.000957041               0.000000000               0.000000000               0.000000000               0.000000000               0.000032300               0.003761449               0.000049885              -0.000458067               0.001406493               0.000948426               0.000000000               0.000000000               0.000000000               0.000000000               0.000012376               0.003751034               0.000025193              -0.000464237               0.001405078               0.000940841               0.000000000               0.000000000               0.000000000               0.000000000               0.000001204               0.003735936               0.000010327              -0.000466539               0.001400813               0.000934273               0.000000000               0.000000000               0.000000000               0.000000000               0.001266096               0.003570950               0.001766778               0.000028414               0.001180833               0.001209247               0.000000000               0.000000000               0.000000000               0.000000000               0.000736153               0.003630550               0.001285506              -0.000177762               0.001269425               0.001091663               0.000000000               0.000000000               0.000000000               0.000000000               0.000361871               0.003867741               0.000770087              -0.000347765               0.001405156               0.001057390               0.000000000               0.000000000               0.000000000               0.000000000               0.000257955               0.003872470               0.000523503              -0.000387325               0.001419918               0.001032594               0.000000000               0.000000000               0.000000000               0.000000000               0.000224016               0.003840417               0.000381175              -0.000396045               0.001412141               0.001016096               0.000000000               0.000000000               0.000000000               0.000000000               0.000206618               0.003810781               0.000297284              -0.000398865               0.001403203               0.001004338               0.000000000               0.000000000               0.000000000               0.000000000               0.000195666               0.003795959               0.000244681              -0.000401119               0.001399013               0.000997894               0.000000000               0.000000000               0.000000000               0.000000000               0.000180881               0.003786452               0.000205819              -0.000405475               0.001397297               0.000991821               0.000000000               0.000000000               0.000000000               0.000000000               0.000161732               0.003771470               0.000185153              -0.000410783               0.001394072               0.000983288               0.000000000               0.000000000               0.000000000               0.000000000               0.000138114               0.003751793               0.000168866              -0.000417180               0.001389645               0.000972465               0.000000000               0.000000000               0.000000000               0.000000000               0.000110643               0.003729190               0.000145735              -0.000424656               0.001384603               0.000959947               0.000000000               0.000000000               0.000000000               0.000000000               0.000081539               0.003706487               0.000119571              -0.000432733               0.001379728               0.000946995               0.000000000               0.000000000               0.000000000               0.000000000               0.000048914               0.003683942               0.000090380              -0.000442149               0.001375351               0.000933202               0.000000000               0.000000000               0.000000000               0.000000000               0.000016233               0.003661573               0.000059908              -0.000451608               0.001371048               0.000919440               0.000000000               0.000000000               0.000000000               0.000000000              -0.000008058               0.003637804               0.000031315              -0.000457746               0.001365171               0.000907425               0.000000000               0.000000000               0.000000000               0.000000000              -0.000013879               0.003607021               0.000008632              -0.000456081               0.001354355               0.000898274               0.000000000               0.000000000               0.000000000               0.000000000              -0.000014939               0.003580749              -0.000003467              -0.000453195               0.001344636               0.000891441               0.000000000               0.000000000               0.000000000               0.000000000               0.001222490               0.002893866               0.001586589               0.000096698               0.000932379               0.001029077               0.000000000               0.000000000               0.000000000               0.000000000               0.000708324               0.003179365               0.001256294              -0.000131800               0.001103711               0.000971910               0.000000000               0.000000000               0.000000000               0.000000000               0.000318919               0.003601093               0.000859412              -0.000330542               0.001310533               0.000979991               0.000000000               0.000000000               0.000000000               0.000000000               0.000230146               0.003694830               0.000623061              -0.000375548               0.001356780               0.000981232               0.000000000               0.000000000               0.000000000               0.000000000               0.000208589               0.003719434               0.000474723              -0.000386708               0.001368701               0.000981994               0.000000000               0.000000000               0.000000000               0.000000000               0.000202292               0.003731059               0.000380462              -0.000390522               0.001373848               0.000983326               0.000000000               0.000000000               0.000000000               0.000000000               0.000196117               0.003743510               0.000318088              -0.000394394               0.001379289               0.000984895               0.000000000               0.000000000               0.000000000               0.000000000               0.000179474               0.003743140               0.000270290              -0.000400589               0.001381230               0.000980642               0.000000000               0.000000000               0.000000000               0.000000000               0.000156196               0.003723436               0.000235992              -0.000406855               0.001376751               0.000969896               0.000000000               0.000000000               0.000000000               0.000000000               0.000129595               0.003697963               0.000208085              -0.000413646               0.001370524               0.000956878               0.000000000               0.000000000               0.000000000               0.000000000               0.000096596               0.003669161               0.000174926              -0.000422421               0.001363848               0.000941428               0.000000000               0.000000000               0.000000000               0.000000000               0.000060690               0.003639258               0.000136205              -0.000432148               0.001357123               0.000924975               0.000000000               0.000000000               0.000000000               0.000000000               0.000019220               0.003607477               0.000095105              -0.000443726               0.001350389               0.000906663               0.000000000               0.000000000               0.000000000               0.000000000              -0.000022464               0.003572684               0.000056927              -0.000455008               0.001342552               0.000887544               0.000000000               0.000000000               0.000000000               0.000000000              -0.000055353               0.003530555               0.000025999              -0.000462076               0.001330865               0.000868790               0.000000000               0.000000000               0.000000000               0.000000000              -0.000070367               0.003479740               0.000005603              -0.000461354               0.001313686               0.000852332               0.000000000               0.000000000               0.000000000               0.000000000              -0.000071620               0.003447064              -0.000003213              -0.000457739               0.001301589               0.000843850               0.000000000               0.000000000               0.000000000               0.000000000               0.001131983               0.002243468               0.001375865               0.000144057               0.000699796               0.000843853               0.000000000               0.000000000               0.000000000               0.000000000               0.000702134               0.002657896               0.001214767              -0.000068938               0.000908935               0.000839997               0.000000000               0.000000000               0.000000000               0.000000000               0.000331953               0.003211713               0.000963065              -0.000276982               0.001162887               0.000885906               0.000000000               0.000000000               0.000000000               0.000000000               0.000245460               0.003417277               0.000746430              -0.000335112               0.001250785               0.000915673               0.000000000               0.000000000               0.000000000               0.000000000               0.000229207               0.003517862               0.000592610              -0.000353779               0.001290535               0.000936756               0.000000000               0.000000000               0.000000000               0.000000000               0.000228857               0.003583523               0.000485415              -0.000362118               0.001315202               0.000953083               0.000000000               0.000000000               0.000000000               0.000000000               0.000226723               0.003627092               0.000406602              -0.000368365               0.001331807               0.000963442               0.000000000               0.000000000               0.000000000               0.000000000               0.000209117               0.003645266               0.000344841              -0.000377239               0.001340823               0.000963584               0.000000000               0.000000000               0.000000000               0.000000000               0.000179986               0.003639895               0.000296486              -0.000387491               0.001342450               0.000954959               0.000000000               0.000000000               0.000000000               0.000000000               0.000147352               0.003617587               0.000256095              -0.000396940               0.001338164               0.000941223               0.000000000               0.000000000               0.000000000               0.000000000               0.000111958               0.003587034               0.000216419              -0.000406394               0.001331131               0.000924737               0.000000000               0.000000000               0.000000000               0.000000000               0.000070985               0.003554241               0.000170563              -0.000417660               0.001323955               0.000906295               0.000000000               0.000000000               0.000000000               0.000000000               0.000020077               0.003518993               0.000121527              -0.000432344               0.001317101               0.000884756               0.000000000               0.000000000               0.000000000               0.000000000              -0.000036223               0.003484140               0.000077424              -0.000449100               0.001311068               0.000861968               0.000000000               0.000000000               0.000000000               0.000000000              -0.000091212               0.003447288               0.000041288              -0.000465114               0.001304123               0.000839008               0.000000000               0.000000000               0.000000000               0.000000000              -0.000138435               0.003405779               0.000015125              -0.000477634               0.001294460               0.000816826               0.000000000               0.000000000               0.000000000               0.000000000              -0.000162264               0.003378844               0.000002202              -0.000483203               0.001287338               0.000804134               0.000000000               0.000000000               0.000000000               0.000000000               0.000973278               0.001639114               0.001137152               0.000160088               0.000493003               0.000653090               0.000000000               0.000000000               0.000000000               0.000000000               0.000694080               0.002137644               0.001138827              -0.000006927               0.000714849               0.000707922               0.000000000               0.000000000               0.000000000               0.000000000               0.000391604               0.002782890               0.001040627              -0.000201010               0.000994624               0.000793614               0.000000000               0.000000000               0.000000000               0.000000000               0.000306086               0.003094811               0.000866493              -0.000272069               0.001122283               0.000850214               0.000000000               0.000000000               0.000000000               0.000000000               0.000286720               0.003273090               0.000717220              -0.000301616               0.001191557               0.000889942               0.000000000               0.000000000               0.000000000               0.000000000               0.000282522               0.003394801               0.000600722              -0.000318404               0.001237723               0.000919320               0.000000000               0.000000000               0.000000000               0.000000000               0.000274986               0.003475545               0.000506059              -0.000331323               0.001268944               0.000937621               0.000000000               0.000000000               0.000000000               0.000000000               0.000255313               0.003522827               0.000429206              -0.000344610               0.001289134               0.000944524               0.000000000               0.000000000               0.000000000               0.000000000               0.000225099               0.003545620               0.000369476              -0.000358790               0.001301458               0.000942668               0.000000000               0.000000000               0.000000000               0.000000000               0.000193036               0.003547956               0.000322303              -0.000371105               0.001306342               0.000935237               0.000000000               0.000000000               0.000000000               0.000000000               0.000158188               0.003530553               0.000277768              -0.000381998               0.001304172               0.000922174               0.000000000               0.000000000               0.000000000               0.000000000               0.000116564               0.003503731               0.000226071              -0.000394254               0.001299316               0.000905063               0.000000000               0.000000000               0.000000000               0.000000000               0.000067047               0.003472366               0.000171877              -0.000408902               0.001293744               0.000884842               0.000000000               0.000000000               0.000000000               0.000000000               0.000006364               0.003440974               0.000120552              -0.000427734               0.001289558               0.000861824               0.000000000               0.000000000               0.000000000               0.000000000              -0.000066958               0.003412919               0.000072329              -0.000451723               0.001288203               0.000836480               0.000000000               0.000000000               0.000000000               0.000000000              -0.000148289               0.003386871               0.000031503              -0.000478966               0.001288601               0.000809635               0.000000000               0.000000000               0.000000000               0.000000000              -0.000204209               0.003364058               0.000007291              -0.000497084               0.001287036               0.000789952               0.000000000               0.000000000               0.000000000               0.000000000               0.000747678               0.001119380               0.000880603               0.000140455               0.000326304               0.000466759               0.000000000               0.000000000               0.000000000               0.000000000               0.000654692               0.001649630               0.001012791               0.000039304               0.000536769               0.000576073               0.000000000               0.000000000               0.000000000               0.000000000               0.000470900               0.002322041               0.001050753              -0.000113669               0.000811895               0.000698226               0.000000000               0.000000000               0.000000000               0.000000000               0.000405049               0.002709913               0.000935086              -0.000186846               0.000965577               0.000778731               0.000000000               0.000000000               0.000000000               0.000000000               0.000380817               0.002960916               0.000804460              -0.000227308               0.001062731               0.000835423               0.000000000               0.000000000               0.000000000               0.000000000               0.000366606               0.003142072               0.000688317              -0.000255282               0.001132440               0.000877159               0.000000000               0.000000000               0.000000000               0.000000000               0.000346099               0.003268006               0.000585725              -0.000278713               0.001182229               0.000903516               0.000000000               0.000000000               0.000000000               0.000000000               0.000320879               0.003353890               0.000501250              -0.000298906               0.001217587               0.000918681               0.000000000               0.000000000               0.000000000               0.000000000               0.000290566               0.003413313               0.000436924              -0.000317701               0.001243660               0.000925959               0.000000000               0.000000000               0.000000000               0.000000000               0.000255818               0.003448267               0.000385261              -0.000335101               0.001261111               0.000926010               0.000000000               0.000000000               0.000000000               0.000000000               0.000217644               0.003457282               0.000333996              -0.000350543               0.001269264               0.000918720               0.000000000               0.000000000               0.000000000               0.000000000               0.000179411               0.003451792               0.000280238              -0.000364194               0.001271984               0.000907790               0.000000000               0.000000000               0.000000000               0.000000000               0.000137894               0.003435081               0.000225118              -0.000377674               0.001270907               0.000893233               0.000000000               0.000000000               0.000000000               0.000000000               0.000084358               0.003414605               0.000166297              -0.000395190               0.001269920               0.000874730               0.000000000               0.000000000               0.000000000               0.000000000               0.000011166               0.003392538               0.000104645              -0.000419879               0.001270794               0.000850915               0.000000000               0.000000000               0.000000000               0.000000000              -0.000079554               0.003375209               0.000049158              -0.000451733               0.001275636               0.000823903               0.000000000               0.000000000               0.000000000               0.000000000              -0.000150622               0.003354529               0.000015549              -0.000475798               0.001276764               0.000800966               0.000000000               0.000000000               0.000000000               0.000000000               0.000474482               0.000707318               0.000629773               0.000089514               0.000205932               0.000295446               0.000000000               0.000000000               0.000000000               0.000000000               0.000583520               0.001214767               0.000845501               0.000066972               0.000382594               0.000449566               0.000000000               0.000000000               0.000000000               0.000000000               0.000552141               0.001855996               0.000982104              -0.000024948               0.000626975               0.000602027               0.000000000               0.000000000               0.000000000               0.000000000               0.000523330               0.002286180               0.000924372              -0.000089525               0.000791893               0.000702369               0.000000000               0.000000000               0.000000000               0.000000000               0.000498040               0.002598783               0.000821744              -0.000138083               0.000912280               0.000774197               0.000000000               0.000000000               0.000000000               0.000000000               0.000470385               0.002835501               0.000717137              -0.000178043               0.001004505               0.000826462               0.000000000               0.000000000               0.000000000               0.000000000               0.000442469               0.003011219               0.000623037              -0.000210476               0.001073888               0.000863412               0.000000000               0.000000000               0.000000000               0.000000000               0.000415053               0.003143312               0.000543034              -0.000237269               0.001126850               0.000889581               0.000000000               0.000000000               0.000000000               0.000000000               0.000379351               0.003246181               0.000477211              -0.000263515               0.001169888               0.000906373               0.000000000               0.000000000               0.000000000               0.000000000               0.000335151               0.003319358               0.000424323              -0.000289238               0.001202854               0.000913617               0.000000000               0.000000000               0.000000000               0.000000000               0.000294213               0.003364309               0.000377137              -0.000310208               0.001224828               0.000914620               0.000000000               0.000000000               0.000000000               0.000000000               0.000259992               0.003388759               0.000327479              -0.000326097               0.001238274               0.000912177               0.000000000               0.000000000               0.000000000               0.000000000               0.000223185               0.003396199               0.000270335              -0.000340830               0.001245665               0.000904835               0.000000000               0.000000000               0.000000000               0.000000000               0.000176655               0.003392664               0.000203984              -0.000357836               0.001250155               0.000892319               0.000000000               0.000000000               0.000000000               0.000000000               0.000116974               0.003382727               0.000133358              -0.000378975               0.001253889               0.000874915               0.000000000               0.000000000               0.000000000               0.000000000               0.000040153               0.003372881               0.000065355              -0.000406552               0.001259800               0.000853248               0.000000000               0.000000000               0.000000000               0.000000000              -0.000024776               0.003355433               0.000025489              -0.000428719               0.001261373               0.000832654               0.000000000               0.000000000               0.000000000               0.000000000               0.000193679               0.000410903               0.000408967               0.000021266               0.000129877               0.000151143               0.000000000               0.000000000               0.000000000               0.000000000               0.000493315               0.000853808               0.000648755               0.000078266               0.000258511               0.000336777               0.000000000               0.000000000               0.000000000               0.000000000               0.000620711               0.001422908               0.000830915               0.000054901               0.000455997               0.000510899               0.000000000               0.000000000               0.000000000               0.000000000               0.000642164               0.001868807               0.000818727               0.000007209               0.000620526               0.000627736               0.000000000               0.000000000               0.000000000               0.000000000               0.000627947               0.002225294               0.000747020              -0.000042682               0.000755984               0.000713302               0.000000000               0.000000000               0.000000000               0.000000000               0.000596537               0.002509975               0.000665463              -0.000090046               0.000866665               0.000776619               0.000000000               0.000000000               0.000000000               0.000000000               0.000565427               0.002733071               0.000592615              -0.000129599               0.000954214               0.000824615               0.000000000               0.000000000               0.000000000               0.000000000               0.000532635               0.002910620               0.000523603              -0.000164089               0.001024893               0.000860804               0.000000000               0.000000000               0.000000000               0.000000000               0.000490144               0.003056900               0.000461764              -0.000198308               0.001085059               0.000886751               0.000000000               0.000000000               0.000000000               0.000000000               0.000441275               0.003167943               0.000416807              -0.000230514               0.001132809               0.000902294               0.000000000               0.000000000               0.000000000               0.000000000               0.000396635               0.003248670               0.000380979              -0.000257345               0.001168661               0.000911316               0.000000000               0.000000000               0.000000000               0.000000000               0.000356654               0.003303536               0.000338143              -0.000279196               0.001194233               0.000915037               0.000000000               0.000000000               0.000000000               0.000000000               0.000317592               0.003336274               0.000283543              -0.000297937               0.001211393               0.000913456               0.000000000               0.000000000               0.000000000               0.000000000               0.000281317               0.003356511               0.000219218              -0.000314069               0.001223516               0.000909446               0.000000000               0.000000000               0.000000000               0.000000000               0.000244536               0.003367447               0.000148094              -0.000329229               0.001232214               0.000902985               0.000000000               0.000000000               0.000000000               0.000000000               0.000199627               0.003368725               0.000074598              -0.000346230               0.001238307               0.000892077               0.000000000               0.000000000               0.000000000               0.000000000               0.000161952               0.003359796               0.000034205              -0.000359242               0.001239668               0.000880426               0.000000000               0.000000000               0.000000000               0.000000000              -0.000055311               0.000215940               0.000236830              -0.000047734               0.000087890               0.000040156               0.000000000               0.000000000               0.000000000               0.000000000               0.000405198               0.000584360               0.000437487               0.000078903               0.000168483               0.000247386               0.000000000               0.000000000               0.000000000               0.000000000               0.000673641               0.001073584               0.000602788               0.000118416               0.000318385               0.000436801               0.000000000               0.000000000               0.000000000               0.000000000               0.000746254               0.001514128               0.000615689               0.000090578               0.000474512               0.000565089               0.000000000               0.000000000               0.000000000               0.000000000               0.000748219               0.001890721               0.000573402               0.000044241               0.000615487               0.000659728               0.000000000               0.000000000               0.000000000               0.000000000               0.000725157               0.002209102               0.000521141              -0.000004204               0.000737761               0.000733557               0.000000000               0.000000000               0.000000000               0.000000000               0.000690582               0.002473261               0.000472101              -0.000050189               0.000841142               0.000790952               0.000000000               0.000000000               0.000000000               0.000000000               0.000649251               0.002690147               0.000419288              -0.000092799               0.000927640               0.000834841               0.000000000               0.000000000               0.000000000               0.000000000               0.000605180               0.002864717               0.000371032              -0.000131147               0.000998612               0.000867465               0.000000000               0.000000000               0.000000000               0.000000000               0.000558364               0.003004763               0.000339159              -0.000166209               0.001056980               0.000890772               0.000000000               0.000000000               0.000000000               0.000000000               0.000509992               0.003118259               0.000313972              -0.000198535               0.001105588               0.000907052               0.000000000               0.000000000               0.000000000               0.000000000               0.000463462               0.003202642               0.000280769              -0.000226531               0.001143047               0.000916516               0.000000000               0.000000000               0.000000000               0.000000000               0.000424933               0.003261616               0.000239059              -0.000248352               0.001169978               0.000921627               0.000000000               0.000000000               0.000000000               0.000000000               0.000398538               0.003304281               0.000189767              -0.000263583               0.001189277               0.000925694               0.000000000               0.000000000               0.000000000               0.000000000               0.000384657               0.003334163               0.000131879              -0.000272523               0.001202218               0.000929694               0.000000000               0.000000000               0.000000000               0.000000000               0.000379691               0.003351666               0.000068608              -0.000276573               0.001209402               0.000932829               0.000000000               0.000000000               0.000000000               0.000000000               0.000377403               0.003356162               0.000035091              -0.000277994               0.001211374               0.000933381               0.000000000               0.000000000               0.000000000               0.000000000              -0.000225537               0.000102279               0.000105682              -0.000097361               0.000066546              -0.000030815               0.000000000               0.000000000               0.000000000               0.000000000               0.000341212               0.000414311               0.000219855               0.000076165               0.000112714               0.000188879               0.000000000               0.000000000               0.000000000               0.000000000               0.000706775               0.000846140               0.000317527               0.000159271               0.000228953               0.000388225               0.000000000               0.000000000               0.000000000               0.000000000               0.000818621               0.001274194               0.000330786               0.000147707               0.000375491               0.000523199               0.000000000               0.000000000               0.000000000               0.000000000               0.000837220               0.001656021               0.000312082               0.000106954               0.000516350               0.000623304               0.000000000               0.000000000               0.000000000               0.000000000               0.000822310               0.001995768               0.000288235               0.000058894               0.000645618               0.000704512               0.000000000               0.000000000               0.000000000               0.000000000               0.000785317               0.002285666               0.000263453               0.000008785               0.000758953               0.000767738               0.000000000               0.000000000               0.000000000               0.000000000               0.000740211               0.002525758               0.000234664              -0.000038141               0.000854624               0.000816484               0.000000000               0.000000000               0.000000000               0.000000000               0.000697802               0.002718204               0.000209330              -0.000078100               0.000932092               0.000853993               0.000000000               0.000000000               0.000000000               0.000000000               0.000652845               0.002872837               0.000192376              -0.000114288               0.000995698               0.000881411               0.000000000               0.000000000               0.000000000               0.000000000               0.000602618               0.003004068               0.000177567              -0.000149526               0.001051188               0.000901662               0.000000000               0.000000000               0.000000000               0.000000000               0.000554039               0.003113227               0.000159181              -0.000181388               0.001098195               0.000916807               0.000000000               0.000000000               0.000000000               0.000000000               0.000516276               0.003199101               0.000136424              -0.000206284               0.001135118               0.000928834               0.000000000               0.000000000               0.000000000               0.000000000               0.000494770               0.003264233               0.000110096              -0.000222490               0.001162230               0.000939740               0.000000000               0.000000000               0.000000000               0.000000000               0.000494680               0.003311253               0.000079782              -0.000228401               0.001179874               0.000951473               0.000000000               0.000000000               0.000000000               0.000000000               0.000518036               0.003341236               0.000043101              -0.000223390               0.001188198               0.000964807               0.000000000               0.000000000               0.000000000               0.000000000               0.000545211               0.003355488               0.000022887              -0.000214981               0.001190145               0.000975164               0.000000000               0.000000000               0.000000000               0.000000000              -0.000284191               0.000067221               0.000000000              -0.000114974               0.000060731              -0.000054243               0.000000000               0.000000000               0.000000000               0.000000000               0.000318377               0.000359155               0.000000000               0.000074496               0.000094885               0.000169381               0.000000000               0.000000000               0.000000000               0.000000000               0.000717099               0.000768963               0.000000000               0.000172790               0.000198722               0.000371512               0.000000000               0.000000000               0.000000000               0.000000000               0.000842898               0.001187589               0.000000000               0.000167637               0.000339980               0.000507617               0.000000000               0.000000000               0.000000000               0.000000000               0.000871655               0.001570986               0.000000000               0.000130496               0.000480158               0.000610654               0.000000000               0.000000000               0.000000000               0.000000000               0.000859382               0.001919031               0.000000000               0.000082389               0.000612208               0.000694596               0.000000000               0.000000000               0.000000000               0.000000000               0.000821805               0.002217307               0.000000000               0.000031013               0.000728757               0.000759771               0.000000000               0.000000000               0.000000000               0.000000000               0.000778003               0.002466747              -0.000000000              -0.000016592               0.000827772               0.000811179               0.000000000               0.000000000               0.000000000               0.000000000               0.000736055               0.002665247              -0.000000000              -0.000057135               0.000907452               0.000850317               0.000000000               0.000000000               0.000000000               0.000000000               0.000689318               0.002820183               0.000000000              -0.000094028               0.000971394               0.000877366               0.000000000               0.000000000               0.000000000               0.000000000               0.000638739               0.002955161              -0.000000000              -0.000129868               0.001028333               0.000898465               0.000000000               0.000000000               0.000000000               0.000000000               0.000589678               0.003075047               0.000000000              -0.000163251               0.001079422               0.000916171               0.000000000               0.000000000               0.000000000               0.000000000               0.000550998               0.003176149               0.000000000              -0.000190394               0.001122170               0.000931776               0.000000000               0.000000000               0.000000000               0.000000000               0.000531074               0.003255122               0.000000000              -0.000207737               0.001154276               0.000946539               0.000000000               0.000000000               0.000000000               0.000000000               0.000534375               0.003309786               0.000000000              -0.000213332               0.001174362               0.000961030               0.000000000               0.000000000               0.000000000               0.000000000               0.000566115               0.003342973               0.000000000              -0.000205578               0.001182839               0.000977261               0.000000000               0.000000000               0.000000000               0.000000000               0.000605812               0.003360248              -0.000000000              -0.000192851               0.001184355               0.000991504               0.000000000               0.000000000               0.000000000               0.000000000               0.000684437               0.007887818               0.000000000              -0.000729311               0.002872350               0.002143039               0.000000000               0.000000000               0.000000000               0.000000000               0.000745351               0.006493308              -0.000000000              -0.000532156               0.002341799               0.001809644               0.000000000               0.000000000               0.000000000               0.000000000               0.001032801               0.005380697              -0.000000000              -0.000285286               0.001888643               0.001603357               0.000000000               0.000000000               0.000000000               0.000000000               0.001069513               0.004771193              -0.000000000              -0.000195331               0.001655492               0.001460161               0.000000000               0.000000000               0.000000000               0.000000000               0.001019422               0.004414700               0.000000000              -0.000169554               0.001528070               0.001358516               0.000000000               0.000000000               0.000000000               0.000000000               0.000938049               0.004197542               0.000000000              -0.000172924               0.001456808               0.001283884               0.000000000               0.000000000               0.000000000               0.000000000               0.000844821               0.004059006               0.000000000              -0.000190567               0.001416511               0.001225944               0.000000000               0.000000000               0.000000000               0.000000000               0.000747068               0.003962344              -0.000000000              -0.000215142               0.001392482               0.001177340               0.000000000               0.000000000               0.000000000               0.000000000               0.000650509               0.003897163              -0.000000000              -0.000243204               0.001380109               0.001136906               0.000000000               0.000000000               0.000000000               0.000000000               0.000553267               0.003853721               0.000000000              -0.000274240               0.001375974               0.001101735               0.000000000               0.000000000               0.000000000               0.000000000               0.000455576               0.003823184              -0.000000000              -0.000307056               0.001376734               0.001069678               0.000000000               0.000000000               0.000000000               0.000000000               0.000362758               0.003802384              -0.000000000              -0.000339263               0.001380536               0.001041273               0.000000000               0.000000000               0.000000000               0.000000000               0.000277023               0.003786718              -0.000000000              -0.000369455               0.001385378               0.001015923               0.000000000               0.000000000               0.000000000               0.000000000               0.000196784               0.003773481               0.000000000              -0.000397890               0.001390444               0.000992554               0.000000000               0.000000000               0.000000000               0.000000000               0.000122002               0.003757847               0.000000000              -0.000423979               0.001393930               0.000969951               0.000000000               0.000000000               0.000000000               0.000000000               0.000057251               0.003736446               0.000000000              -0.000445585               0.001393998               0.000948413               0.000000000               0.000000000               0.000000000               0.000000000               0.000026538               0.003718885               0.000000000              -0.000454908               0.001391252               0.000936344               0.000000000               0.000000000               0.000000000               0.000000000               0.000720603               0.007749254              -0.000579583              -0.000698429               0.002815868               0.002117439               0.000000000               0.000000000               0.000000000               0.000000000               0.000751440               0.006399089              -0.000359698              -0.000518095               0.002305707               0.001787612               0.000000000               0.000000000               0.000000000               0.000000000               0.001006175               0.005331932              -0.000134854              -0.000289175               0.001873684               0.001584509               0.000000000               0.000000000               0.000000000               0.000000000               0.001029903               0.004748096              -0.000032792              -0.000207298               0.001651782               0.001444484               0.000000000               0.000000000               0.000000000               0.000000000               0.000975215               0.004404617               0.000015377              -0.000184871               0.001529815               0.001344944               0.000000000               0.000000000               0.000000000               0.000000000               0.000893905               0.004191913               0.000037951              -0.000188774               0.001460215               0.001271441               0.000000000               0.000000000               0.000000000               0.000000000               0.000803383               0.004053188               0.000046219              -0.000205379               0.001419509               0.001214130               0.000000000               0.000000000               0.000000000               0.000000000               0.000708331               0.003957779               0.000048655              -0.000229098               0.001395613               0.001166515               0.000000000               0.000000000               0.000000000               0.000000000               0.000613920               0.003892077               0.000050392              -0.000256289               0.001382776               0.001126487               0.000000000               0.000000000               0.000000000               0.000000000               0.000520600               0.003848507               0.000050339              -0.000285838               0.001378102               0.001092264               0.000000000               0.000000000               0.000000000               0.000000000               0.000427052               0.003818987               0.000048730              -0.000317228               0.001378726               0.001061498               0.000000000               0.000000000               0.000000000               0.000000000               0.000338077               0.003798189               0.000045762              -0.000347994               0.001382048               0.001034054               0.000000000               0.000000000               0.000000000               0.000000000               0.000257403               0.003783292               0.000042210              -0.000376385               0.001386546               0.001010162               0.000000000               0.000000000               0.000000000               0.000000000               0.000182269               0.003770612               0.000038009              -0.000402975               0.001391183               0.000988208               0.000000000               0.000000000               0.000000000               0.000000000               0.000113364               0.003758474               0.000031118              -0.000427297               0.001395244               0.000967948               0.000000000               0.000000000               0.000000000               0.000000000               0.000054242               0.003743918               0.000019078              -0.000447648               0.001397176               0.000949528               0.000000000               0.000000000               0.000000000               0.000000000               0.000027188               0.003734187               0.000011203              -0.000456577               0.001396909               0.000940332               0.000000000               0.000000000               0.000000000               0.000000000               0.000825193               0.007351373              -0.001100852              -0.000609473               0.002653591               0.002044118               0.000000000               0.000000000               0.000000000               0.000000000               0.000771796               0.006127460              -0.000685905              -0.000476508               0.002201302               0.001724794               0.000000000               0.000000000               0.000000000               0.000000000               0.000935852               0.005192895              -0.000263010              -0.000298167               0.001830337               0.001532170               0.000000000               0.000000000               0.000000000               0.000000000               0.000922508               0.004678787              -0.000075219              -0.000238907               0.001639216               0.001400309               0.000000000               0.000000000               0.000000000               0.000000000               0.000854232               0.004369013               0.000012115              -0.000225789               0.001531586               0.001305797               0.000000000               0.000000000               0.000000000               0.000000000               0.000772867               0.004170485               0.000052847              -0.000231485               0.001467309               0.001235825               0.000000000               0.000000000               0.000000000               0.000000000               0.000691225               0.004039839               0.000068403              -0.000245770               0.001428523               0.001182753               0.000000000               0.000000000               0.000000000               0.000000000               0.000606349               0.003949927               0.000072513              -0.000266359               0.001405416               0.001139056               0.000000000               0.000000000               0.000000000               0.000000000               0.000521517               0.003886389               0.000075026              -0.000290229               0.001392193               0.001101964               0.000000000               0.000000000               0.000000000               0.000000000               0.000440002               0.003844057               0.000076562              -0.000315506               0.001386508               0.001071003               0.000000000               0.000000000               0.000000000               0.000000000               0.000359350               0.003816311               0.000074682              -0.000342282               0.001386185               0.001043903               0.000000000               0.000000000               0.000000000               0.000000000               0.000283210               0.003797475               0.000070022              -0.000368480               0.001388639               0.001020159               0.000000000               0.000000000               0.000000000               0.000000000               0.000215226               0.003785707               0.000063893              -0.000392503               0.001392724               0.001000221               0.000000000               0.000000000               0.000000000               0.000000000               0.000153461               0.003778437               0.000057188              -0.000414756               0.001397718               0.000982963               0.000000000               0.000000000               0.000000000               0.000000000               0.000097421               0.003776479               0.000046606              -0.000435526               0.001403989               0.000968463               0.000000000               0.000000000               0.000000000               0.000000000               0.000047486               0.003780132               0.000028174              -0.000454708               0.001411601               0.000956893               0.000000000               0.000000000               0.000000000               0.000000000               0.000027213               0.003789615               0.000015387              -0.000463496               0.001417691               0.000954195               0.000000000               0.000000000               0.000000000               0.000000000               0.000972936               0.006743061              -0.001506856              -0.000478031               0.002407008               0.001928977               0.000000000               0.000000000               0.000000000               0.000000000               0.000796530               0.005712847              -0.000946491              -0.000415407               0.002042732               0.001627325               0.000000000               0.000000000               0.000000000               0.000000000               0.000829659               0.004980515              -0.000380917              -0.000311442               0.001763969               0.001452527               0.000000000               0.000000000               0.000000000               0.000000000               0.000770535               0.004565712              -0.000137301              -0.000281763               0.001615810               0.001334047               0.000000000               0.000000000               0.000000000               0.000000000               0.000692941               0.004305083              -0.000026513              -0.000278282               0.001527774               0.001249492               0.000000000               0.000000000               0.000000000               0.000000000               0.000614955               0.004132471               0.000026027              -0.000285950               0.001472793               0.001186843               0.000000000               0.000000000               0.000000000               0.000000000               0.000543853               0.004017285               0.000048665              -0.000298215               0.001438487               0.001140272               0.000000000               0.000000000               0.000000000               0.000000000               0.000475521               0.003938931               0.000055613              -0.000314045               0.001417646               0.001103600               0.000000000               0.000000000               0.000000000               0.000000000               0.000407648               0.003883447               0.000060378              -0.000332562               0.001405323               0.001072761               0.000000000               0.000000000               0.000000000               0.000000000               0.000344821               0.003846696               0.000065175              -0.000351528               0.001399395               0.001047867               0.000000000               0.000000000               0.000000000               0.000000000               0.000284308               0.003823665               0.000065759              -0.000371342               0.001398323               0.001026981               0.000000000               0.000000000               0.000000000               0.000000000               0.000226481               0.003810927               0.000061586              -0.000391435               0.001400775               0.001009340               0.000000000               0.000000000               0.000000000               0.000000000               0.000175093               0.003806153               0.000054916              -0.000410108               0.001405408               0.000995300               0.000000000               0.000000000               0.000000000               0.000000000               0.000128493               0.003809477               0.000047134              -0.000427999               0.001412479               0.000984481               0.000000000               0.000000000               0.000000000               0.000000000               0.000084235               0.003821172               0.000036339              -0.000446057               0.001422397               0.000976340               0.000000000               0.000000000               0.000000000               0.000000000               0.000041578               0.003847113               0.000020498              -0.000465296               0.001437457               0.000972161               0.000000000               0.000000000               0.000000000               0.000000000               0.000027941               0.003878571               0.000007431              -0.000474342               0.001450958               0.000976616               0.000000000               0.000000000               0.000000000               0.000000000               0.001117796               0.005992835              -0.001768261              -0.000329932               0.002107569               0.001777637               0.000000000               0.000000000               0.000000000               0.000000000               0.000807855               0.005209153              -0.001128525              -0.000348198               0.001852433               0.001504234               0.000000000               0.000000000               0.000000000               0.000000000               0.000701068               0.004722108              -0.000488165              -0.000327362               0.001683141               0.001355779               0.000000000               0.000000000               0.000000000               0.000000000               0.000601960               0.004417019              -0.000220414              -0.000326391               0.001581122               0.001254731               0.000000000               0.000000000               0.000000000               0.000000000               0.000521829               0.004213465              -0.000099008              -0.000330996               0.001514806               0.001183810               0.000000000               0.000000000               0.000000000               0.000000000               0.000458687               0.004078579              -0.000039551              -0.000337814               0.001472117               0.001134304               0.000000000               0.000000000               0.000000000               0.000000000               0.000405094               0.003983937              -0.000007888              -0.000346081               0.001443326               0.001097245               0.000000000               0.000000000               0.000000000               0.000000000               0.000354212               0.003921509               0.000006469              -0.000357358               0.001426276               0.001068918               0.000000000               0.000000000               0.000000000               0.000000000               0.000305341               0.003879297               0.000014368              -0.000370408               0.001416556               0.001046147               0.000000000               0.000000000               0.000000000               0.000000000               0.000262212               0.003850881               0.000022373              -0.000383029               0.001411291               0.001028261               0.000000000               0.000000000               0.000000000               0.000000000               0.000223677               0.003834669               0.000025841              -0.000395454               0.001410028               0.001014574               0.000000000               0.000000000               0.000000000               0.000000000               0.000186065               0.003827321               0.000022653              -0.000408640               0.001411974               0.001003334               0.000000000               0.000000000               0.000000000               0.000000000               0.000149052               0.003828695               0.000015787              -0.000422692               0.001417116               0.000994425               0.000000000               0.000000000               0.000000000               0.000000000               0.000112444               0.003839090               0.000007664              -0.000437719               0.001425590               0.000987871               0.000000000               0.000000000               0.000000000               0.000000000               0.000075478               0.003858667               0.000000213              -0.000454028               0.001437552               0.000983524               0.000000000               0.000000000               0.000000000               0.000000000               0.000038098               0.003891494              -0.000002671              -0.000472149               0.001454535               0.000982386               0.000000000               0.000000000               0.000000000               0.000000000               0.000027452               0.003925717              -0.000007163              -0.000480419               0.001468699               0.000988280               0.000000000               0.000000000               0.000000000               0.000000000               0.001224726               0.005174158              -0.001886644              -0.000187499               0.001787201               0.001599702               0.000000000               0.000000000               0.000000000               0.000000000               0.000800581               0.004669346              -0.001237876              -0.000283451               0.001650916               0.001367466               0.000000000               0.000000000               0.000000000               0.000000000               0.000568181               0.004440269              -0.000589149              -0.000341965               0.001594063               0.001252098               0.000000000               0.000000000               0.000000000               0.000000000               0.000447187               0.004245921              -0.000320875              -0.000363044               0.001536307               0.001173263               0.000000000               0.000000000               0.000000000               0.000000000               0.000375927               0.004102808              -0.000191200              -0.000371878               0.001491548               0.001119671               0.000000000               0.000000000               0.000000000               0.000000000               0.000331363               0.004004409              -0.000123058              -0.000376289               0.001460219               0.001083930               0.000000000               0.000000000               0.000000000               0.000000000               0.000297905               0.003933905              -0.000083157              -0.000380023               0.001437963               0.001057940               0.000000000               0.000000000               0.000000000               0.000000000               0.000264522               0.003889673              -0.000061074              -0.000387012               0.001425549               0.001038536               0.000000000               0.000000000               0.000000000               0.000000000               0.000231852               0.003863114              -0.000052661              -0.000395944               0.001419673               0.001023729               0.000000000               0.000000000               0.000000000               0.000000000               0.000204328               0.003842838              -0.000044571              -0.000403731               0.001415510               0.001011779               0.000000000               0.000000000               0.000000000               0.000000000               0.000180881               0.003829399              -0.000039011              -0.000410844               0.001413401               0.001002558               0.000000000               0.000000000               0.000000000               0.000000000               0.000155932               0.003821677              -0.000039133              -0.000419234               0.001413624               0.000994390               0.000000000               0.000000000               0.000000000               0.000000000               0.000127181               0.003822527              -0.000041685              -0.000430122               0.001417537               0.000987415               0.000000000               0.000000000               0.000000000               0.000000000               0.000094455               0.003829294              -0.000043838              -0.000443240               0.001424165               0.000980925               0.000000000               0.000000000               0.000000000               0.000000000               0.000060216               0.003840582              -0.000040037              -0.000457490               0.001432678               0.000975187               0.000000000               0.000000000               0.000000000               0.000000000               0.000029777               0.003855111              -0.000025782              -0.000470721               0.001441931               0.000971210               0.000000000               0.000000000               0.000000000               0.000000000               0.000017878               0.003864376              -0.000016958              -0.000476341               0.001446893               0.000970552               0.000000000               0.000000000               0.000000000               0.000000000               0.001273667               0.004350711              -0.001879171              -0.000066216               0.001472294               0.001406078               0.000000000               0.000000000               0.000000000               0.000000000               0.000775601               0.004133733              -0.001286966              -0.000225867               0.001453186               0.001227319               0.000000000               0.000000000               0.000000000               0.000000000               0.000451310               0.004151861              -0.000684405              -0.000349741               0.001500520               0.001150779               0.000000000               0.000000000               0.000000000               0.000000000               0.000331259               0.004063692              -0.000426172              -0.000383738               0.001482463               0.001098725               0.000000000               0.000000000               0.000000000               0.000000000               0.000276576               0.003977874              -0.000289430              -0.000393517               0.001457117               0.001063600               0.000000000               0.000000000               0.000000000               0.000000000               0.000246871               0.003911588              -0.000212747              -0.000396371               0.001435973               0.001039602               0.000000000               0.000000000               0.000000000               0.000000000               0.000227737               0.003866186              -0.000166410              -0.000397871               0.001421339               0.001023469               0.000000000               0.000000000               0.000000000               0.000000000               0.000207719               0.003841247              -0.000136827              -0.000402260               0.001414489               0.001012229               0.000000000               0.000000000               0.000000000               0.000000000               0.000187190               0.003826164              -0.000125562              -0.000408073               0.001411400               0.001003327               0.000000000               0.000000000               0.000000000               0.000000000               0.000167513               0.003809664              -0.000116381              -0.000413389               0.001407672               0.000994282               0.000000000               0.000000000               0.000000000               0.000000000               0.000147442               0.003793600              -0.000104860              -0.000418908               0.001404157               0.000985249               0.000000000               0.000000000               0.000000000               0.000000000               0.000123528               0.003781010              -0.000094742              -0.000426302               0.001402425               0.000976123               0.000000000               0.000000000               0.000000000               0.000000000               0.000094117               0.003771903              -0.000082966              -0.000436193               0.001402686               0.000966493               0.000000000               0.000000000               0.000000000               0.000000000               0.000062115               0.003766096              -0.000069607              -0.000447468               0.001404509               0.000957041               0.000000000               0.000000000               0.000000000               0.000000000               0.000032300               0.003761449              -0.000049885              -0.000458067               0.001406493               0.000948426               0.000000000               0.000000000               0.000000000               0.000000000               0.000012376               0.003751034              -0.000025193              -0.000464237               0.001405078               0.000940841               0.000000000               0.000000000               0.000000000               0.000000000               0.000001204               0.003735936              -0.000010327              -0.000466539               0.001400813               0.000934273               0.000000000               0.000000000               0.000000000               0.000000000               0.001266096               0.003570950              -0.001766778               0.000028414               0.001180833               0.001209247               0.000000000               0.000000000               0.000000000               0.000000000               0.000736153               0.003630550              -0.001285506              -0.000177762               0.001269425               0.001091663               0.000000000               0.000000000               0.000000000               0.000000000               0.000361871               0.003867741              -0.000770087              -0.000347765               0.001405156               0.001057390               0.000000000               0.000000000               0.000000000               0.000000000               0.000257955               0.003872470              -0.000523503              -0.000387325               0.001419918               0.001032594               0.000000000               0.000000000               0.000000000               0.000000000               0.000224016               0.003840417              -0.000381175              -0.000396045               0.001412141               0.001016096               0.000000000               0.000000000               0.000000000               0.000000000               0.000206618               0.003810781              -0.000297284              -0.000398865               0.001403203               0.001004338               0.000000000               0.000000000               0.000000000               0.000000000               0.000195666               0.003795959              -0.000244681              -0.000401119               0.001399013               0.000997894               0.000000000               0.000000000               0.000000000               0.000000000               0.000180881               0.003786452              -0.000205819              -0.000405475               0.001397297               0.000991821               0.000000000               0.000000000               0.000000000               0.000000000               0.000161732               0.003771470              -0.000185153              -0.000410783               0.001394072               0.000983288               0.000000000               0.000000000               0.000000000               0.000000000               0.000138114               0.003751793              -0.000168866              -0.000417180               0.001389645               0.000972465               0.000000000               0.000000000               0.000000000               0.000000000               0.000110643               0.003729190              -0.000145735              -0.000424656               0.001384603               0.000959947               0.000000000               0.000000000               0.000000000               0.000000000               0.000081539               0.003706487              -0.000119571              -0.000432733               0.001379728               0.000946995               0.000000000               0.000000000               0.000000000               0.000000000               0.000048914               0.003683942              -0.000090380              -0.000442149               0.001375351               0.000933202               0.000000000               0.000000000               0.000000000               0.000000000               0.000016233               0.003661573              -0.000059908              -0.000451608               0.001371048               0.000919440               0.000000000               0.000000000               0.000000000               0.000000000              -0.000008058               0.003637804              -0.000031315              -0.000457746               0.001365171               0.000907425               0.000000000               0.000000000               0.000000000               0.000000000              -0.000013879               0.003607021              -0.000008632              -0.000456081               0.001354355               0.000898274               0.000000000               0.000000000               0.000000000               0.000000000              -0.000014939               0.003580749               0.000003467              -0.000453195               0.001344636               0.000891441               0.000000000               0.000000000               0.000000000               0.000000000               0.001222490               0.002893866              -0.001586589               0.000096698               0.000932379               0.001029077               0.000000000               0.000000000               0.000000000               0.000000000               0.000708324               0.003179365              -0.001256294              -0.000131800               0.001103711               0.000971910               0.000000000               0.000000000               0.000000000               0.000000000               0.000318919               0.003601093              -0.000859412              -0.000330542               0.001310533               0.000979991               0.000000000               0.000000000               0.000000000               0.000000000               0.000230146               0.003694830              -0.000623061              -0.000375548               0.001356780               0.000981232               0.000000000               0.000000000               0.000000000               0.000000000               0.000208589               0.003719434              -0.000474723              -0.000386708               0.001368701               0.000981994               0.000000000               0.000000000               0.000000000               0.000000000               0.000202292               0.003731059              -0.000380462              -0.000390522               0.001373848               0.000983326               0.000000000               0.000000000               0.000000000               0.000000000               0.000196117               0.003743510              -0.000318088              -0.000394394               0.001379289               0.000984895               0.000000000               0.000000000               0.000000000               0.000000000               0.000179474               0.003743140              -0.000270290              -0.000400589               0.001381230               0.000980642               0.000000000               0.000000000               0.000000000               0.000000000               0.000156196               0.003723436              -0.000235992              -0.000406855               0.001376751               0.000969896               0.000000000               0.000000000               0.000000000               0.000000000               0.000129595               0.003697963              -0.000208085              -0.000413646               0.001370524               0.000956878               0.000000000               0.000000000               0.000000000               0.000000000               0.000096596               0.003669161              -0.000174926              -0.000422421               0.001363848               0.000941428               0.000000000               0.000000000               0.000000000               0.000000000               0.000060690               0.003639258              -0.000136205              -0.000432148               0.001357123               0.000924975               0.000000000               0.000000000               0.000000000               0.000000000               0.000019220               0.003607477              -0.000095105              -0.000443726               0.001350389               0.000906663               0.000000000               0.000000000               0.000000000               0.000000000              -0.000022464               0.003572684              -0.000056927              -0.000455008               0.001342552               0.000887544               0.000000000               0.000000000               0.000000000               0.000000000              -0.000055353               0.003530555              -0.000025999              -0.000462076               0.001330865               0.000868790               0.000000000               0.000000000               0.000000000               0.000000000              -0.000070367               0.003479740              -0.000005603              -0.000461354               0.001313686               0.000852332               0.000000000               0.000000000               0.000000000               0.000000000              -0.000071620               0.003447064               0.000003213              -0.000457739               0.001301589               0.000843850               0.000000000               0.000000000               0.000000000               0.000000000               0.001131983               0.002243468              -0.001375865               0.000144057               0.000699796               0.000843853               0.000000000               0.000000000               0.000000000               0.000000000               0.000702134               0.002657896              -0.001214767              -0.000068938               0.000908935               0.000839997               0.000000000               0.000000000               0.000000000               0.000000000               0.000331953               0.003211713              -0.000963065              -0.000276982               0.001162887               0.000885906               0.000000000               0.000000000               0.000000000               0.000000000               0.000245460               0.003417277              -0.000746430              -0.000335112               0.001250785               0.000915673               0.000000000               0.000000000               0.000000000               0.000000000               0.000229207               0.003517862              -0.000592610              -0.000353779               0.001290535               0.000936756               0.000000000               0.000000000               0.000000000               0.000000000               0.000228857               0.003583523              -0.000485415              -0.000362118               0.001315202               0.000953083               0.000000000               0.000000000               0.000000000               0.000000000               0.000226723               0.003627092              -0.000406602              -0.000368365               0.001331807               0.000963442               0.000000000               0.000000000               0.000000000               0.000000000               0.000209117               0.003645266              -0.000344841              -0.000377239               0.001340823               0.000963584               0.000000000               0.000000000               0.000000000               0.000000000               0.000179986               0.003639895              -0.000296486              -0.000387491               0.001342450               0.000954959               0.000000000               0.000000000               0.000000000               0.000000000               0.000147352               0.003617587              -0.000256095              -0.000396940               0.001338164               0.000941223               0.000000000               0.000000000               0.000000000               0.000000000               0.000111958               0.003587034              -0.000216419              -0.000406394               0.001331131               0.000924737               0.000000000               0.000000000               0.000000000               0.000000000               0.000070985               0.003554241              -0.000170563              -0.000417660               0.001323955               0.000906295               0.000000000               0.000000000               0.000000000               0.000000000               0.000020077               0.003518993              -0.000121527              -0.000432344               0.001317101               0.000884756               0.000000000               0.000000000               0.000000000               0.000000000              -0.000036223               0.003484140              -0.000077424              -0.000449100               0.001311068               0.000861968               0.000000000               0.000000000               0.000000000               0.000000000              -0.000091212               0.003447288              -0.000041288              -0.000465114               0.001304123               0.000839008               0.000000000               0.000000000               0.000000000               0.000000000              -0.000138435               0.003405779              -0.000015125              -0.000477634               0.001294460               0.000816826               0.000000000               0.000000000               0.000000000               0.000000000              -0.000162264               0.003378844              -0.000002202              -0.000483203               0.001287338               0.000804134               0.000000000               0.000000000               0.000000000               0.000000000               0.000973278               0.001639114              -0.001137152               0.000160088               0.000493003               0.000653090               0.000000000               0.000000000               0.000000000               0.000000000               0.000694080               0.002137644              -0.001138827              -0.000006927               0.000714849               0.000707922               0.000000000               0.000000000               0.000000000               0.000000000               0.000391604               0.002782890              -0.001040627              -0.000201010               0.000994624               0.000793614               0.000000000               0.000000000               0.000000000               0.000000000               0.000306086               0.003094811              -0.000866493              -0.000272069               0.001122283               0.000850214               0.000000000               0.000000000               0.000000000               0.000000000               0.000286720               0.003273090              -0.000717220              -0.000301616               0.001191557               0.000889942               0.000000000               0.000000000               0.000000000               0.000000000               0.000282522               0.003394801              -0.000600722              -0.000318404               0.001237723               0.000919320               0.000000000               0.000000000               0.000000000               0.000000000               0.000274986               0.003475545              -0.000506059              -0.000331323               0.001268944               0.000937621               0.000000000               0.000000000               0.000000000               0.000000000               0.000255313               0.003522827              -0.000429206              -0.000344610               0.001289134               0.000944524               0.000000000               0.000000000               0.000000000               0.000000000               0.000225099               0.003545620              -0.000369476              -0.000358790               0.001301458               0.000942668               0.000000000               0.000000000               0.000000000               0.000000000               0.000193036               0.003547956              -0.000322303              -0.000371105               0.001306342               0.000935237               0.000000000               0.000000000               0.000000000               0.000000000               0.000158188               0.003530553              -0.000277768              -0.000381998               0.001304172               0.000922174               0.000000000               0.000000000               0.000000000               0.000000000               0.000116564               0.003503731              -0.000226071              -0.000394254               0.001299316               0.000905063               0.000000000               0.000000000               0.000000000               0.000000000               0.000067047               0.003472366              -0.000171877              -0.000408902               0.001293744               0.000884842               0.000000000               0.000000000               0.000000000               0.000000000               0.000006364               0.003440974              -0.000120552              -0.000427734               0.001289558               0.000861824               0.000000000               0.000000000               0.000000000               0.000000000              -0.000066958               0.003412919              -0.000072329              -0.000451723               0.001288203               0.000836480               0.000000000               0.000000000               0.000000000               0.000000000              -0.000148289               0.003386871              -0.000031503              -0.000478966               0.001288601               0.000809635               0.000000000               0.000000000               0.000000000               0.000000000              -0.000204209               0.003364058              -0.000007291              -0.000497084               0.001287036               0.000789952               0.000000000               0.000000000               0.000000000               0.000000000               0.000747678               0.001119380              -0.000880603               0.000140455               0.000326304               0.000466759               0.000000000               0.000000000               0.000000000               0.000000000               0.000654692               0.001649630              -0.001012791               0.000039304               0.000536769               0.000576073               0.000000000               0.000000000               0.000000000               0.000000000               0.000470900               0.002322041              -0.001050753              -0.000113669               0.000811895               0.000698226               0.000000000               0.000000000               0.000000000               0.000000000               0.000405049               0.002709913              -0.000935086              -0.000186846               0.000965577               0.000778731               0.000000000               0.000000000               0.000000000               0.000000000               0.000380817               0.002960916              -0.000804460              -0.000227308               0.001062731               0.000835423               0.000000000               0.000000000               0.000000000               0.000000000               0.000366606               0.003142072              -0.000688317              -0.000255282               0.001132440               0.000877159               0.000000000               0.000000000               0.000000000               0.000000000               0.000346099               0.003268006              -0.000585725              -0.000278713               0.001182229               0.000903516               0.000000000               0.000000000               0.000000000               0.000000000               0.000320879               0.003353890              -0.000501250              -0.000298906               0.001217587               0.000918681               0.000000000               0.000000000               0.000000000               0.000000000               0.000290566               0.003413313              -0.000436924              -0.000317701               0.001243660               0.000925959               0.000000000               0.000000000               0.000000000               0.000000000               0.000255818               0.003448267              -0.000385261              -0.000335101               0.001261111               0.000926010               0.000000000               0.000000000               0.000000000               0.000000000               0.000217644               0.003457282              -0.000333996              -0.000350543               0.001269264               0.000918720               0.000000000               0.000000000               0.000000000               0.000000000               0.000179411               0.003451792              -0.000280238              -0.000364194               0.001271984               0.000907790               0.000000000               0.000000000               0.000000000               0.000000000               0.000137894               0.003435081              -0.000225118              -0.000377674               0.001270907               0.000893233               0.000000000               0.000000000               0.000000000               0.000000000               0.000084358               0.003414605              -0.000166297              -0.000395190               0.001269920               0.000874730               0.000000000               0.000000000               0.000000000               0.000000000               0.000011166               0.003392538              -0.000104645              -0.000419879               0.001270794               0.000850915               0.000000000               0.000000000               0.000000000               0.000000000              -0.000079554               0.003375209              -0.000049158              -0.000451733               0.001275636               0.000823903               0.000000000               0.000000000               0.000000000               0.000000000              -0.000150622               0.003354529              -0.000015549              -0.000475798               0.001276764               0.000800966               0.000000000               0.000000000               0.000000000               0.000000000               0.000474482               0.000707318              -0.000629773               0.000089514               0.000205932               0.000295446               0.000000000               0.000000000               0.000000000               0.000000000               0.000583520               0.001214767              -0.000845501               0.000066972               0.000382594               0.000449566               0.000000000               0.000000000               0.000000000               0.000000000               0.000552141               0.001855996              -0.000982104              -0.000024948               0.000626975               0.000602027               0.000000000               0.000000000               0.000000000               0.000000000               0.000523330               0.002286180              -0.000924372              -0.000089525               0.000791893               0.000702369               0.000000000               0.000000000               0.000000000               0.000000000               0.000498040               0.002598783              -0.000821744              -0.000138083               0.000912280               0.000774197               0.000000000               0.000000000               0.000000000               0.000000000               0.000470385               0.002835501              -0.000717137              -0.000178043               0.001004505               0.000826462               0.000000000               0.000000000               0.000000000               0.000000000               0.000442469               0.003011219              -0.000623037              -0.000210476               0.001073888               0.000863412               0.000000000               0.000000000               0.000000000               0.000000000               0.000415053               0.003143312              -0.000543034              -0.000237269               0.001126850               0.000889581               0.000000000               0.000000000               0.000000000               0.000000000               0.000379351               0.003246181              -0.000477211              -0.000263515               0.001169888               0.000906373               0.000000000               0.000000000               0.000000000               0.000000000               0.000335151               0.003319358              -0.000424323              -0.000289238               0.001202854               0.000913617               0.000000000               0.000000000               0.000000000               0.000000000               0.000294213               0.003364309              -0.000377137              -0.000310208               0.001224828               0.000914620               0.000000000               0.000000000               0.000000000               0.000000000               0.000259992               0.003388759              -0.000327479              -0.000326097               0.001238274               0.000912177               0.000000000               0.000000000               0.000000000               0.000000000               0.000223185               0.003396199              -0.000270335              -0.000340830               0.001245665               0.000904835               0.000000000               0.000000000               0.000000000               0.000000000               0.000176655               0.003392664              -0.000203984              -0.000357836               0.001250155               0.000892319               0.000000000               0.000000000               0.000000000               0.000000000               0.000116974               0.003382727              -0.000133358              -0.000378975               0.001253889               0.000874915               0.000000000               0.000000000               0.000000000               0.000000000               0.000040153               0.003372881              -0.000065355              -0.000406552               0.001259800               0.000853248               0.000000000               0.000000000               0.000000000               0.000000000              -0.000024776               0.003355433              -0.000025489              -0.000428719               0.001261373               0.000832654               0.000000000               0.000000000               0.000000000               0.000000000               0.000193679               0.000410903              -0.000408967               0.000021266               0.000129877               0.000151143               0.000000000               0.000000000               0.000000000               0.000000000               0.000493315               0.000853808              -0.000648755               0.000078266               0.000258511               0.000336777               0.000000000               0.000000000               0.000000000               0.000000000               0.000620711               0.001422908              -0.000830915               0.000054901               0.000455997               0.000510899               0.000000000               0.000000000               0.000000000               0.000000000               0.000642164               0.001868807              -0.000818727               0.000007209               0.000620526               0.000627736               0.000000000               0.000000000               0.000000000               0.000000000               0.000627947               0.002225294              -0.000747020              -0.000042682               0.000755984               0.000713302               0.000000000               0.000000000               0.000000000               0.000000000               0.000596537               0.002509975              -0.000665463              -0.000090046               0.000866665               0.000776619               0.000000000               0.000000000               0.000000000               0.000000000               0.000565427               0.002733071              -0.000592615              -0.000129599               0.000954214               0.000824615               0.000000000               0.000000000               0.000000000               0.000000000               0.000532635               0.002910620              -0.000523603              -0.000164089               0.001024893               0.000860804               0.000000000               0.000000000               0.000000000               0.000000000               0.000490144               0.003056900              -0.000461764              -0.000198308               0.001085059               0.000886751               0.000000000               0.000000000               0.000000000               0.000000000               0.000441275               0.003167943              -0.000416807              -0.000230514               0.001132809               0.000902294               0.000000000               0.000000000               0.000000000               0.000000000               0.000396635               0.003248670              -0.000380979              -0.000257345               0.001168661               0.000911316               0.000000000               0.000000000               0.000000000               0.000000000               0.000356654               0.003303536              -0.000338143              -0.000279196               0.001194233               0.000915037               0.000000000               0.000000000               0.000000000               0.000000000               0.000317592               0.003336274              -0.000283543              -0.000297937               0.001211393               0.000913456               0.000000000               0.000000000               0.000000000               0.000000000               0.000281317               0.003356511              -0.000219218              -0.000314069               0.001223516               0.000909446               0.000000000               0.000000000               0.000000000               0.000000000               0.000244536               0.003367447              -0.000148094              -0.000329229               0.001232214               0.000902985               0.000000000               0.000000000               0.000000000               0.000000000               0.000199627               0.003368725              -0.000074598              -0.000346230               0.001238307               0.000892077               0.000000000               0.000000000               0.000000000               0.000000000               0.000161952               0.003359796              -0.000034205              -0.000359242               0.001239668               0.000880426               0.000000000               0.000000000               0.000000000               0.000000000              -0.000055311               0.000215940              -0.000236830              -0.000047734               0.000087890               0.000040156               0.000000000               0.000000000               0.000000000               0.000000000               0.000405198               0.000584360              -0.000437487               0.000078903               0.000168483               0.000247386               0.000000000               0.000000000               0.000000000               0.000000000               0.000673641               0.001073584              -0.000602788               0.000118416               0.000318385               0.000436801               0.000000000               0.000000000               0.000000000               0.000000000               0.000746254               0.001514128              -0.000615689               0.000090578               0.000474512               0.000565089               0.000000000               0.000000000               0.000000000               0.000000000               0.000748219               0.001890721              -0.000573402               0.000044241               0.000615487               0.000659728               0.000000000               0.000000000               0.000000000               0.000000000               0.000725157               0.002209102              -0.000521141              -0.000004204               0.000737761               0.000733557               0.000000000               0.000000000               0.000000000               0.000000000               0.000690582               0.002473261              -0.000472101              -0.000050189               0.000841142               0.000790952               0.000000000               0.000000000               0.000000000               0.000000000               0.000649251               0.002690147              -0.000419288              -0.000092799               0.000927640               0.000834841               0.000000000               0.000000000               0.000000000               0.000000000               0.000605180               0.002864717              -0.000371032              -0.000131147               0.000998612               0.000867465               0.000000000               0.000000000               0.000000000               0.000000000               0.000558364               0.003004763              -0.000339159              -0.000166209               0.001056980               0.000890772               0.000000000               0.000000000               0.000000000               0.000000000               0.000509992               0.003118259              -0.000313972              -0.000198535               0.001105588               0.000907052               0.000000000               0.000000000               0.000000000               0.000000000               0.000463462               0.003202642              -0.000280769              -0.000226531               0.001143047               0.000916516               0.000000000               0.000000000               0.000000000               0.000000000               0.000424933               0.003261616              -0.000239059              -0.000248352               0.001169978               0.000921627               0.000000000               0.000000000               0.000000000               0.000000000               0.000398538               0.003304281              -0.000189767              -0.000263583               0.001189277               0.000925694               0.000000000               0.000000000               0.000000000               0.000000000               0.000384657               0.003334163              -0.000131879              -0.000272523               0.001202218               0.000929694               0.000000000               0.000000000               0.000000000               0.000000000               0.000379691               0.003351666              -0.000068608              -0.000276573               0.001209402               0.000932829               0.000000000               0.000000000               0.000000000               0.000000000               0.000377403               0.003356162              -0.000035091              -0.000277994               0.001211374               0.000933381               0.000000000               0.000000000               0.000000000               0.000000000              -0.000225537               0.000102279              -0.000105682              -0.000097361               0.000066546              -0.000030815               0.000000000               0.000000000               0.000000000               0.000000000               0.000341212               0.000414311              -0.000219855               0.000076165               0.000112714               0.000188879               0.000000000               0.000000000               0.000000000               0.000000000               0.000706775               0.000846140              -0.000317527               0.000159271               0.000228953               0.000388225               0.000000000               0.000000000               0.000000000               0.000000000               0.000818621               0.001274194              -0.000330786               0.000147707               0.000375491               0.000523199               0.000000000               0.000000000               0.000000000               0.000000000               0.000837220               0.001656021              -0.000312082               0.000106954               0.000516350               0.000623304               0.000000000               0.000000000               0.000000000               0.000000000               0.000822310               0.001995768              -0.000288235               0.000058894               0.000645618               0.000704512               0.000000000               0.000000000               0.000000000               0.000000000               0.000785317               0.002285666              -0.000263453               0.000008785               0.000758953               0.000767738               0.000000000               0.000000000               0.000000000               0.000000000               0.000740211               0.002525758              -0.000234664              -0.000038141               0.000854624               0.000816484               0.000000000               0.000000000               0.000000000               0.000000000               0.000697802               0.002718204              -0.000209330              -0.000078100               0.000932092               0.000853993               0.000000000               0.000000000               0.000000000               0.000000000               0.000652845               0.002872837              -0.000192376              -0.000114288               0.000995698               0.000881411               0.000000000               0.000000000               0.000000000               0.000000000               0.000602618               0.003004068              -0.000177567              -0.000149526               0.001051188               0.000901662               0.000000000               0.000000000               0.000000000               0.000000000               0.000554039               0.003113227              -0.000159181              -0.000181388               0.001098195               0.000916807               0.000000000               0.000000000               0.000000000               0.000000000               0.000516276               0.003199101              -0.000136424              -0.000206284               0.001135118               0.000928834               0.000000000               0.000000000               0.000000000               0.000000000               0.000494770               0.003264233              -0.000110096              -0.000222490               0.001162230               0.000939740               0.000000000               0.000000000               0.000000000               0.000000000               0.000494680               0.003311253              -0.000079782              -0.000228401               0.001179874               0.000951473               0.000000000               0.000000000               0.000000000               0.000000000               0.000518036               0.003341236              -0.000043101              -0.000223390               0.001188198               0.000964807               0.000000000               0.000000000               0.000000000               0.000000000               0.000545211               0.003355488              -0.000022887              -0.000214981               0.001190145               0.000975164               0.000000000               0.000000000               0.000000000               0.000000000               0.000000000               0.000000000               0.000000000               0.000000000               0.000000000               0.000000000               0.000000000               0.000000000               0.000000000               0.000000000               0.000000000               0.000000000               0.000000000               0.000000000               0.000000000               0.000000000               0.000000000               0.000000000               0.000000000               0.000000000               0.000000000               0.000000000               0.000000000               0.000000000               0.000000000               0.000000000               0.000000000               0.000000000               0.000000000               0.000000000               0.000000000               0.000000000               0.000000000               0.000000000               0.000000000               0.000000000               0.000000000               0.000000000               0.000000000               0.000000000               0.000000000               0.000000000               0.000000000               0.000000000               0.000000000               0.000000000               0.000000000               0.000000000               0.000000000               0.000000000               0.000000000               0.000000000               0.000000000               0.000000000               0.000000000               0.000000000               0.000000000               0.000000000               0.000000000               0.000000000               0.000000000               0.000000000               0.000000000               0.000000000               0.000000000               0.000000000               0.000000000               0.000000000               0.000000000               0.000000000               0.000000000               0.000000000               0.000000000               0.000000000               0.000000000               0.000000000               0.000000000               0.000000000               0.000000000               0.000000000               0.000000000               0.000000000               0.000000000               0.000000000               0.000000000               0.000000000               0.000000000               0.000000000               0.000000000               0.000000000               0.000000000               0.000000000               0.000000000               0.000000000               0.000000000               0.000000000               0.000000000               0.000000000               0.000000000               0.000000000               0.000000000               0.000000000               0.000000000               0.000000000               0.000000000               0.000000000               0.000000000               0.000000000               0.000000000               0.000000000               0.000000000               0.000000000               0.000000000               0.000000000               0.000000000               0.000000000               0.000000000               0.000000000               0.000000000               0.000000000               0.000000000               0.000000000               0.000000000               0.000000000               0.000000000               0.000000000               0.000000000               0.000000000               0.000000000               0.000000000               0.000000000               0.000000000               0.000000000               0.000000000               0.000000000               0.000000000               0.000000000               0.000000000               0.000000000               0.000000000               0.000000000               0.000000000               0.000000000               0.000000000               0.000000000               0.000000000               0.000000000               0.000000000               0.000000000               0.000000000               0.000000000               0.000000000               0.000000000               0.000000000               0.000000000               0.000000000               0.000000000               0.000000000               0.000000000               0.000000000               0.000000000               0.000000000               0.000000000               0.000000000               0.000000000               0.000000000               0.000000000               0.000000000               0.000000000               0.000000000               0.000000000               0.000000000               0.000000000               0.000000000               0.000000000               0.000000000               0.000000000               0.000000000               0.000000000               0.000000000               0.000000000               0.000000000               0.000000000               0.000000000               0.000000000               0.000000000               0.000000000               0.000000000               0.000000000               0.000000000               0.000000000               0.000000000               0.000000000               0.000000000               0.000000000               0.000000000               0.000000000               0.000000000               0.000000000               0.000000000               0.000000000               0.000000000               0.000000000               0.000000000               0.000000000               0.000000000               0.000000000               0.000000000               0.000000000               0.000000000               0.000000000               0.000000000               0.000000000               0.000000000               0.000000000               0.000000000               0.000000000               0.000000000               0.000000000               0.000000000               0.000000000               0.000000000               0.000000000               0.000000000               0.000000000               0.000000000               0.000000000               0.000000000               0.000000000               0.000000000               0.000000000               0.000000000               0.000000000               0.000000000               0.000000000               0.000000000               0.000000000               0.000000000               0.000000000               0.000000000               0.000000000               0.000000000               0.000000000               0.000000000               0.000000000               0.000000000               0.000000000               0.000000000               0.000000000               0.000000000               0.000000000               0.000000000               0.000000000               0.000000000               0.000000000               0.000000000               0.000000000               0.000000000               0.000000000               0.000000000               0.000000000               0.000000000               0.000000000               0.000000000               0.000000000               0.000000000               0.000000000               0.000000000               0.000000000               0.000000000               0.000000000               0.000000000               0.000000000               0.000000000               0.000000000               0.000000000               0.000000000               0.000000000               0.000000000               0.000000000               0.000000000               0.000000000               0.000000000               0.000000000               0.000000000               0.000000000               0.000000000               0.000000000               0.000000000               0.000000000               0.000000000               0.000000000               0.000000000               0.000000000               0.000000000               0.000000000               0.000000000               0.000000000               0.000000000               0.000000000               0.000000000               0.000000000               0.000000000               0.000000000               0.000000000               0.000000000               0.000000000               0.000000000               0.000000000               0.000000000               0.000000000               0.000000000               0.000000000               0.000000000               0.000000000               0.000000000               0.000000000               0.000000000               0.000000000               0.000000000               0.000000000               0.000000000               0.000000000               0.000000000               0.000000000               0.000000000               0.000000000               0.000000000               0.000000000               0.000000000               0.000000000               0.000000000               0.000000000               0.000000000               0.000000000               0.000000000               0.000000000               0.000000000               0.000000000               0.000000000               0.000720603               0.007749254               0.000579583              -0.000698429               0.002815868               0.002117439               0.000000000               0.000000000               0.000000000               0.000000000               0.000751440               0.006399089               0.000359698              -0.000518095               0.002305707               0.001787612               0.000000000               0.000000000               0.000000000               0.000000000               0.001006175               0.005331932               0.000134854              -0.000289175               0.001873684               0.001584509               0.000000000               0.000000000               0.000000000               0.000000000               0.001029903               0.004748096               0.000032792              -0.000207298               0.001651782               0.001444484               0.000000000               0.000000000               0.000000000               0.000000000               0.000975215               0.004404617              -0.000015377              -0.000184871               0.001529815               0.001344944               0.000000000               0.000000000               0.000000000               0.000000000               0.000893905               0.004191913              -0.000037951              -0.000188774               0.001460215               0.001271441               0.000000000               0.000000000               0.000000000               0.000000000               0.000803383               0.004053188              -0.000046219              -0.000205379               0.001419509               0.001214130               0.000000000               0.000000000               0.000000000               0.000000000               0.000708331               0.003957779              -0.000048655              -0.000229098               0.001395613               0.001166515               0.000000000               0.000000000               0.000000000               0.000000000               0.000613920               0.003892077              -0.000050392              -0.000256289               0.001382776               0.001126487               0.000000000               0.000000000               0.000000000               0.000000000               0.000520600               0.003848507              -0.000050339              -0.000285838               0.001378102               0.001092264               0.000000000               0.000000000               0.000000000               0.000000000               0.000427052               0.003818987              -0.000048730              -0.000317228               0.001378726               0.001061498               0.000000000               0.000000000               0.000000000               0.000000000               0.000338077               0.003798189              -0.000045762              -0.000347994               0.001382048               0.001034054               0.000000000               0.000000000               0.000000000               0.000000000               0.000257403               0.003783292              -0.000042210              -0.000376385               0.001386546               0.001010162               0.000000000               0.000000000               0.000000000               0.000000000               0.000182269               0.003770612              -0.000038009              -0.000402975               0.001391183               0.000988208               0.000000000               0.000000000               0.000000000               0.000000000               0.000113364               0.003758474              -0.000031118              -0.000427297               0.001395244               0.000967948               0.000000000               0.000000000               0.000000000               0.000000000               0.000054242               0.003743918              -0.000019078              -0.000447648               0.001397176               0.000949528               0.000000000               0.000000000               0.000000000               0.000000000               0.000027188               0.003734187              -0.000011203              -0.000456577               0.001396909               0.000940332               0.000000000               0.000000000               0.000000000               0.000000000               0.000825193               0.007351373               0.001100852              -0.000609473               0.002653591               0.002044118               0.000000000               0.000000000               0.000000000               0.000000000               0.000771796               0.006127460               0.000685905              -0.000476508               0.002201302               0.001724794               0.000000000               0.000000000               0.000000000               0.000000000               0.000935852               0.005192895               0.000263010              -0.000298167               0.001830337               0.001532170               0.000000000               0.000000000               0.000000000               0.000000000               0.000922508               0.004678787               0.000075219              -0.000238907               0.001639216               0.001400309               0.000000000               0.000000000               0.000000000               0.000000000               0.000854232               0.004369013              -0.000012115              -0.000225789               0.001531586               0.001305797               0.000000000               0.000000000               0.000000000               0.000000000               0.000772867               0.004170485              -0.000052847              -0.000231485               0.001467309               0.001235825               0.000000000               0.000000000               0.000000000               0.000000000               0.000691225               0.004039839              -0.000068403              -0.000245770               0.001428523               0.001182753               0.000000000               0.000000000               0.000000000               0.000000000               0.000606349               0.003949927              -0.000072513              -0.000266359               0.001405416               0.001139056               0.000000000               0.000000000               0.000000000               0.000000000               0.000521517               0.003886389              -0.000075026              -0.000290229               0.001392193               0.001101964               0.000000000               0.000000000               0.000000000               0.000000000               0.000440002               0.003844057              -0.000076562              -0.000315506               0.001386508               0.001071003               0.000000000               0.000000000               0.000000000               0.000000000               0.000359350               0.003816311              -0.000074682              -0.000342282               0.001386185               0.001043903               0.000000000               0.000000000               0.000000000               0.000000000               0.000283210               0.003797475              -0.000070022              -0.000368480               0.001388639               0.001020159               0.000000000               0.000000000               0.000000000               0.000000000               0.000215226               0.003785707              -0.000063893              -0.000392503               0.001392724               0.001000221               0.000000000               0.000000000               0.000000000               0.000000000               0.000153461               0.003778437              -0.000057188              -0.000414756               0.001397718               0.000982963               0.000000000               0.000000000               0.000000000               0.000000000               0.000097421               0.003776479              -0.000046606              -0.000435526               0.001403989               0.000968463               0.000000000               0.000000000               0.000000000               0.000000000               0.000047486               0.003780132              -0.000028174              -0.000454708               0.001411601               0.000956893               0.000000000               0.000000000               0.000000000               0.000000000               0.000027213               0.003789615              -0.000015387              -0.000463496               0.001417691               0.000954195               0.000000000               0.000000000               0.000000000               0.000000000               0.000972936               0.006743061               0.001506856              -0.000478031               0.002407008               0.001928977               0.000000000               0.000000000               0.000000000               0.000000000               0.000796530               0.005712847               0.000946491              -0.000415407               0.002042732               0.001627325               0.000000000               0.000000000               0.000000000               0.000000000               0.000829659               0.004980515               0.000380917              -0.000311442               0.001763969               0.001452527               0.000000000               0.000000000               0.000000000               0.000000000               0.000770535               0.004565712               0.000137301              -0.000281763               0.001615810               0.001334047               0.000000000               0.000000000               0.000000000               0.000000000               0.000692941               0.004305083               0.000026513              -0.000278282               0.001527774               0.001249492               0.000000000               0.000000000               0.000000000               0.000000000               0.000614955               0.004132471              -0.000026027              -0.000285950               0.001472793               0.001186843               0.000000000               0.000000000               0.000000000               0.000000000               0.000543853               0.004017285              -0.000048665              -0.000298215               0.001438487               0.001140272               0.000000000               0.000000000               0.000000000               0.000000000               0.000475521               0.003938931              -0.000055613              -0.000314045               0.001417646               0.001103600               0.000000000               0.000000000               0.000000000               0.000000000               0.000407648               0.003883447              -0.000060378              -0.000332562               0.001405323               0.001072761               0.000000000               0.000000000               0.000000000               0.000000000               0.000344821               0.003846696              -0.000065175              -0.000351528               0.001399395               0.001047867               0.000000000               0.000000000               0.000000000               0.000000000               0.000284308               0.003823665              -0.000065759              -0.000371342               0.001398323               0.001026981               0.000000000               0.000000000               0.000000000               0.000000000               0.000226481               0.003810927              -0.000061586              -0.000391435               0.001400775               0.001009340               0.000000000               0.000000000               0.000000000               0.000000000               0.000175093               0.003806153              -0.000054916              -0.000410108               0.001405408               0.000995300               0.000000000               0.000000000               0.000000000               0.000000000               0.000128493               0.003809477              -0.000047134              -0.000427999               0.001412479               0.000984481               0.000000000               0.000000000               0.000000000               0.000000000               0.000084235               0.003821172              -0.000036339              -0.000446057               0.001422397               0.000976340               0.000000000               0.000000000               0.000000000               0.000000000               0.000041578               0.003847113              -0.000020498              -0.000465296               0.001437457               0.000972161               0.000000000               0.000000000               0.000000000               0.000000000               0.000027941               0.003878571              -0.000007431              -0.000474342               0.001450958               0.000976616               0.000000000               0.000000000               0.000000000               0.000000000               0.001117796               0.005992835               0.001768261              -0.000329932               0.002107569               0.001777637               0.000000000               0.000000000               0.000000000               0.000000000               0.000807855               0.005209153               0.001128525              -0.000348198               0.001852433               0.001504234               0.000000000               0.000000000               0.000000000               0.000000000               0.000701068               0.004722108               0.000488165              -0.000327362               0.001683141               0.001355779               0.000000000               0.000000000               0.000000000               0.000000000               0.000601960               0.004417019               0.000220414              -0.000326391               0.001581122               0.001254731               0.000000000               0.000000000               0.000000000               0.000000000               0.000521829               0.004213465               0.000099008              -0.000330996               0.001514806               0.001183810               0.000000000               0.000000000               0.000000000               0.000000000               0.000458687               0.004078579               0.000039551              -0.000337814               0.001472117               0.001134304               0.000000000               0.000000000               0.000000000               0.000000000               0.000405094               0.003983937               0.000007888              -0.000346081               0.001443326               0.001097245               0.000000000               0.000000000               0.000000000               0.000000000               0.000354212               0.003921509              -0.000006469              -0.000357358               0.001426276               0.001068918               0.000000000               0.000000000               0.000000000               0.000000000               0.000305341               0.003879297              -0.000014368              -0.000370408               0.001416556               0.001046147               0.000000000               0.000000000               0.000000000               0.000000000               0.000262212               0.003850881              -0.000022373              -0.000383029               0.001411291               0.001028261               0.000000000               0.000000000               0.000000000               0.000000000               0.000223677               0.003834669              -0.000025841              -0.000395454               0.001410028               0.001014574               0.000000000               0.000000000               0.000000000               0.000000000               0.000186065               0.003827321              -0.000022653              -0.000408640               0.001411974               0.001003334               0.000000000               0.000000000               0.000000000               0.000000000               0.000149052               0.003828695              -0.000015787              -0.000422692               0.001417116               0.000994425               0.000000000               0.000000000               0.000000000               0.000000000               0.000112444               0.003839090              -0.000007664              -0.000437719               0.001425590               0.000987871               0.000000000               0.000000000               0.000000000               0.000000000               0.000075478               0.003858667              -0.000000213              -0.000454028               0.001437552               0.000983524               0.000000000               0.000000000               0.000000000               0.000000000               0.000038098               0.003891494               0.000002671              -0.000472149               0.001454535               0.000982386               0.000000000               0.000000000               0.000000000               0.000000000               0.000027452               0.003925717               0.000007163              -0.000480419               0.001468699               0.000988280               0.000000000               0.000000000               0.000000000               0.000000000               0.001224726               0.005174158               0.001886644              -0.000187499               0.001787201               0.001599702               0.000000000               0.000000000               0.000000000               0.000000000               0.000800581               0.004669346               0.001237876              -0.000283451               0.001650916               0.001367466               0.000000000               0.000000000               0.000000000               0.000000000               0.000568181               0.004440269               0.000589149              -0.000341965               0.001594063               0.001252098               0.000000000               0.000000000               0.000000000               0.000000000               0.000447187               0.004245921               0.000320875              -0.000363044               0.001536307               0.001173263               0.000000000               0.000000000               0.000000000               0.000000000               0.000375927               0.004102808               0.000191200              -0.000371878               0.001491548               0.001119671               0.000000000               0.000000000               0.000000000               0.000000000               0.000331363               0.004004409               0.000123058              -0.000376289               0.001460219               0.001083930               0.000000000               0.000000000               0.000000000               0.000000000               0.000297905               0.003933905               0.000083157              -0.000380023               0.001437963               0.001057940               0.000000000               0.000000000               0.000000000               0.000000000               0.000264522               0.003889673               0.000061074              -0.000387012               0.001425549               0.001038536               0.000000000               0.000000000               0.000000000               0.000000000               0.000231852               0.003863114               0.000052661              -0.000395944               0.001419673               0.001023729               0.000000000               0.000000000               0.000000000               0.000000000               0.000204328               0.003842838               0.000044571              -0.000403731               0.001415510               0.001011779               0.000000000               0.000000000               0.000000000               0.000000000               0.000180881               0.003829399               0.000039011              -0.000410844               0.001413401               0.001002558               0.000000000               0.000000000               0.000000000               0.000000000               0.000155932               0.003821677               0.000039133              -0.000419234               0.001413624               0.000994390               0.000000000               0.000000000               0.000000000               0.000000000               0.000127181               0.003822527               0.000041685              -0.000430122               0.001417537               0.000987415               0.000000000               0.000000000               0.000000000               0.000000000               0.000094455               0.003829294               0.000043838              -0.000443240               0.001424165               0.000980925               0.000000000               0.000000000               0.000000000               0.000000000               0.000060216               0.003840582               0.000040037              -0.000457490               0.001432678               0.000975187               0.000000000               0.000000000               0.000000000               0.000000000               0.000029777               0.003855111               0.000025782              -0.000470721               0.001441931               0.000971210               0.000000000               0.000000000               0.000000000               0.000000000               0.000017878               0.003864376               0.000016958              -0.000476341               0.001446893               0.000970552               0.000000000               0.000000000               0.000000000               0.000000000               0.001273667               0.004350711               0.001879171              -0.000066216               0.001472294               0.001406078               0.000000000               0.000000000               0.000000000               0.000000000               0.000775601               0.004133733               0.001286966              -0.000225867               0.001453186               0.001227319               0.000000000               0.000000000               0.000000000               0.000000000               0.000451310               0.004151861               0.000684405              -0.000349741               0.001500520               0.001150779               0.000000000               0.000000000               0.000000000               0.000000000               0.000331259               0.004063692               0.000426172              -0.000383738               0.001482463               0.001098725               0.000000000               0.000000000               0.000000000               0.000000000               0.000276576               0.003977874               0.000289430              -0.000393517               0.001457117               0.001063600               0.000000000               0.000000000               0.000000000               0.000000000               0.000246871               0.003911588               0.000212747              -0.000396371               0.001435973               0.001039602               0.000000000               0.000000000               0.000000000               0.000000000               0.000227737               0.003866186               0.000166410              -0.000397871               0.001421339               0.001023469               0.000000000               0.000000000               0.000000000               0.000000000               0.000207719               0.003841247               0.000136827              -0.000402260               0.001414489               0.001012229               0.000000000               0.000000000               0.000000000               0.000000000               0.000187190               0.003826164               0.000125562              -0.000408073               0.001411400               0.001003327               0.000000000               0.000000000               0.000000000               0.000000000               0.000167513               0.003809664               0.000116381              -0.000413389               0.001407672               0.000994282               0.000000000               0.000000000               0.000000000               0.000000000               0.000147442               0.003793600               0.000104860              -0.000418908               0.001404157               0.000985249               0.000000000               0.000000000               0.000000000               0.000000000               0.000123528               0.003781010               0.000094742              -0.000426302               0.001402425               0.000976123               0.000000000               0.000000000               0.000000000               0.000000000               0.000094117               0.003771903               0.000082966              -0.000436193               0.001402686               0.000966493               0.000000000               0.000000000               0.000000000               0.000000000               0.000062115               0.003766096               0.000069607              -0.000447468               0.001404509               0.000957041               0.000000000               0.000000000               0.000000000               0.000000000               0.000032300               0.003761449               0.000049885              -0.000458067               0.001406493               0.000948426               0.000000000               0.000000000               0.000000000               0.000000000               0.000012376               0.003751034               0.000025193              -0.000464237               0.001405078               0.000940841               0.000000000               0.000000000               0.000000000               0.000000000               0.000001204               0.003735936               0.000010327              -0.000466539               0.001400813               0.000934273               0.000000000               0.000000000               0.000000000               0.000000000               0.001266096               0.003570950               0.001766778               0.000028414               0.001180833               0.001209247               0.000000000               0.000000000               0.000000000               0.000000000               0.000736153               0.003630550               0.001285506              -0.000177762               0.001269425               0.001091663               0.000000000               0.000000000               0.000000000               0.000000000               0.000361871               0.003867741               0.000770087              -0.000347765               0.001405156               0.001057390               0.000000000               0.000000000               0.000000000               0.000000000               0.000257955               0.003872470               0.000523503              -0.000387325               0.001419918               0.001032594               0.000000000               0.000000000               0.000000000               0.000000000               0.000224016               0.003840417               0.000381175              -0.000396045               0.001412141               0.001016096               0.000000000               0.000000000               0.000000000               0.000000000               0.000206618               0.003810781               0.000297284              -0.000398865               0.001403203               0.001004338               0.000000000               0.000000000               0.000000000               0.000000000               0.000195666               0.003795959               0.000244681              -0.000401119               0.001399013               0.000997894               0.000000000               0.000000000               0.000000000               0.000000000               0.000180881               0.003786452               0.000205819              -0.000405475               0.001397297               0.000991821               0.000000000               0.000000000               0.000000000               0.000000000               0.000161732               0.003771470               0.000185153              -0.000410783               0.001394072               0.000983288               0.000000000               0.000000000               0.000000000               0.000000000               0.000138114               0.003751793               0.000168866              -0.000417180               0.001389645               0.000972465               0.000000000               0.000000000               0.000000000               0.000000000               0.000110643               0.003729190               0.000145735              -0.000424656               0.001384603               0.000959947               0.000000000               0.000000000               0.000000000               0.000000000               0.000081539               0.003706487               0.000119571              -0.000432733               0.001379728               0.000946995               0.000000000               0.000000000               0.000000000               0.000000000               0.000048914               0.003683942               0.000090380              -0.000442149               0.001375351               0.000933202               0.000000000               0.000000000               0.000000000               0.000000000               0.000016233               0.003661573               0.000059908              -0.000451608               0.001371048               0.000919440               0.000000000               0.000000000               0.000000000               0.000000000              -0.000008058               0.003637804               0.000031315              -0.000457746               0.001365171               0.000907425               0.000000000               0.000000000               0.000000000               0.000000000              -0.000013879               0.003607021               0.000008632              -0.000456081               0.001354355               0.000898274               0.000000000               0.000000000               0.000000000               0.000000000              -0.000014939               0.003580749              -0.000003467              -0.000453195               0.001344636               0.000891441               0.000000000               0.000000000               0.000000000               0.000000000               0.001222490               0.002893866               0.001586589               0.000096698               0.000932379               0.001029077               0.000000000               0.000000000               0.000000000               0.000000000               0.000708324               0.003179365               0.001256294              -0.000131800               0.001103711               0.000971910               0.000000000               0.000000000               0.000000000               0.000000000               0.000318919               0.003601093               0.000859412              -0.000330542               0.001310533               0.000979991               0.000000000               0.000000000               0.000000000               0.000000000               0.000230146               0.003694830               0.000623061              -0.000375548               0.001356780               0.000981232               0.000000000               0.000000000               0.000000000               0.000000000               0.000208589               0.003719434               0.000474723              -0.000386708               0.001368701               0.000981994               0.000000000               0.000000000               0.000000000               0.000000000               0.000202292               0.003731059               0.000380462              -0.000390522               0.001373848               0.000983326               0.000000000               0.000000000               0.000000000               0.000000000               0.000196117               0.003743510               0.000318088              -0.000394394               0.001379289               0.000984895               0.000000000               0.000000000               0.000000000               0.000000000               0.000179474               0.003743140               0.000270290              -0.000400589               0.001381230               0.000980642               0.000000000               0.000000000               0.000000000               0.000000000               0.000156196               0.003723436               0.000235992              -0.000406855               0.001376751               0.000969896               0.000000000               0.000000000               0.000000000               0.000000000               0.000129595               0.003697963               0.000208085              -0.000413646               0.001370524               0.000956878               0.000000000               0.000000000               0.000000000               0.000000000               0.000096596               0.003669161               0.000174926              -0.000422421               0.001363848               0.000941428               0.000000000               0.000000000               0.000000000               0.000000000               0.000060690               0.003639258               0.000136205              -0.000432148               0.001357123               0.000924975               0.000000000               0.000000000               0.000000000               0.000000000               0.000019220               0.003607477               0.000095105              -0.000443726               0.001350389               0.000906663               0.000000000               0.000000000               0.000000000               0.000000000              -0.000022464               0.003572684               0.000056927              -0.000455008               0.001342552               0.000887544               0.000000000               0.000000000               0.000000000               0.000000000              -0.000055353               0.003530555               0.000025999              -0.000462076               0.001330865               0.000868790               0.000000000               0.000000000               0.000000000               0.000000000              -0.000070367               0.003479740               0.000005603              -0.000461354               0.001313686               0.000852332               0.000000000               0.000000000               0.000000000               0.000000000              -0.000071620               0.003447064              -0.000003213              -0.000457739               0.001301589               0.000843850               0.000000000               0.000000000               0.000000000               0.000000000               0.001131983               0.002243468               0.001375865               0.000144057               0.000699796               0.000843853               0.000000000               0.000000000               0.000000000               0.000000000               0.000702134               0.002657896               0.001214767              -0.000068938               0.000908935               0.000839997               0.000000000               0.000000000               0.000000000               0.000000000               0.000331953               0.003211713               0.000963065              -0.000276982               0.001162887               0.000885906               0.000000000               0.000000000               0.000000000               0.000000000               0.000245460               0.003417277               0.000746430              -0.000335112               0.001250785               0.000915673               0.000000000               0.000000000               0.000000000               0.000000000               0.000229207               0.003517862               0.000592610              -0.000353779               0.001290535               0.000936756               0.000000000               0.000000000               0.000000000               0.000000000               0.000228857               0.003583523               0.000485415              -0.000362118               0.001315202               0.000953083               0.000000000               0.000000000               0.000000000               0.000000000               0.000226723               0.003627092               0.000406602              -0.000368365               0.001331807               0.000963442               0.000000000               0.000000000               0.000000000               0.000000000               0.000209117               0.003645266               0.000344841              -0.000377239               0.001340823               0.000963584               0.000000000               0.000000000               0.000000000               0.000000000               0.000179986               0.003639895               0.000296486              -0.000387491               0.001342450               0.000954959               0.000000000               0.000000000               0.000000000               0.000000000               0.000147352               0.003617587               0.000256095              -0.000396940               0.001338164               0.000941223               0.000000000               0.000000000               0.000000000               0.000000000               0.000111958               0.003587034               0.000216419              -0.000406394               0.001331131               0.000924737               0.000000000               0.000000000               0.000000000               0.000000000               0.000070985               0.003554241               0.000170563              -0.000417660               0.001323955               0.000906295               0.000000000               0.000000000               0.000000000               0.000000000               0.000020077               0.003518993               0.000121527              -0.000432344               0.001317101               0.000884756               0.000000000               0.000000000               0.000000000               0.000000000              -0.000036223               0.003484140               0.000077424              -0.000449100               0.001311068               0.000861968               0.000000000               0.000000000               0.000000000               0.000000000              -0.000091212               0.003447288               0.000041288              -0.000465114               0.001304123               0.000839008               0.000000000               0.000000000               0.000000000               0.000000000              -0.000138435               0.003405779               0.000015125              -0.000477634               0.001294460               0.000816826               0.000000000               0.000000000               0.000000000               0.000000000              -0.000162264               0.003378844               0.000002202              -0.000483203               0.001287338               0.000804134               0.000000000               0.000000000               0.000000000               0.000000000               0.000973278               0.001639114               0.001137152               0.000160088               0.000493003               0.000653090               0.000000000               0.000000000               0.000000000               0.000000000               0.000694080               0.002137644               0.001138827              -0.000006927               0.000714849               0.000707922               0.000000000               0.000000000               0.000000000               0.000000000               0.000391604               0.002782890               0.001040627              -0.000201010               0.000994624               0.000793614               0.000000000               0.000000000               0.000000000               0.000000000               0.000306086               0.003094811               0.000866493              -0.000272069               0.001122283               0.000850214               0.000000000               0.000000000               0.000000000               0.000000000               0.000286720               0.003273090               0.000717220              -0.000301616               0.001191557               0.000889942               0.000000000               0.000000000               0.000000000               0.000000000               0.000282522               0.003394801               0.000600722              -0.000318404               0.001237723               0.000919320               0.000000000               0.000000000               0.000000000               0.000000000               0.000274986               0.003475545               0.000506059              -0.000331323               0.001268944               0.000937621               0.000000000               0.000000000               0.000000000               0.000000000               0.000255313               0.003522827               0.000429206              -0.000344610               0.001289134               0.000944524               0.000000000               0.000000000               0.000000000               0.000000000               0.000225099               0.003545620               0.000369476              -0.000358790               0.001301458               0.000942668               0.000000000               0.000000000               0.000000000               0.000000000               0.000193036               0.003547956               0.000322303              -0.000371105               0.001306342               0.000935237               0.000000000               0.000000000               0.000000000               0.000000000               0.000158188               0.003530553               0.000277768              -0.000381998               0.001304172               0.000922174               0.000000000               0.000000000               0.000000000               0.000000000               0.000116564               0.003503731               0.000226071              -0.000394254               0.001299316               0.000905063               0.000000000               0.000000000               0.000000000               0.000000000               0.000067047               0.003472366               0.000171877              -0.000408902               0.001293744               0.000884842               0.000000000               0.000000000               0.000000000               0.000000000               0.000006364               0.003440974               0.000120552              -0.000427734               0.001289558               0.000861824               0.000000000               0.000000000               0.000000000               0.000000000              -0.000066958               0.003412919               0.000072329              -0.000451723               0.001288203               0.000836480               0.000000000               0.000000000               0.000000000               0.000000000              -0.000148289               0.003386871               0.000031503              -0.000478966               0.001288601               0.000809635               0.000000000               0.000000000               0.000000000               0.000000000              -0.000204209               0.003364058               0.000007291              -0.000497084               0.001287036               0.000789952               0.000000000               0.000000000               0.000000000               0.000000000               0.000747678               0.001119380               0.000880603               0.000140455               0.000326304               0.000466759               0.000000000               0.000000000               0.000000000               0.000000000               0.000654692               0.001649630               0.001012791               0.000039304               0.000536769               0.000576073               0.000000000               0.000000000               0.000000000               0.000000000               0.000470900               0.002322041               0.001050753              -0.000113669               0.000811895               0.000698226               0.000000000               0.000000000               0.000000000               0.000000000               0.000405049               0.002709913               0.000935086              -0.000186846               0.000965577               0.000778731               0.000000000               0.000000000               0.000000000               0.000000000               0.000380817               0.002960916               0.000804460              -0.000227308               0.001062731               0.000835423               0.000000000               0.000000000               0.000000000               0.000000000               0.000366606               0.003142072               0.000688317              -0.000255282               0.001132440               0.000877159               0.000000000               0.000000000               0.000000000               0.000000000               0.000346099               0.003268006               0.000585725              -0.000278713               0.001182229               0.000903516               0.000000000               0.000000000               0.000000000               0.000000000               0.000320879               0.003353890               0.000501250              -0.000298906               0.001217587               0.000918681               0.000000000               0.000000000               0.000000000               0.000000000               0.000290566               0.003413313               0.000436924              -0.000317701               0.001243660               0.000925959               0.000000000               0.000000000               0.000000000               0.000000000               0.000255818               0.003448267               0.000385261              -0.000335101               0.001261111               0.000926010               0.000000000               0.000000000               0.000000000               0.000000000               0.000217644               0.003457282               0.000333996              -0.000350543               0.001269264               0.000918720               0.000000000               0.000000000               0.000000000               0.000000000               0.000179411               0.003451792               0.000280238              -0.000364194               0.001271984               0.000907790               0.000000000               0.000000000               0.000000000               0.000000000               0.000137894               0.003435081               0.000225118              -0.000377674               0.001270907               0.000893233               0.000000000               0.000000000               0.000000000               0.000000000               0.000084358               0.003414605               0.000166297              -0.000395190               0.001269920               0.000874730               0.000000000               0.000000000               0.000000000               0.000000000               0.000011166               0.003392538               0.000104645              -0.000419879               0.001270794               0.000850915               0.000000000               0.000000000               0.000000000               0.000000000              -0.000079554               0.003375209               0.000049158              -0.000451733               0.001275636               0.000823903               0.000000000               0.000000000               0.000000000               0.000000000              -0.000150622               0.003354529               0.000015549              -0.000475798               0.001276764               0.000800966               0.000000000               0.000000000               0.000000000               0.000000000               0.000474482               0.000707318               0.000629773               0.000089514               0.000205932               0.000295446               0.000000000               0.000000000               0.000000000               0.000000000               0.000583520               0.001214767               0.000845501               0.000066972               0.000382594               0.000449566               0.000000000               0.000000000               0.000000000               0.000000000               0.000552141               0.001855996               0.000982104              -0.000024948               0.000626975               0.000602027               0.000000000               0.000000000               0.000000000               0.000000000               0.000523330               0.002286180               0.000924372              -0.000089525               0.000791893               0.000702369               0.000000000               0.000000000               0.000000000               0.000000000               0.000498040               0.002598783               0.000821744              -0.000138083               0.000912280               0.000774197               0.000000000               0.000000000               0.000000000               0.000000000               0.000470385               0.002835501               0.000717137              -0.000178043               0.001004505               0.000826462               0.000000000               0.000000000               0.000000000               0.000000000               0.000442469               0.003011219               0.000623037              -0.000210476               0.001073888               0.000863412               0.000000000               0.000000000               0.000000000               0.000000000               0.000415053               0.003143312               0.000543034              -0.000237269               0.001126850               0.000889581               0.000000000               0.000000000               0.000000000               0.000000000               0.000379351               0.003246181               0.000477211              -0.000263515               0.001169888               0.000906373               0.000000000               0.000000000               0.000000000               0.000000000               0.000335151               0.003319358               0.000424323              -0.000289238               0.001202854               0.000913617               0.000000000               0.000000000               0.000000000               0.000000000               0.000294213               0.003364309               0.000377137              -0.000310208               0.001224828               0.000914620               0.000000000               0.000000000               0.000000000               0.000000000               0.000259992               0.003388759               0.000327479              -0.000326097               0.001238274               0.000912177               0.000000000               0.000000000               0.000000000               0.000000000               0.000223185               0.003396199               0.000270335              -0.000340830               0.001245665               0.000904835               0.000000000               0.000000000               0.000000000               0.000000000               0.000176655               0.003392664               0.000203984              -0.000357836               0.001250155               0.000892319               0.000000000               0.000000000               0.000000000               0.000000000               0.000116974               0.003382727               0.000133358              -0.000378975               0.001253889               0.000874915               0.000000000               0.000000000               0.000000000               0.000000000               0.000040153               0.003372881               0.000065355              -0.000406552               0.001259800               0.000853248               0.000000000               0.000000000               0.000000000               0.000000000              -0.000024776               0.003355433               0.000025489              -0.000428719               0.001261373               0.000832654               0.000000000               0.000000000               0.000000000               0.000000000               0.000193679               0.000410903               0.000408967               0.000021266               0.000129877               0.000151143               0.000000000               0.000000000               0.000000000               0.000000000               0.000493315               0.000853808               0.000648755               0.000078266               0.000258511               0.000336777               0.000000000               0.000000000               0.000000000               0.000000000               0.000620711               0.001422908               0.000830915               0.000054901               0.000455997               0.000510899               0.000000000               0.000000000               0.000000000               0.000000000               0.000642164               0.001868807               0.000818727               0.000007209               0.000620526               0.000627736               0.000000000               0.000000000               0.000000000               0.000000000               0.000627947               0.002225294               0.000747020              -0.000042682               0.000755984               0.000713302               0.000000000               0.000000000               0.000000000               0.000000000               0.000596537               0.002509975               0.000665463              -0.000090046               0.000866665               0.000776619               0.000000000               0.000000000               0.000000000               0.000000000               0.000565427               0.002733071               0.000592615              -0.000129599               0.000954214               0.000824615               0.000000000               0.000000000               0.000000000               0.000000000               0.000532635               0.002910620               0.000523603              -0.000164089               0.001024893               0.000860804               0.000000000               0.000000000               0.000000000               0.000000000               0.000490144               0.003056900               0.000461764              -0.000198308               0.001085059               0.000886751               0.000000000               0.000000000               0.000000000               0.000000000               0.000441275               0.003167943               0.000416807              -0.000230514               0.001132809               0.000902294               0.000000000               0.000000000               0.000000000               0.000000000               0.000396635               0.003248670               0.000380979              -0.000257345               0.001168661               0.000911316               0.000000000               0.000000000               0.000000000               0.000000000               0.000356654               0.003303536               0.000338143              -0.000279196               0.001194233               0.000915037               0.000000000               0.000000000               0.000000000               0.000000000               0.000317592               0.003336274               0.000283543              -0.000297937               0.001211393               0.000913456               0.000000000               0.000000000               0.000000000               0.000000000               0.000281317               0.003356511               0.000219218              -0.000314069               0.001223516               0.000909446               0.000000000               0.000000000               0.000000000               0.000000000               0.000244536               0.003367447               0.000148094              -0.000329229               0.001232214               0.000902985               0.000000000               0.000000000               0.000000000               0.000000000               0.000199627               0.003368725               0.000074598              -0.000346230               0.001238307               0.000892077               0.000000000               0.000000000               0.000000000               0.000000000               0.000161952               0.003359796               0.000034205              -0.000359242               0.001239668               0.000880426               0.000000000               0.000000000               0.000000000               0.000000000              -0.000055311               0.000215940               0.000236830              -0.000047734               0.000087890               0.000040156               0.000000000               0.000000000               0.000000000               0.000000000               0.000405198               0.000584360               0.000437487               0.000078903               0.000168483               0.000247386               0.000000000               0.000000000               0.000000000               0.000000000               0.000673641               0.001073584               0.000602788               0.000118416               0.000318385               0.000436801               0.000000000               0.000000000               0.000000000               0.000000000               0.000746254               0.001514128               0.000615689               0.000090578               0.000474512               0.000565089               0.000000000               0.000000000               0.000000000               0.000000000               0.000748219               0.001890721               0.000573402               0.000044241               0.000615487               0.000659728               0.000000000               0.000000000               0.000000000               0.000000000               0.000725157               0.002209102               0.000521141              -0.000004204               0.000737761               0.000733557               0.000000000               0.000000000               0.000000000               0.000000000               0.000690582               0.002473261               0.000472101              -0.000050189               0.000841142               0.000790952               0.000000000               0.000000000               0.000000000               0.000000000               0.000649251               0.002690147               0.000419288              -0.000092799               0.000927640               0.000834841               0.000000000               0.000000000               0.000000000               0.000000000               0.000605180               0.002864717               0.000371032              -0.000131147               0.000998612               0.000867465               0.000000000               0.000000000               0.000000000               0.000000000               0.000558364               0.003004763               0.000339159              -0.000166209               0.001056980               0.000890772               0.000000000               0.000000000               0.000000000               0.000000000               0.000509992               0.003118259               0.000313972              -0.000198535               0.001105588               0.000907052               0.000000000               0.000000000               0.000000000               0.000000000               0.000463462               0.003202642               0.000280769              -0.000226531               0.001143047               0.000916516               0.000000000               0.000000000               0.000000000               0.000000000               0.000424933               0.003261616               0.000239059              -0.000248352               0.001169978               0.000921627               0.000000000               0.000000000               0.000000000               0.000000000               0.000398538               0.003304281               0.000189767              -0.000263583               0.001189277               0.000925694               0.000000000               0.000000000               0.000000000               0.000000000               0.000384657               0.003334163               0.000131879              -0.000272523               0.001202218               0.000929694               0.000000000               0.000000000               0.000000000               0.000000000               0.000379691               0.003351666               0.000068608              -0.000276573               0.001209402               0.000932829               0.000000000               0.000000000               0.000000000               0.000000000               0.000377403               0.003356162               0.000035091              -0.000277994               0.001211374               0.000933381               0.000000000               0.000000000               0.000000000               0.000000000              -0.000225537               0.000102279               0.000105682              -0.000097361               0.000066546              -0.000030815               0.000000000               0.000000000               0.000000000               0.000000000               0.000341212               0.000414311               0.000219855               0.000076165               0.000112714               0.000188879               0.000000000               0.000000000               0.000000000               0.000000000               0.000706775               0.000846140               0.000317527               0.000159271               0.000228953               0.000388225               0.000000000               0.000000000               0.000000000               0.000000000               0.000818621               0.001274194               0.000330786               0.000147707               0.000375491               0.000523199               0.000000000               0.000000000               0.000000000               0.000000000               0.000837220               0.001656021               0.000312082               0.000106954               0.000516350               0.000623304               0.000000000               0.000000000               0.000000000               0.000000000               0.000822310               0.001995768               0.000288235               0.000058894               0.000645618               0.000704512               0.000000000               0.000000000               0.000000000               0.000000000               0.000785317               0.002285666               0.000263453               0.000008785               0.000758953               0.000767738               0.000000000               0.000000000               0.000000000               0.000000000               0.000740211               0.002525758               0.000234664              -0.000038141               0.000854624               0.000816484               0.000000000               0.000000000               0.000000000               0.000000000               0.000697802               0.002718204               0.000209330              -0.000078100               0.000932092               0.000853993               0.000000000               0.000000000               0.000000000               0.000000000               0.000652845               0.002872837               0.000192376              -0.000114288               0.000995698               0.000881411               0.000000000               0.000000000               0.000000000               0.000000000               0.000602618               0.003004068               0.000177567              -0.000149526               0.001051188               0.000901662               0.000000000               0.000000000               0.000000000               0.000000000               0.000554039               0.003113227               0.000159181              -0.000181388               0.001098195               0.000916807               0.000000000               0.000000000               0.000000000               0.000000000               0.000516276               0.003199101               0.000136424              -0.000206284               0.001135118               0.000928834               0.000000000               0.000000000               0.000000000               0.000000000               0.000494770               0.003264233               0.000110096              -0.000222490               0.001162230               0.000939740               0.000000000               0.000000000               0.000000000               0.000000000               0.000494680               0.003311253               0.000079782              -0.000228401               0.001179874               0.000951473               0.000000000               0.000000000               0.000000000               0.000000000               0.000518036               0.003341236               0.000043101              -0.000223390               0.001188198               0.000964807               0.000000000               0.000000000               0.000000000               0.000000000               0.000545211               0.003355488               0.000022887              -0.000214981               0.001190145               0.000975164               0.000000000               0.000000000               0.000000000               0.000000000               0.000000000               0.000000000               0.000000000               0.000000000               0.000000000               0.000000000               0.000000000               0.000000000               0.000000000               0.000000000               0.000000000               0.000000000               0.000000000               0.000000000               0.000000000               0.000000000               0.000000000               0.000000000               0.000000000               0.000000000               0.000000000               0.000000000               0.000000000               0.000000000               0.000000000               0.000000000               0.000000000               0.000000000               0.000000000               0.000000000               0.000000000               0.000000000               0.000000000               0.000000000               0.000000000               0.000000000               0.000000000               0.000000000               0.000000000               0.000000000               0.000000000               0.000000000               0.000000000               0.000000000               0.000000000               0.000000000               0.000000000               0.000000000               0.000000000               0.000000000               0.000000000               0.000000000               0.000000000               0.000000000               0.000000000               0.000000000               0.000000000               0.000000000               0.000000000               0.000000000               0.000000000               0.000000000               0.000000000               0.000000000               0.000000000               0.000000000               0.000000000               0.000000000               0.000000000               0.000000000               0.000000000               0.000000000               0.000000000               0.000000000               0.000000000               0.000000000               0.000000000               0.000000000               0.000000000               0.000000000               0.000000000               0.000000000               0.000000000               0.000000000               0.000000000               0.000000000               0.000000000               0.000000000               0.000000000               0.000000000               0.000000000               0.000000000               0.000000000               0.000000000               0.000000000               0.000000000               0.000000000               0.000000000               0.000000000               0.000000000               0.000000000               0.000000000               0.000000000               0.000000000               0.000000000               0.000000000               0.000000000               0.000000000               0.000000000               0.000000000               0.000000000               0.000000000               0.000000000               0.000000000               0.000000000               0.000000000               0.000000000               0.000000000               0.000000000               0.000000000               0.000000000               0.000000000               0.000000000               0.000000000               0.000000000               0.000000000               0.000000000               0.000000000               0.000000000               0.000000000               0.000000000               0.000000000               0.000000000               0.000000000               0.000000000               0.000000000               0.000000000               0.000000000               0.000000000               0.000000000               0.000000000               0.000000000               0.000000000               0.000000000               0.000000000               0.000000000               0.000000000               0.000000000               0.000000000               0.000000000               0.000000000               0.000000000               0.000000000               0.000000000               0.000000000               0.000000000               0.000000000               0.000000000               0.000000000               0.000000000               0.000000000               0.000000000               0.000000000               0.000000000               0.000000000               0.000000000               0.000000000               0.000000000               0.000000000               0.000000000 </DataArray>
</PointData>
</Piece>
</UnstructuredGrid> </VTKFile>
