<?xml version="1.0"?>
<VTKFile type="UnstructuredGrid" version="0.1">
<UnstructuredGrid>
<Piece NumberOfPoints="      1156" NumberOfCells="      1024">
<Points>
<DataArray type="Float64"                                    Name="coordinates"                                                      NumberOfComponents=" 3" format="ascii">
              0.133000000               0.000000000               0.000000000               0.155937500               0.000000000               0.000000000               0.178875000               0.000000000               0.000000000               0.201812500               0.000000000               0.000000000               0.224750000               0.000000000               0.000000000               0.247687500               0.000000000               0.000000000               0.270625000               0.000000000               0.000000000               0.293562500               0.000000000               0.000000000               0.316500000               0.000000000               0.000000000               0.339437500               0.000000000               0.000000000               0.362375000               0.000000000               0.000000000               0.385312500               0.000000000               0.000000000               0.408250000               0.000000000               0.000000000               0.431187500               0.000000000               0.000000000               0.454125000               0.000000000               0.000000000               0.477062500               0.000000000               0.000000000               0.500000000               0.000000000               0.000000000               0.132359569               0.013036280               0.000000000               0.155337096               0.016127762               0.000000000               0.178314623               0.019219245               0.000000000               0.201292150               0.022310727               0.000000000               0.224269676               0.025402210               0.000000000               0.247247203               0.028493692               0.000000000               0.270224730               0.031585175               0.000000000               0.293202257               0.034676657               0.000000000               0.316179784               0.037768140               0.000000000               0.339157311               0.040859622               0.000000000               0.362134838               0.043951105               0.000000000               0.385112365               0.047042587               0.000000000               0.408089892               0.050134070               0.000000000               0.431067419               0.053225552               0.000000000               0.454044946               0.056317035               0.000000000               0.477022473               0.059408517               0.000000000               0.500000000               0.062500000               0.000000000               0.130444442               0.025947013               0.000000000               0.153541665               0.032137825               0.000000000               0.176638887               0.038328636               0.000000000               0.199736109               0.044519448               0.000000000               0.222833332               0.050710260               0.000000000               0.245930554               0.056901071               0.000000000               0.269027776               0.063091883               0.000000000               0.292124999               0.069282695               0.000000000               0.315222221               0.075473506               0.000000000               0.338319444               0.081664318               0.000000000               0.361416666               0.087855130               0.000000000               0.384513888               0.094045942               0.000000000               0.407611111               0.100236753               0.000000000               0.430708333               0.106427565               0.000000000               0.453805555               0.112618377               0.000000000               0.476902778               0.118809188               0.000000000               0.500000000               0.125000000               0.000000000               0.127273065               0.038607862               0.000000000               0.150568498               0.047913621               0.000000000               0.173863932               0.057219379               0.000000000               0.197159365               0.066525138               0.000000000               0.220454798               0.075830897               0.000000000               0.243750232               0.085136655               0.000000000               0.267045665               0.094442414               0.000000000               0.290341099               0.103748172               0.000000000               0.313636532               0.113053931               0.000000000               0.336931966               0.122359690               0.000000000               0.360227399               0.131665448               0.000000000               0.383522833               0.140971207               0.000000000               0.406818266               0.150276966               0.000000000               0.430113700               0.159582724               0.000000000               0.453409133               0.168888483               0.000000000               0.476704567               0.178194241               0.000000000               0.500000000               0.187500000               0.000000000               0.122875978               0.050896897               0.000000000               0.146446229               0.063340840               0.000000000               0.170016481               0.075784784               0.000000000               0.193586732               0.088228728               0.000000000               0.217156983               0.100672672               0.000000000               0.240727235               0.113116616               0.000000000               0.264297486               0.125560560               0.000000000               0.287867738               0.138004504               0.000000000               0.311437989               0.150448448               0.000000000               0.335008240               0.162892392               0.000000000               0.358578492               0.175336336               0.000000000               0.382148743               0.187780280               0.000000000               0.405718994               0.200224224               0.000000000               0.429289246               0.212668168               0.000000000               0.452859497               0.225112112               0.000000000               0.476429749               0.237556056               0.000000000               0.500000000               0.250000000               0.000000000               0.117295528               0.062695766               0.000000000               0.141214558               0.078308531               0.000000000               0.165133587               0.093921295               0.000000000               0.189052617               0.109534060               0.000000000               0.212971646               0.125146824               0.000000000               0.236890676               0.140759589               0.000000000               0.260809705               0.156372354               0.000000000               0.284728735               0.171985118               0.000000000               0.308647764               0.187597883               0.000000000               0.332566794               0.203210648               0.000000000               0.356485823               0.218823412               0.000000000               0.380404853               0.234436177               0.000000000               0.404323882               0.250048941               0.000000000               0.428242912               0.265661706               0.000000000               0.452161941               0.281274471               0.000000000               0.476080971               0.296887235               0.000000000               0.500000000               0.312500000               0.000000000               0.110585458               0.073890841               0.000000000               0.134923867               0.092710163               0.000000000               0.159262276               0.111529486               0.000000000               0.183600685               0.130348808               0.000000000               0.207939094               0.149168131               0.000000000               0.232277503               0.167987453               0.000000000               0.256615912               0.186806776               0.000000000               0.280954320               0.205626098               0.000000000               0.305292729               0.224445420               0.000000000               0.329631138               0.243264743               0.000000000               0.353969547               0.262084065               0.000000000               0.378307956               0.280903388               0.000000000               0.402646365               0.299722710               0.000000000               0.426984773               0.318542033               0.000000000               0.451323182               0.337361355               0.000000000               0.475661591               0.356180678               0.000000000               0.500000000               0.375000000               0.000000000               0.102810390               0.084374307               0.000000000               0.127634741               0.106444663               0.000000000               0.152459092               0.128515018               0.000000000               0.177283442               0.150585374               0.000000000               0.202107793               0.172655730               0.000000000               0.226932143               0.194726086               0.000000000               0.251756494               0.216796442               0.000000000               0.276580845               0.238866798               0.000000000               0.301405195               0.260937153               0.000000000               0.326229546               0.283007509               0.000000000               0.351053896               0.305077865               0.000000000               0.375878247               0.327148221               0.000000000               0.400702598               0.349218577               0.000000000               0.425526948               0.371288933               0.000000000               0.450351299               0.393359288               0.000000000               0.475175649               0.415429644               0.000000000               0.500000000               0.437500000               0.000000000               0.094045202               0.094045202               0.000000000               0.119417377               0.119417377               0.000000000               0.144789552               0.144789552               0.000000000               0.170161727               0.170161727               0.000000000               0.195533901               0.195533901               0.000000000               0.220906076               0.220906076               0.000000000               0.246278251               0.246278251               0.000000000               0.271650426               0.271650426               0.000000000               0.297022601               0.297022601               0.000000000               0.322394776               0.322394776               0.000000000               0.347766951               0.347766951               0.000000000               0.373139126               0.373139126               0.000000000               0.398511300               0.398511300               0.000000000               0.423883475               0.423883475               0.000000000               0.449255650               0.449255650               0.000000000               0.474627825               0.474627825               0.000000000               0.500000000               0.500000000               0.000000000               0.084374307               0.102810390               0.000000000               0.106444663               0.127634741               0.000000000               0.128515018               0.152459092               0.000000000               0.150585374               0.177283442               0.000000000               0.172655730               0.202107793               0.000000000               0.194726086               0.226932143               0.000000000               0.216796442               0.251756494               0.000000000               0.238866798               0.276580845               0.000000000               0.260937153               0.301405195               0.000000000               0.283007509               0.326229546               0.000000000               0.305077865               0.351053896               0.000000000               0.327148221               0.375878247               0.000000000               0.349218577               0.400702598               0.000000000               0.371288933               0.425526948               0.000000000               0.393359288               0.450351299               0.000000000               0.415429644               0.475175649               0.000000000               0.437500000               0.500000000               0.000000000               0.073890841               0.110585458               0.000000000               0.092710163               0.134923867               0.000000000               0.111529486               0.159262276               0.000000000               0.130348808               0.183600685               0.000000000               0.149168131               0.207939094               0.000000000               0.167987453               0.232277503               0.000000000               0.186806776               0.256615912               0.000000000               0.205626098               0.280954320               0.000000000               0.224445420               0.305292729               0.000000000               0.243264743               0.329631138               0.000000000               0.262084065               0.353969547               0.000000000               0.280903388               0.378307956               0.000000000               0.299722710               0.402646365               0.000000000               0.318542033               0.426984773               0.000000000               0.337361355               0.451323182               0.000000000               0.356180678               0.475661591               0.000000000               0.375000000               0.500000000               0.000000000               0.062695766               0.117295528               0.000000000               0.078308531               0.141214558               0.000000000               0.093921295               0.165133587               0.000000000               0.109534060               0.189052617               0.000000000               0.125146824               0.212971646               0.000000000               0.140759589               0.236890676               0.000000000               0.156372354               0.260809705               0.000000000               0.171985118               0.284728735               0.000000000               0.187597883               0.308647764               0.000000000               0.203210648               0.332566794               0.000000000               0.218823412               0.356485823               0.000000000               0.234436177               0.380404853               0.000000000               0.250048941               0.404323882               0.000000000               0.265661706               0.428242912               0.000000000               0.281274471               0.452161941               0.000000000               0.296887235               0.476080971               0.000000000               0.312500000               0.500000000               0.000000000               0.050896897               0.122875978               0.000000000               0.063340840               0.146446229               0.000000000               0.075784784               0.170016481               0.000000000               0.088228728               0.193586732               0.000000000               0.100672672               0.217156983               0.000000000               0.113116616               0.240727235               0.000000000               0.125560560               0.264297486               0.000000000               0.138004504               0.287867738               0.000000000               0.150448448               0.311437989               0.000000000               0.162892392               0.335008240               0.000000000               0.175336336               0.358578492               0.000000000               0.187780280               0.382148743               0.000000000               0.200224224               0.405718994               0.000000000               0.212668168               0.429289246               0.000000000               0.225112112               0.452859497               0.000000000               0.237556056               0.476429749               0.000000000               0.250000000               0.500000000               0.000000000               0.038607862               0.127273065               0.000000000               0.047913621               0.150568498               0.000000000               0.057219379               0.173863932               0.000000000               0.066525138               0.197159365               0.000000000               0.075830897               0.220454798               0.000000000               0.085136655               0.243750232               0.000000000               0.094442414               0.267045665               0.000000000               0.103748172               0.290341099               0.000000000               0.113053931               0.313636532               0.000000000               0.122359690               0.336931966               0.000000000               0.131665448               0.360227399               0.000000000               0.140971207               0.383522833               0.000000000               0.150276966               0.406818266               0.000000000               0.159582724               0.430113700               0.000000000               0.168888483               0.453409133               0.000000000               0.178194241               0.476704567               0.000000000               0.187500000               0.500000000               0.000000000               0.025947013               0.130444442               0.000000000               0.032137825               0.153541665               0.000000000               0.038328636               0.176638887               0.000000000               0.044519448               0.199736109               0.000000000               0.050710260               0.222833332               0.000000000               0.056901071               0.245930554               0.000000000               0.063091883               0.269027776               0.000000000               0.069282695               0.292124999               0.000000000               0.075473506               0.315222221               0.000000000               0.081664318               0.338319444               0.000000000               0.087855130               0.361416666               0.000000000               0.094045942               0.384513888               0.000000000               0.100236753               0.407611111               0.000000000               0.106427565               0.430708333               0.000000000               0.112618377               0.453805555               0.000000000               0.118809188               0.476902778               0.000000000               0.125000000               0.500000000               0.000000000               0.013036280               0.132359569               0.000000000               0.016127762               0.155337096               0.000000000               0.019219245               0.178314623               0.000000000               0.022310727               0.201292150               0.000000000               0.025402210               0.224269676               0.000000000               0.028493692               0.247247203               0.000000000               0.031585175               0.270224730               0.000000000               0.034676657               0.293202257               0.000000000               0.037768140               0.316179784               0.000000000               0.040859622               0.339157311               0.000000000               0.043951105               0.362134838               0.000000000               0.047042587               0.385112365               0.000000000               0.050134070               0.408089892               0.000000000               0.053225552               0.431067419               0.000000000               0.056317035               0.454044946               0.000000000               0.059408517               0.477022473               0.000000000               0.062500000               0.500000000               0.000000000               0.000000000               0.133000000               0.000000000               0.000000000               0.155937500               0.000000000               0.000000000               0.178875000               0.000000000               0.000000000               0.201812500               0.000000000               0.000000000               0.224750000               0.000000000               0.000000000               0.247687500               0.000000000               0.000000000               0.270625000               0.000000000               0.000000000               0.293562500               0.000000000               0.000000000               0.316500000               0.000000000               0.000000000               0.339437500               0.000000000               0.000000000               0.362375000               0.000000000               0.000000000               0.385312500               0.000000000               0.000000000               0.408250000               0.000000000               0.000000000               0.431187500               0.000000000               0.000000000               0.454125000               0.000000000               0.000000000               0.477062500               0.000000000               0.000000000               0.500000000               0.000000000               0.133000000               0.000000000               0.000000000               0.155937500               0.000000000               0.000000000               0.178875000               0.000000000               0.000000000               0.201812500               0.000000000               0.000000000               0.224750000               0.000000000               0.000000000               0.247687500               0.000000000               0.000000000               0.270625000               0.000000000               0.000000000               0.293562500               0.000000000               0.000000000               0.316500000               0.000000000               0.000000000               0.339437500               0.000000000               0.000000000               0.362375000               0.000000000               0.000000000               0.385312500               0.000000000               0.000000000               0.408250000               0.000000000               0.000000000               0.431187500               0.000000000               0.000000000               0.454125000               0.000000000               0.000000000               0.477062500               0.000000000               0.000000000               0.500000000               0.000000000               0.000000000               0.132359569              -0.013036280               0.000000000               0.155337096              -0.016127762               0.000000000               0.178314623              -0.019219245               0.000000000               0.201292150              -0.022310727               0.000000000               0.224269676              -0.025402210               0.000000000               0.247247203              -0.028493692               0.000000000               0.270224730              -0.031585175               0.000000000               0.293202257              -0.034676657               0.000000000               0.316179784              -0.037768140               0.000000000               0.339157311              -0.040859622               0.000000000               0.362134838              -0.043951105               0.000000000               0.385112365              -0.047042587               0.000000000               0.408089892              -0.050134070               0.000000000               0.431067419              -0.053225552               0.000000000               0.454044946              -0.056317035               0.000000000               0.477022473              -0.059408517               0.000000000               0.500000000              -0.062500000               0.000000000               0.130444442              -0.025947013               0.000000000               0.153541665              -0.032137825               0.000000000               0.176638887              -0.038328636               0.000000000               0.199736109              -0.044519448               0.000000000               0.222833332              -0.050710260               0.000000000               0.245930554              -0.056901071               0.000000000               0.269027776              -0.063091883               0.000000000               0.292124999              -0.069282695               0.000000000               0.315222221              -0.075473506               0.000000000               0.338319444              -0.081664318               0.000000000               0.361416666              -0.087855130               0.000000000               0.384513888              -0.094045942               0.000000000               0.407611111              -0.100236753               0.000000000               0.430708333              -0.106427565               0.000000000               0.453805555              -0.112618377               0.000000000               0.476902778              -0.118809188               0.000000000               0.500000000              -0.125000000               0.000000000               0.127273065              -0.038607862               0.000000000               0.150568498              -0.047913621               0.000000000               0.173863932              -0.057219379               0.000000000               0.197159365              -0.066525138               0.000000000               0.220454798              -0.075830897               0.000000000               0.243750232              -0.085136655               0.000000000               0.267045665              -0.094442414               0.000000000               0.290341099              -0.103748172               0.000000000               0.313636532              -0.113053931               0.000000000               0.336931966              -0.122359690               0.000000000               0.360227399              -0.131665448               0.000000000               0.383522833              -0.140971207               0.000000000               0.406818266              -0.150276966               0.000000000               0.430113700              -0.159582724               0.000000000               0.453409133              -0.168888483               0.000000000               0.476704567              -0.178194241               0.000000000               0.500000000              -0.187500000               0.000000000               0.122875978              -0.050896897               0.000000000               0.146446229              -0.063340840               0.000000000               0.170016481              -0.075784784               0.000000000               0.193586732              -0.088228728               0.000000000               0.217156983              -0.100672672               0.000000000               0.240727235              -0.113116616               0.000000000               0.264297486              -0.125560560               0.000000000               0.287867738              -0.138004504               0.000000000               0.311437989              -0.150448448               0.000000000               0.335008240              -0.162892392               0.000000000               0.358578492              -0.175336336               0.000000000               0.382148743              -0.187780280               0.000000000               0.405718994              -0.200224224               0.000000000               0.429289246              -0.212668168               0.000000000               0.452859497              -0.225112112               0.000000000               0.476429749              -0.237556056               0.000000000               0.500000000              -0.250000000               0.000000000               0.117295528              -0.062695766               0.000000000               0.141214558              -0.078308531               0.000000000               0.165133587              -0.093921295               0.000000000               0.189052617              -0.109534060               0.000000000               0.212971646              -0.125146824               0.000000000               0.236890676              -0.140759589               0.000000000               0.260809705              -0.156372354               0.000000000               0.284728735              -0.171985118               0.000000000               0.308647764              -0.187597883               0.000000000               0.332566794              -0.203210648               0.000000000               0.356485823              -0.218823412               0.000000000               0.380404853              -0.234436177               0.000000000               0.404323882              -0.250048941               0.000000000               0.428242912              -0.265661706               0.000000000               0.452161941              -0.281274471               0.000000000               0.476080971              -0.296887235               0.000000000               0.500000000              -0.312500000               0.000000000               0.110585458              -0.073890841               0.000000000               0.134923867              -0.092710163               0.000000000               0.159262276              -0.111529486               0.000000000               0.183600685              -0.130348808               0.000000000               0.207939094              -0.149168131               0.000000000               0.232277503              -0.167987453               0.000000000               0.256615912              -0.186806776               0.000000000               0.280954320              -0.205626098               0.000000000               0.305292729              -0.224445420               0.000000000               0.329631138              -0.243264743               0.000000000               0.353969547              -0.262084065               0.000000000               0.378307956              -0.280903388               0.000000000               0.402646365              -0.299722710               0.000000000               0.426984773              -0.318542033               0.000000000               0.451323182              -0.337361355               0.000000000               0.475661591              -0.356180678               0.000000000               0.500000000              -0.375000000               0.000000000               0.102810390              -0.084374307               0.000000000               0.127634741              -0.106444663               0.000000000               0.152459092              -0.128515018               0.000000000               0.177283442              -0.150585374               0.000000000               0.202107793              -0.172655730               0.000000000               0.226932143              -0.194726086               0.000000000               0.251756494              -0.216796442               0.000000000               0.276580845              -0.238866798               0.000000000               0.301405195              -0.260937153               0.000000000               0.326229546              -0.283007509               0.000000000               0.351053896              -0.305077865               0.000000000               0.375878247              -0.327148221               0.000000000               0.400702598              -0.349218577               0.000000000               0.425526948              -0.371288933               0.000000000               0.450351299              -0.393359288               0.000000000               0.475175649              -0.415429644               0.000000000               0.500000000              -0.437500000               0.000000000               0.094045202              -0.094045202               0.000000000               0.119417377              -0.119417377               0.000000000               0.144789552              -0.144789552               0.000000000               0.170161727              -0.170161727               0.000000000               0.195533901              -0.195533901               0.000000000               0.220906076              -0.220906076               0.000000000               0.246278251              -0.246278251               0.000000000               0.271650426              -0.271650426               0.000000000               0.297022601              -0.297022601               0.000000000               0.322394776              -0.322394776               0.000000000               0.347766951              -0.347766951               0.000000000               0.373139126              -0.373139126               0.000000000               0.398511300              -0.398511300               0.000000000               0.423883475              -0.423883475               0.000000000               0.449255650              -0.449255650               0.000000000               0.474627825              -0.474627825               0.000000000               0.500000000              -0.500000000               0.000000000               0.084374307              -0.102810390               0.000000000               0.106444663              -0.127634741               0.000000000               0.128515018              -0.152459092               0.000000000               0.150585374              -0.177283442               0.000000000               0.172655730              -0.202107793               0.000000000               0.194726086              -0.226932143               0.000000000               0.216796442              -0.251756494               0.000000000               0.238866798              -0.276580845               0.000000000               0.260937153              -0.301405195               0.000000000               0.283007509              -0.326229546               0.000000000               0.305077865              -0.351053896               0.000000000               0.327148221              -0.375878247               0.000000000               0.349218577              -0.400702598               0.000000000               0.371288933              -0.425526948               0.000000000               0.393359288              -0.450351299               0.000000000               0.415429644              -0.475175649               0.000000000               0.437500000              -0.500000000               0.000000000               0.073890841              -0.110585458               0.000000000               0.092710163              -0.134923867               0.000000000               0.111529486              -0.159262276               0.000000000               0.130348808              -0.183600685               0.000000000               0.149168131              -0.207939094               0.000000000               0.167987453              -0.232277503               0.000000000               0.186806776              -0.256615912               0.000000000               0.205626098              -0.280954320               0.000000000               0.224445420              -0.305292729               0.000000000               0.243264743              -0.329631138               0.000000000               0.262084065              -0.353969547               0.000000000               0.280903388              -0.378307956               0.000000000               0.299722710              -0.402646365               0.000000000               0.318542033              -0.426984773               0.000000000               0.337361355              -0.451323182               0.000000000               0.356180678              -0.475661591               0.000000000               0.375000000              -0.500000000               0.000000000               0.062695766              -0.117295528               0.000000000               0.078308531              -0.141214558               0.000000000               0.093921295              -0.165133587               0.000000000               0.109534060              -0.189052617               0.000000000               0.125146824              -0.212971646               0.000000000               0.140759589              -0.236890676               0.000000000               0.156372354              -0.260809705               0.000000000               0.171985118              -0.284728735               0.000000000               0.187597883              -0.308647764               0.000000000               0.203210648              -0.332566794               0.000000000               0.218823412              -0.356485823               0.000000000               0.234436177              -0.380404853               0.000000000               0.250048941              -0.404323882               0.000000000               0.265661706              -0.428242912               0.000000000               0.281274471              -0.452161941               0.000000000               0.296887235              -0.476080971               0.000000000               0.312500000              -0.500000000               0.000000000               0.050896897              -0.122875978               0.000000000               0.063340840              -0.146446229               0.000000000               0.075784784              -0.170016481               0.000000000               0.088228728              -0.193586732               0.000000000               0.100672672              -0.217156983               0.000000000               0.113116616              -0.240727235               0.000000000               0.125560560              -0.264297486               0.000000000               0.138004504              -0.287867738               0.000000000               0.150448448              -0.311437989               0.000000000               0.162892392              -0.335008240               0.000000000               0.175336336              -0.358578492               0.000000000               0.187780280              -0.382148743               0.000000000               0.200224224              -0.405718994               0.000000000               0.212668168              -0.429289246               0.000000000               0.225112112              -0.452859497               0.000000000               0.237556056              -0.476429749               0.000000000               0.250000000              -0.500000000               0.000000000               0.038607862              -0.127273065               0.000000000               0.047913621              -0.150568498               0.000000000               0.057219379              -0.173863932               0.000000000               0.066525138              -0.197159365               0.000000000               0.075830897              -0.220454798               0.000000000               0.085136655              -0.243750232               0.000000000               0.094442414              -0.267045665               0.000000000               0.103748172              -0.290341099               0.000000000               0.113053931              -0.313636532               0.000000000               0.122359690              -0.336931966               0.000000000               0.131665448              -0.360227399               0.000000000               0.140971207              -0.383522833               0.000000000               0.150276966              -0.406818266               0.000000000               0.159582724              -0.430113700               0.000000000               0.168888483              -0.453409133               0.000000000               0.178194241              -0.476704567               0.000000000               0.187500000              -0.500000000               0.000000000               0.025947013              -0.130444442               0.000000000               0.032137825              -0.153541665               0.000000000               0.038328636              -0.176638887               0.000000000               0.044519448              -0.199736109               0.000000000               0.050710260              -0.222833332               0.000000000               0.056901071              -0.245930554               0.000000000               0.063091883              -0.269027776               0.000000000               0.069282695              -0.292124999               0.000000000               0.075473506              -0.315222221               0.000000000               0.081664318              -0.338319444               0.000000000               0.087855130              -0.361416666               0.000000000               0.094045942              -0.384513888               0.000000000               0.100236753              -0.407611111               0.000000000               0.106427565              -0.430708333               0.000000000               0.112618377              -0.453805555               0.000000000               0.118809188              -0.476902778               0.000000000               0.125000000              -0.500000000               0.000000000               0.013036280              -0.132359569               0.000000000               0.016127762              -0.155337096               0.000000000               0.019219245              -0.178314623               0.000000000               0.022310727              -0.201292150               0.000000000               0.025402210              -0.224269676               0.000000000               0.028493692              -0.247247203               0.000000000               0.031585175              -0.270224730               0.000000000               0.034676657              -0.293202257               0.000000000               0.037768140              -0.316179784               0.000000000               0.040859622              -0.339157311               0.000000000               0.043951105              -0.362134838               0.000000000               0.047042587              -0.385112365               0.000000000               0.050134070              -0.408089892               0.000000000               0.053225552              -0.431067419               0.000000000               0.056317035              -0.454044946               0.000000000               0.059408517              -0.477022473               0.000000000               0.062500000              -0.500000000               0.000000000               0.000000000              -0.133000000               0.000000000               0.000000000              -0.155937500               0.000000000               0.000000000              -0.178875000               0.000000000               0.000000000              -0.201812500               0.000000000               0.000000000              -0.224750000               0.000000000               0.000000000              -0.247687500               0.000000000               0.000000000              -0.270625000               0.000000000               0.000000000              -0.293562500               0.000000000               0.000000000              -0.316500000               0.000000000               0.000000000              -0.339437500               0.000000000               0.000000000              -0.362375000               0.000000000               0.000000000              -0.385312500               0.000000000               0.000000000              -0.408250000               0.000000000               0.000000000              -0.431187500               0.000000000               0.000000000              -0.454125000               0.000000000               0.000000000              -0.477062500               0.000000000               0.000000000              -0.500000000               0.000000000              -0.133000000               0.000000000               0.000000000              -0.155937500               0.000000000               0.000000000              -0.178875000               0.000000000               0.000000000              -0.201812500               0.000000000               0.000000000              -0.224750000               0.000000000               0.000000000              -0.247687500               0.000000000               0.000000000              -0.270625000               0.000000000               0.000000000              -0.293562500               0.000000000               0.000000000              -0.316500000               0.000000000               0.000000000              -0.339437500               0.000000000               0.000000000              -0.362375000               0.000000000               0.000000000              -0.385312500               0.000000000               0.000000000              -0.408250000               0.000000000               0.000000000              -0.431187500               0.000000000               0.000000000              -0.454125000               0.000000000               0.000000000              -0.477062500               0.000000000               0.000000000              -0.500000000               0.000000000               0.000000000              -0.132359569              -0.013036280               0.000000000              -0.155337096              -0.016127762               0.000000000              -0.178314623              -0.019219245               0.000000000              -0.201292150              -0.022310727               0.000000000              -0.224269676              -0.025402210               0.000000000              -0.247247203              -0.028493692               0.000000000              -0.270224730              -0.031585175               0.000000000              -0.293202257              -0.034676657               0.000000000              -0.316179784              -0.037768140               0.000000000              -0.339157311              -0.040859622               0.000000000              -0.362134838              -0.043951105               0.000000000              -0.385112365              -0.047042587               0.000000000              -0.408089892              -0.050134070               0.000000000              -0.431067419              -0.053225552               0.000000000              -0.454044946              -0.056317035               0.000000000              -0.477022473              -0.059408517               0.000000000              -0.500000000              -0.062500000               0.000000000              -0.130444442              -0.025947013               0.000000000              -0.153541665              -0.032137825               0.000000000              -0.176638887              -0.038328636               0.000000000              -0.199736109              -0.044519448               0.000000000              -0.222833332              -0.050710260               0.000000000              -0.245930554              -0.056901071               0.000000000              -0.269027776              -0.063091883               0.000000000              -0.292124999              -0.069282695               0.000000000              -0.315222221              -0.075473506               0.000000000              -0.338319444              -0.081664318               0.000000000              -0.361416666              -0.087855130               0.000000000              -0.384513888              -0.094045942               0.000000000              -0.407611111              -0.100236753               0.000000000              -0.430708333              -0.106427565               0.000000000              -0.453805555              -0.112618377               0.000000000              -0.476902778              -0.118809188               0.000000000              -0.500000000              -0.125000000               0.000000000              -0.127273065              -0.038607862               0.000000000              -0.150568498              -0.047913621               0.000000000              -0.173863932              -0.057219379               0.000000000              -0.197159365              -0.066525138               0.000000000              -0.220454798              -0.075830897               0.000000000              -0.243750232              -0.085136655               0.000000000              -0.267045665              -0.094442414               0.000000000              -0.290341099              -0.103748172               0.000000000              -0.313636532              -0.113053931               0.000000000              -0.336931966              -0.122359690               0.000000000              -0.360227399              -0.131665448               0.000000000              -0.383522833              -0.140971207               0.000000000              -0.406818266              -0.150276966               0.000000000              -0.430113700              -0.159582724               0.000000000              -0.453409133              -0.168888483               0.000000000              -0.476704567              -0.178194241               0.000000000              -0.500000000              -0.187500000               0.000000000              -0.122875978              -0.050896897               0.000000000              -0.146446229              -0.063340840               0.000000000              -0.170016481              -0.075784784               0.000000000              -0.193586732              -0.088228728               0.000000000              -0.217156983              -0.100672672               0.000000000              -0.240727235              -0.113116616               0.000000000              -0.264297486              -0.125560560               0.000000000              -0.287867738              -0.138004504               0.000000000              -0.311437989              -0.150448448               0.000000000              -0.335008240              -0.162892392               0.000000000              -0.358578492              -0.175336336               0.000000000              -0.382148743              -0.187780280               0.000000000              -0.405718994              -0.200224224               0.000000000              -0.429289246              -0.212668168               0.000000000              -0.452859497              -0.225112112               0.000000000              -0.476429749              -0.237556056               0.000000000              -0.500000000              -0.250000000               0.000000000              -0.117295528              -0.062695766               0.000000000              -0.141214558              -0.078308531               0.000000000              -0.165133587              -0.093921295               0.000000000              -0.189052617              -0.109534060               0.000000000              -0.212971646              -0.125146824               0.000000000              -0.236890676              -0.140759589               0.000000000              -0.260809705              -0.156372354               0.000000000              -0.284728735              -0.171985118               0.000000000              -0.308647764              -0.187597883               0.000000000              -0.332566794              -0.203210648               0.000000000              -0.356485823              -0.218823412               0.000000000              -0.380404853              -0.234436177               0.000000000              -0.404323882              -0.250048941               0.000000000              -0.428242912              -0.265661706               0.000000000              -0.452161941              -0.281274471               0.000000000              -0.476080971              -0.296887235               0.000000000              -0.500000000              -0.312500000               0.000000000              -0.110585458              -0.073890841               0.000000000              -0.134923867              -0.092710163               0.000000000              -0.159262276              -0.111529486               0.000000000              -0.183600685              -0.130348808               0.000000000              -0.207939094              -0.149168131               0.000000000              -0.232277503              -0.167987453               0.000000000              -0.256615912              -0.186806776               0.000000000              -0.280954320              -0.205626098               0.000000000              -0.305292729              -0.224445420               0.000000000              -0.329631138              -0.243264743               0.000000000              -0.353969547              -0.262084065               0.000000000              -0.378307956              -0.280903388               0.000000000              -0.402646365              -0.299722710               0.000000000              -0.426984773              -0.318542033               0.000000000              -0.451323182              -0.337361355               0.000000000              -0.475661591              -0.356180678               0.000000000              -0.500000000              -0.375000000               0.000000000              -0.102810390              -0.084374307               0.000000000              -0.127634741              -0.106444663               0.000000000              -0.152459092              -0.128515018               0.000000000              -0.177283442              -0.150585374               0.000000000              -0.202107793              -0.172655730               0.000000000              -0.226932143              -0.194726086               0.000000000              -0.251756494              -0.216796442               0.000000000              -0.276580845              -0.238866798               0.000000000              -0.301405195              -0.260937153               0.000000000              -0.326229546              -0.283007509               0.000000000              -0.351053896              -0.305077865               0.000000000              -0.375878247              -0.327148221               0.000000000              -0.400702598              -0.349218577               0.000000000              -0.425526948              -0.371288933               0.000000000              -0.450351299              -0.393359288               0.000000000              -0.475175649              -0.415429644               0.000000000              -0.500000000              -0.437500000               0.000000000              -0.094045202              -0.094045202               0.000000000              -0.119417377              -0.119417377               0.000000000              -0.144789552              -0.144789552               0.000000000              -0.170161727              -0.170161727               0.000000000              -0.195533901              -0.195533901               0.000000000              -0.220906076              -0.220906076               0.000000000              -0.246278251              -0.246278251               0.000000000              -0.271650426              -0.271650426               0.000000000              -0.297022601              -0.297022601               0.000000000              -0.322394776              -0.322394776               0.000000000              -0.347766951              -0.347766951               0.000000000              -0.373139126              -0.373139126               0.000000000              -0.398511300              -0.398511300               0.000000000              -0.423883475              -0.423883475               0.000000000              -0.449255650              -0.449255650               0.000000000              -0.474627825              -0.474627825               0.000000000              -0.500000000              -0.500000000               0.000000000              -0.084374307              -0.102810390               0.000000000              -0.106444663              -0.127634741               0.000000000              -0.128515018              -0.152459092               0.000000000              -0.150585374              -0.177283442               0.000000000              -0.172655730              -0.202107793               0.000000000              -0.194726086              -0.226932143               0.000000000              -0.216796442              -0.251756494               0.000000000              -0.238866798              -0.276580845               0.000000000              -0.260937153              -0.301405195               0.000000000              -0.283007509              -0.326229546               0.000000000              -0.305077865              -0.351053896               0.000000000              -0.327148221              -0.375878247               0.000000000              -0.349218577              -0.400702598               0.000000000              -0.371288933              -0.425526948               0.000000000              -0.393359288              -0.450351299               0.000000000              -0.415429644              -0.475175649               0.000000000              -0.437500000              -0.500000000               0.000000000              -0.073890841              -0.110585458               0.000000000              -0.092710163              -0.134923867               0.000000000              -0.111529486              -0.159262276               0.000000000              -0.130348808              -0.183600685               0.000000000              -0.149168131              -0.207939094               0.000000000              -0.167987453              -0.232277503               0.000000000              -0.186806776              -0.256615912               0.000000000              -0.205626098              -0.280954320               0.000000000              -0.224445420              -0.305292729               0.000000000              -0.243264743              -0.329631138               0.000000000              -0.262084065              -0.353969547               0.000000000              -0.280903388              -0.378307956               0.000000000              -0.299722710              -0.402646365               0.000000000              -0.318542033              -0.426984773               0.000000000              -0.337361355              -0.451323182               0.000000000              -0.356180678              -0.475661591               0.000000000              -0.375000000              -0.500000000               0.000000000              -0.062695766              -0.117295528               0.000000000              -0.078308531              -0.141214558               0.000000000              -0.093921295              -0.165133587               0.000000000              -0.109534060              -0.189052617               0.000000000              -0.125146824              -0.212971646               0.000000000              -0.140759589              -0.236890676               0.000000000              -0.156372354              -0.260809705               0.000000000              -0.171985118              -0.284728735               0.000000000              -0.187597883              -0.308647764               0.000000000              -0.203210648              -0.332566794               0.000000000              -0.218823412              -0.356485823               0.000000000              -0.234436177              -0.380404853               0.000000000              -0.250048941              -0.404323882               0.000000000              -0.265661706              -0.428242912               0.000000000              -0.281274471              -0.452161941               0.000000000              -0.296887235              -0.476080971               0.000000000              -0.312500000              -0.500000000               0.000000000              -0.050896897              -0.122875978               0.000000000              -0.063340840              -0.146446229               0.000000000              -0.075784784              -0.170016481               0.000000000              -0.088228728              -0.193586732               0.000000000              -0.100672672              -0.217156983               0.000000000              -0.113116616              -0.240727235               0.000000000              -0.125560560              -0.264297486               0.000000000              -0.138004504              -0.287867738               0.000000000              -0.150448448              -0.311437989               0.000000000              -0.162892392              -0.335008240               0.000000000              -0.175336336              -0.358578492               0.000000000              -0.187780280              -0.382148743               0.000000000              -0.200224224              -0.405718994               0.000000000              -0.212668168              -0.429289246               0.000000000              -0.225112112              -0.452859497               0.000000000              -0.237556056              -0.476429749               0.000000000              -0.250000000              -0.500000000               0.000000000              -0.038607862              -0.127273065               0.000000000              -0.047913621              -0.150568498               0.000000000              -0.057219379              -0.173863932               0.000000000              -0.066525138              -0.197159365               0.000000000              -0.075830897              -0.220454798               0.000000000              -0.085136655              -0.243750232               0.000000000              -0.094442414              -0.267045665               0.000000000              -0.103748172              -0.290341099               0.000000000              -0.113053931              -0.313636532               0.000000000              -0.122359690              -0.336931966               0.000000000              -0.131665448              -0.360227399               0.000000000              -0.140971207              -0.383522833               0.000000000              -0.150276966              -0.406818266               0.000000000              -0.159582724              -0.430113700               0.000000000              -0.168888483              -0.453409133               0.000000000              -0.178194241              -0.476704567               0.000000000              -0.187500000              -0.500000000               0.000000000              -0.025947013              -0.130444442               0.000000000              -0.032137825              -0.153541665               0.000000000              -0.038328636              -0.176638887               0.000000000              -0.044519448              -0.199736109               0.000000000              -0.050710260              -0.222833332               0.000000000              -0.056901071              -0.245930554               0.000000000              -0.063091883              -0.269027776               0.000000000              -0.069282695              -0.292124999               0.000000000              -0.075473506              -0.315222221               0.000000000              -0.081664318              -0.338319444               0.000000000              -0.087855130              -0.361416666               0.000000000              -0.094045942              -0.384513888               0.000000000              -0.100236753              -0.407611111               0.000000000              -0.106427565              -0.430708333               0.000000000              -0.112618377              -0.453805555               0.000000000              -0.118809188              -0.476902778               0.000000000              -0.125000000              -0.500000000               0.000000000              -0.013036280              -0.132359569               0.000000000              -0.016127762              -0.155337096               0.000000000              -0.019219245              -0.178314623               0.000000000              -0.022310727              -0.201292150               0.000000000              -0.025402210              -0.224269676               0.000000000              -0.028493692              -0.247247203               0.000000000              -0.031585175              -0.270224730               0.000000000              -0.034676657              -0.293202257               0.000000000              -0.037768140              -0.316179784               0.000000000              -0.040859622              -0.339157311               0.000000000              -0.043951105              -0.362134838               0.000000000              -0.047042587              -0.385112365               0.000000000              -0.050134070              -0.408089892               0.000000000              -0.053225552              -0.431067419               0.000000000              -0.056317035              -0.454044946               0.000000000              -0.059408517              -0.477022473               0.000000000              -0.062500000              -0.500000000               0.000000000               0.000000000              -0.133000000               0.000000000               0.000000000              -0.155937500               0.000000000               0.000000000              -0.178875000               0.000000000               0.000000000              -0.201812500               0.000000000               0.000000000              -0.224750000               0.000000000               0.000000000              -0.247687500               0.000000000               0.000000000              -0.270625000               0.000000000               0.000000000              -0.293562500               0.000000000               0.000000000              -0.316500000               0.000000000               0.000000000              -0.339437500               0.000000000               0.000000000              -0.362375000               0.000000000               0.000000000              -0.385312500               0.000000000               0.000000000              -0.408250000               0.000000000               0.000000000              -0.431187500               0.000000000               0.000000000              -0.454125000               0.000000000               0.000000000              -0.477062500               0.000000000               0.000000000              -0.500000000               0.000000000              -0.133000000               0.000000000               0.000000000              -0.155937500               0.000000000               0.000000000              -0.178875000               0.000000000               0.000000000              -0.201812500               0.000000000               0.000000000              -0.224750000               0.000000000               0.000000000              -0.247687500               0.000000000               0.000000000              -0.270625000               0.000000000               0.000000000              -0.293562500               0.000000000               0.000000000              -0.316500000               0.000000000               0.000000000              -0.339437500               0.000000000               0.000000000              -0.362375000               0.000000000               0.000000000              -0.385312500               0.000000000               0.000000000              -0.408250000               0.000000000               0.000000000              -0.431187500               0.000000000               0.000000000              -0.454125000               0.000000000               0.000000000              -0.477062500               0.000000000               0.000000000              -0.500000000               0.000000000               0.000000000              -0.132359569               0.013036280               0.000000000              -0.155337096               0.016127762               0.000000000              -0.178314623               0.019219245               0.000000000              -0.201292150               0.022310727               0.000000000              -0.224269676               0.025402210               0.000000000              -0.247247203               0.028493692               0.000000000              -0.270224730               0.031585175               0.000000000              -0.293202257               0.034676657               0.000000000              -0.316179784               0.037768140               0.000000000              -0.339157311               0.040859622               0.000000000              -0.362134838               0.043951105               0.000000000              -0.385112365               0.047042587               0.000000000              -0.408089892               0.050134070               0.000000000              -0.431067419               0.053225552               0.000000000              -0.454044946               0.056317035               0.000000000              -0.477022473               0.059408517               0.000000000              -0.500000000               0.062500000               0.000000000              -0.130444442               0.025947013               0.000000000              -0.153541665               0.032137825               0.000000000              -0.176638887               0.038328636               0.000000000              -0.199736109               0.044519448               0.000000000              -0.222833332               0.050710260               0.000000000              -0.245930554               0.056901071               0.000000000              -0.269027776               0.063091883               0.000000000              -0.292124999               0.069282695               0.000000000              -0.315222221               0.075473506               0.000000000              -0.338319444               0.081664318               0.000000000              -0.361416666               0.087855130               0.000000000              -0.384513888               0.094045942               0.000000000              -0.407611111               0.100236753               0.000000000              -0.430708333               0.106427565               0.000000000              -0.453805555               0.112618377               0.000000000              -0.476902778               0.118809188               0.000000000              -0.500000000               0.125000000               0.000000000              -0.127273065               0.038607862               0.000000000              -0.150568498               0.047913621               0.000000000              -0.173863932               0.057219379               0.000000000              -0.197159365               0.066525138               0.000000000              -0.220454798               0.075830897               0.000000000              -0.243750232               0.085136655               0.000000000              -0.267045665               0.094442414               0.000000000              -0.290341099               0.103748172               0.000000000              -0.313636532               0.113053931               0.000000000              -0.336931966               0.122359690               0.000000000              -0.360227399               0.131665448               0.000000000              -0.383522833               0.140971207               0.000000000              -0.406818266               0.150276966               0.000000000              -0.430113700               0.159582724               0.000000000              -0.453409133               0.168888483               0.000000000              -0.476704567               0.178194241               0.000000000              -0.500000000               0.187500000               0.000000000              -0.122875978               0.050896897               0.000000000              -0.146446229               0.063340840               0.000000000              -0.170016481               0.075784784               0.000000000              -0.193586732               0.088228728               0.000000000              -0.217156983               0.100672672               0.000000000              -0.240727235               0.113116616               0.000000000              -0.264297486               0.125560560               0.000000000              -0.287867738               0.138004504               0.000000000              -0.311437989               0.150448448               0.000000000              -0.335008240               0.162892392               0.000000000              -0.358578492               0.175336336               0.000000000              -0.382148743               0.187780280               0.000000000              -0.405718994               0.200224224               0.000000000              -0.429289246               0.212668168               0.000000000              -0.452859497               0.225112112               0.000000000              -0.476429749               0.237556056               0.000000000              -0.500000000               0.250000000               0.000000000              -0.117295528               0.062695766               0.000000000              -0.141214558               0.078308531               0.000000000              -0.165133587               0.093921295               0.000000000              -0.189052617               0.109534060               0.000000000              -0.212971646               0.125146824               0.000000000              -0.236890676               0.140759589               0.000000000              -0.260809705               0.156372354               0.000000000              -0.284728735               0.171985118               0.000000000              -0.308647764               0.187597883               0.000000000              -0.332566794               0.203210648               0.000000000              -0.356485823               0.218823412               0.000000000              -0.380404853               0.234436177               0.000000000              -0.404323882               0.250048941               0.000000000              -0.428242912               0.265661706               0.000000000              -0.452161941               0.281274471               0.000000000              -0.476080971               0.296887235               0.000000000              -0.500000000               0.312500000               0.000000000              -0.110585458               0.073890841               0.000000000              -0.134923867               0.092710163               0.000000000              -0.159262276               0.111529486               0.000000000              -0.183600685               0.130348808               0.000000000              -0.207939094               0.149168131               0.000000000              -0.232277503               0.167987453               0.000000000              -0.256615912               0.186806776               0.000000000              -0.280954320               0.205626098               0.000000000              -0.305292729               0.224445420               0.000000000              -0.329631138               0.243264743               0.000000000              -0.353969547               0.262084065               0.000000000              -0.378307956               0.280903388               0.000000000              -0.402646365               0.299722710               0.000000000              -0.426984773               0.318542033               0.000000000              -0.451323182               0.337361355               0.000000000              -0.475661591               0.356180678               0.000000000              -0.500000000               0.375000000               0.000000000              -0.102810390               0.084374307               0.000000000              -0.127634741               0.106444663               0.000000000              -0.152459092               0.128515018               0.000000000              -0.177283442               0.150585374               0.000000000              -0.202107793               0.172655730               0.000000000              -0.226932143               0.194726086               0.000000000              -0.251756494               0.216796442               0.000000000              -0.276580845               0.238866798               0.000000000              -0.301405195               0.260937153               0.000000000              -0.326229546               0.283007509               0.000000000              -0.351053896               0.305077865               0.000000000              -0.375878247               0.327148221               0.000000000              -0.400702598               0.349218577               0.000000000              -0.425526948               0.371288933               0.000000000              -0.450351299               0.393359288               0.000000000              -0.475175649               0.415429644               0.000000000              -0.500000000               0.437500000               0.000000000              -0.094045202               0.094045202               0.000000000              -0.119417377               0.119417377               0.000000000              -0.144789552               0.144789552               0.000000000              -0.170161727               0.170161727               0.000000000              -0.195533901               0.195533901               0.000000000              -0.220906076               0.220906076               0.000000000              -0.246278251               0.246278251               0.000000000              -0.271650426               0.271650426               0.000000000              -0.297022601               0.297022601               0.000000000              -0.322394776               0.322394776               0.000000000              -0.347766951               0.347766951               0.000000000              -0.373139126               0.373139126               0.000000000              -0.398511300               0.398511300               0.000000000              -0.423883475               0.423883475               0.000000000              -0.449255650               0.449255650               0.000000000              -0.474627825               0.474627825               0.000000000              -0.500000000               0.500000000               0.000000000              -0.084374307               0.102810390               0.000000000              -0.106444663               0.127634741               0.000000000              -0.128515018               0.152459092               0.000000000              -0.150585374               0.177283442               0.000000000              -0.172655730               0.202107793               0.000000000              -0.194726086               0.226932143               0.000000000              -0.216796442               0.251756494               0.000000000              -0.238866798               0.276580845               0.000000000              -0.260937153               0.301405195               0.000000000              -0.283007509               0.326229546               0.000000000              -0.305077865               0.351053896               0.000000000              -0.327148221               0.375878247               0.000000000              -0.349218577               0.400702598               0.000000000              -0.371288933               0.425526948               0.000000000              -0.393359288               0.450351299               0.000000000              -0.415429644               0.475175649               0.000000000              -0.437500000               0.500000000               0.000000000              -0.073890841               0.110585458               0.000000000              -0.092710163               0.134923867               0.000000000              -0.111529486               0.159262276               0.000000000              -0.130348808               0.183600685               0.000000000              -0.149168131               0.207939094               0.000000000              -0.167987453               0.232277503               0.000000000              -0.186806776               0.256615912               0.000000000              -0.205626098               0.280954320               0.000000000              -0.224445420               0.305292729               0.000000000              -0.243264743               0.329631138               0.000000000              -0.262084065               0.353969547               0.000000000              -0.280903388               0.378307956               0.000000000              -0.299722710               0.402646365               0.000000000              -0.318542033               0.426984773               0.000000000              -0.337361355               0.451323182               0.000000000              -0.356180678               0.475661591               0.000000000              -0.375000000               0.500000000               0.000000000              -0.062695766               0.117295528               0.000000000              -0.078308531               0.141214558               0.000000000              -0.093921295               0.165133587               0.000000000              -0.109534060               0.189052617               0.000000000              -0.125146824               0.212971646               0.000000000              -0.140759589               0.236890676               0.000000000              -0.156372354               0.260809705               0.000000000              -0.171985118               0.284728735               0.000000000              -0.187597883               0.308647764               0.000000000              -0.203210648               0.332566794               0.000000000              -0.218823412               0.356485823               0.000000000              -0.234436177               0.380404853               0.000000000              -0.250048941               0.404323882               0.000000000              -0.265661706               0.428242912               0.000000000              -0.281274471               0.452161941               0.000000000              -0.296887235               0.476080971               0.000000000              -0.312500000               0.500000000               0.000000000              -0.050896897               0.122875978               0.000000000              -0.063340840               0.146446229               0.000000000              -0.075784784               0.170016481               0.000000000              -0.088228728               0.193586732               0.000000000              -0.100672672               0.217156983               0.000000000              -0.113116616               0.240727235               0.000000000              -0.125560560               0.264297486               0.000000000              -0.138004504               0.287867738               0.000000000              -0.150448448               0.311437989               0.000000000              -0.162892392               0.335008240               0.000000000              -0.175336336               0.358578492               0.000000000              -0.187780280               0.382148743               0.000000000              -0.200224224               0.405718994               0.000000000              -0.212668168               0.429289246               0.000000000              -0.225112112               0.452859497               0.000000000              -0.237556056               0.476429749               0.000000000              -0.250000000               0.500000000               0.000000000              -0.038607862               0.127273065               0.000000000              -0.047913621               0.150568498               0.000000000              -0.057219379               0.173863932               0.000000000              -0.066525138               0.197159365               0.000000000              -0.075830897               0.220454798               0.000000000              -0.085136655               0.243750232               0.000000000              -0.094442414               0.267045665               0.000000000              -0.103748172               0.290341099               0.000000000              -0.113053931               0.313636532               0.000000000              -0.122359690               0.336931966               0.000000000              -0.131665448               0.360227399               0.000000000              -0.140971207               0.383522833               0.000000000              -0.150276966               0.406818266               0.000000000              -0.159582724               0.430113700               0.000000000              -0.168888483               0.453409133               0.000000000              -0.178194241               0.476704567               0.000000000              -0.187500000               0.500000000               0.000000000              -0.025947013               0.130444442               0.000000000              -0.032137825               0.153541665               0.000000000              -0.038328636               0.176638887               0.000000000              -0.044519448               0.199736109               0.000000000              -0.050710260               0.222833332               0.000000000              -0.056901071               0.245930554               0.000000000              -0.063091883               0.269027776               0.000000000              -0.069282695               0.292124999               0.000000000              -0.075473506               0.315222221               0.000000000              -0.081664318               0.338319444               0.000000000              -0.087855130               0.361416666               0.000000000              -0.094045942               0.384513888               0.000000000              -0.100236753               0.407611111               0.000000000              -0.106427565               0.430708333               0.000000000              -0.112618377               0.453805555               0.000000000              -0.118809188               0.476902778               0.000000000              -0.125000000               0.500000000               0.000000000              -0.013036280               0.132359569               0.000000000              -0.016127762               0.155337096               0.000000000              -0.019219245               0.178314623               0.000000000              -0.022310727               0.201292150               0.000000000              -0.025402210               0.224269676               0.000000000              -0.028493692               0.247247203               0.000000000              -0.031585175               0.270224730               0.000000000              -0.034676657               0.293202257               0.000000000              -0.037768140               0.316179784               0.000000000              -0.040859622               0.339157311               0.000000000              -0.043951105               0.362134838               0.000000000              -0.047042587               0.385112365               0.000000000              -0.050134070               0.408089892               0.000000000              -0.053225552               0.431067419               0.000000000              -0.056317035               0.454044946               0.000000000              -0.059408517               0.477022473               0.000000000              -0.062500000               0.500000000               0.000000000               0.000000000               0.133000000               0.000000000               0.000000000               0.155937500               0.000000000               0.000000000               0.178875000               0.000000000               0.000000000               0.201812500               0.000000000               0.000000000               0.224750000               0.000000000               0.000000000               0.247687500               0.000000000               0.000000000               0.270625000               0.000000000               0.000000000               0.293562500               0.000000000               0.000000000               0.316500000               0.000000000               0.000000000               0.339437500               0.000000000               0.000000000               0.362375000               0.000000000               0.000000000               0.385312500               0.000000000               0.000000000               0.408250000               0.000000000               0.000000000               0.431187500               0.000000000               0.000000000               0.454125000               0.000000000               0.000000000               0.477062500               0.000000000               0.000000000               0.500000000               0.000000000 </DataArray>
</Points>
<Cells>
<DataArray type="Int32"                                    Name="connectivity"                                                      NumberOfComponents=" 1" format="ascii">
         0          1         18         17          1          2         19         18          2          3         20         19          3          4         21         20          4          5         22         21          5          6         23         22          6          7         24         23          7          8         25         24          8          9         26         25          9         10         27         26         10         11         28         27         11         12         29         28         12         13         30         29         13         14         31         30         14         15         32         31         15         16         33         32         17         18         35         34         18         19         36         35         19         20         37         36         20         21         38         37         21         22         39         38         22         23         40         39         23         24         41         40         24         25         42         41         25         26         43         42         26         27         44         43         27         28         45         44         28         29         46         45         29         30         47         46         30         31         48         47         31         32         49         48         32         33         50         49         34         35         52         51         35         36         53         52         36         37         54         53         37         38         55         54         38         39         56         55         39         40         57         56         40         41         58         57         41         42         59         58         42         43         60         59         43         44         61         60         44         45         62         61         45         46         63         62         46         47         64         63         47         48         65         64         48         49         66         65         49         50         67         66         51         52         69         68         52         53         70         69         53         54         71         70         54         55         72         71         55         56         73         72         56         57         74         73         57         58         75         74         58         59         76         75         59         60         77         76         60         61         78         77         61         62         79         78         62         63         80         79         63         64         81         80         64         65         82         81         65         66         83         82         66         67         84         83         68         69         86         85         69         70         87         86         70         71         88         87         71         72         89         88         72         73         90         89         73         74         91         90         74         75         92         91         75         76         93         92         76         77         94         93         77         78         95         94         78         79         96         95         79         80         97         96         80         81         98         97         81         82         99         98         82         83        100         99         83         84        101        100         85         86        103        102         86         87        104        103         87         88        105        104         88         89        106        105         89         90        107        106         90         91        108        107         91         92        109        108         92         93        110        109         93         94        111        110         94         95        112        111         95         96        113        112         96         97        114        113         97         98        115        114         98         99        116        115         99        100        117        116        100        101        118        117        102        103        120        119        103        104        121        120        104        105        122        121        105        106        123        122        106        107        124        123        107        108        125        124        108        109        126        125        109        110        127        126        110        111        128        127        111        112        129        128        112        113        130        129        113        114        131        130        114        115        132        131        115        116        133        132        116        117        134        133        117        118        135        134        119        120        137        136        120        121        138        137        121        122        139        138        122        123        140        139        123        124        141        140        124        125        142        141        125        126        143        142        126        127        144        143        127        128        145        144        128        129        146        145        129        130        147        146        130        131        148        147        131        132        149        148        132        133        150        149        133        134        151        150        134        135        152        151        136        137        154        153        137        138        155        154        138        139        156        155        139        140        157        156        140        141        158        157        141        142        159        158        142        143        160        159        143        144        161        160        144        145        162        161        145        146        163        162        146        147        164        163        147        148        165        164        148        149        166        165        149        150        167        166        150        151        168        167        151        152        169        168        153        154        171        170        154        155        172        171        155        156        173        172        156        157        174        173        157        158        175        174        158        159        176        175        159        160        177        176        160        161        178        177        161        162        179        178        162        163        180        179        163        164        181        180        164        165        182        181        165        166        183        182        166        167        184        183        167        168        185        184        168        169        186        185        170        171        188        187        171        172        189        188        172        173        190        189        173        174        191        190        174        175        192        191        175        176        193        192        176        177        194        193        177        178        195        194        178        179        196        195        179        180        197        196        180        181        198        197        181        182        199        198        182        183        200        199        183        184        201        200        184        185        202        201        185        186        203        202        187        188        205        204        188        189        206        205        189        190        207        206        190        191        208        207        191        192        209        208        192        193        210        209        193        194        211        210        194        195        212        211        195        196        213        212        196        197        214        213        197        198        215        214        198        199        216        215        199        200        217        216        200        201        218        217        201        202        219        218        202        203        220        219        204        205        222        221        205        206        223        222        206        207        224        223        207        208        225        224        208        209        226        225        209        210        227        226        210        211        228        227        211        212        229        228        212        213        230        229        213        214        231        230        214        215        232        231        215        216        233        232        216        217        234        233        217        218        235        234        218        219        236        235        219        220        237        236        221        222        239        238        222        223        240        239        223        224        241        240        224        225        242        241        225        226        243        242        226        227        244        243        227        228        245        244        228        229        246        245        229        230        247        246        230        231        248        247        231        232        249        248        232        233        250        249        233        234        251        250        234        235        252        251        235        236        253        252        236        237        254        253        238        239        256        255        239        240        257        256        240        241        258        257        241        242        259        258        242        243        260        259        243        244        261        260        244        245        262        261        245        246        263        262        246        247        264        263        247        248        265        264        248        249        266        265        249        250        267        266        250        251        268        267        251        252        269        268        252        253        270        269        253        254        271        270        255        256        273        272        256        257        274        273        257        258        275        274        258        259        276        275        259        260        277        276        260        261        278        277        261        262        279        278        262        263        280        279        263        264        281        280        264        265        282        281        265        266        283        282        266        267        284        283        267        268        285        284        268        269        286        285        269        270        287        286        270        271        288        287        306        307          1          0        307        308          2          1        308        309          3          2        309        310          4          3        310        311          5          4        311        312          6          5        312        313          7          6        313        314          8          7        314        315          9          8        315        316         10          9        316        317         11         10        317        318         12         11        318        319         13         12        319        320         14         13        320        321         15         14        321        322         16         15        323        324        307        306        324        325        308        307        325        326        309        308        326        327        310        309        327        328        311        310        328        329        312        311        329        330        313        312        330        331        314        313        331        332        315        314        332        333        316        315        333        334        317        316        334        335        318        317        335        336        319        318        336        337        320        319        337        338        321        320        338        339        322        321        340        341        324        323        341        342        325        324        342        343        326        325        343        344        327        326        344        345        328        327        345        346        329        328        346        347        330        329        347        348        331        330        348        349        332        331        349        350        333        332        350        351        334        333        351        352        335        334        352        353        336        335        353        354        337        336        354        355        338        337        355        356        339        338        357        358        341        340        358        359        342        341        359        360        343        342        360        361        344        343        361        362        345        344        362        363        346        345        363        364        347        346        364        365        348        347        365        366        349        348        366        367        350        349        367        368        351        350        368        369        352        351        369        370        353        352        370        371        354        353        371        372        355        354        372        373        356        355        374        375        358        357        375        376        359        358        376        377        360        359        377        378        361        360        378        379        362        361        379        380        363        362        380        381        364        363        381        382        365        364        382        383        366        365        383        384        367        366        384        385        368        367        385        386        369        368        386        387        370        369        387        388        371        370        388        389        372        371        389        390        373        372        391        392        375        374        392        393        376        375        393        394        377        376        394        395        378        377        395        396        379        378        396        397        380        379        397        398        381        380        398        399        382        381        399        400        383        382        400        401        384        383        401        402        385        384        402        403        386        385        403        404        387        386        404        405        388        387        405        406        389        388        406        407        390        389        408        409        392        391        409        410        393        392        410        411        394        393        411        412        395        394        412        413        396        395        413        414        397        396        414        415        398        397        415        416        399        398        416        417        400        399        417        418        401        400        418        419        402        401        419        420        403        402        420        421        404        403        421        422        405        404        422        423        406        405        423        424        407        406        425        426        409        408        426        427        410        409        427        428        411        410        428        429        412        411        429        430        413        412        430        431        414        413        431        432        415        414        432        433        416        415        433        434        417        416        434        435        418        417        435        436        419        418        436        437        420        419        437        438        421        420        438        439        422        421        439        440        423        422        440        441        424        423        442        443        426        425        443        444        427        426        444        445        428        427        445        446        429        428        446        447        430        429        447        448        431        430        448        449        432        431        449        450        433        432        450        451        434        433        451        452        435        434        452        453        436        435        453        454        437        436        454        455        438        437        455        456        439        438        456        457        440        439        457        458        441        440        459        460        443        442        460        461        444        443        461        462        445        444        462        463        446        445        463        464        447        446        464        465        448        447        465        466        449        448        466        467        450        449        467        468        451        450        468        469        452        451        469        470        453        452        470        471        454        453        471        472        455        454        472        473        456        455        473        474        457        456        474        475        458        457        476        477        460        459        477        478        461        460        478        479        462        461        479        480        463        462        480        481        464        463        481        482        465        464        482        483        466        465        483        484        467        466        484        485        468        467        485        486        469        468        486        487        470        469        487        488        471        470        488        489        472        471        489        490        473        472        490        491        474        473        491        492        475        474        493        494        477        476        494        495        478        477        495        496        479        478        496        497        480        479        497        498        481        480        498        499        482        481        499        500        483        482        500        501        484        483        501        502        485        484        502        503        486        485        503        504        487        486        504        505        488        487        505        506        489        488        506        507        490        489        507        508        491        490        508        509        492        491        510        511        494        493        511        512        495        494        512        513        496        495        513        514        497        496        514        515        498        497        515        516        499        498        516        517        500        499        517        518        501        500        518        519        502        501        519        520        503        502        520        521        504        503        521        522        505        504        522        523        506        505        523        524        507        506        524        525        508        507        525        526        509        508        527        528        511        510        528        529        512        511        529        530        513        512        530        531        514        513        531        532        515        514        532        533        516        515        533        534        517        516        534        535        518        517        535        536        519        518        536        537        520        519        537        538        521        520        538        539        522        521        539        540        523        522        540        541        524        523        541        542        525        524        542        543        526        525        544        545        528        527        545        546        529        528        546        547        530        529        547        548        531        530        548        549        532        531        549        550        533        532        550        551        534        533        551        552        535        534        552        553        536        535        553        554        537        536        554        555        538        537        555        556        539        538        556        557        540        539        557        558        541        540        558        559        542        541        559        560        543        542        561        562        545        544        562        563        546        545        563        564        547        546        564        565        548        547        565        566        549        548        566        567        550        549        567        568        551        550        568        569        552        551        569        570        553        552        570        571        554        553        571        572        555        554        572        573        556        555        573        574        557        556        574        575        558        557        575        576        559        558        576        577        560        559        578        579        596        595        579        580        597        596        580        581        598        597        581        582        599        598        582        583        600        599        583        584        601        600        584        585        602        601        585        586        603        602        586        587        604        603        587        588        605        604        588        589        606        605        589        590        607        606        590        591        608        607        591        592        609        608        592        593        610        609        593        594        611        610        595        596        613        612        596        597        614        613        597        598        615        614        598        599        616        615        599        600        617        616        600        601        618        617        601        602        619        618        602        603        620        619        603        604        621        620        604        605        622        621        605        606        623        622        606        607        624        623        607        608        625        624        608        609        626        625        609        610        627        626        610        611        628        627        612        613        630        629        613        614        631        630        614        615        632        631        615        616        633        632        616        617        634        633        617        618        635        634        618        619        636        635        619        620        637        636        620        621        638        637        621        622        639        638        622        623        640        639        623        624        641        640        624        625        642        641        625        626        643        642        626        627        644        643        627        628        645        644        629        630        647        646        630        631        648        647        631        632        649        648        632        633        650        649        633        634        651        650        634        635        652        651        635        636        653        652        636        637        654        653        637        638        655        654        638        639        656        655        639        640        657        656        640        641        658        657        641        642        659        658        642        643        660        659        643        644        661        660        644        645        662        661        646        647        664        663        647        648        665        664        648        649        666        665        649        650        667        666        650        651        668        667        651        652        669        668        652        653        670        669        653        654        671        670        654        655        672        671        655        656        673        672        656        657        674        673        657        658        675        674        658        659        676        675        659        660        677        676        660        661        678        677        661        662        679        678        663        664        681        680        664        665        682        681        665        666        683        682        666        667        684        683        667        668        685        684        668        669        686        685        669        670        687        686        670        671        688        687        671        672        689        688        672        673        690        689        673        674        691        690        674        675        692        691        675        676        693        692        676        677        694        693        677        678        695        694        678        679        696        695        680        681        698        697        681        682        699        698        682        683        700        699        683        684        701        700        684        685        702        701        685        686        703        702        686        687        704        703        687        688        705        704        688        689        706        705        689        690        707        706        690        691        708        707        691        692        709        708        692        693        710        709        693        694        711        710        694        695        712        711        695        696        713        712        697        698        715        714        698        699        716        715        699        700        717        716        700        701        718        717        701        702        719        718        702        703        720        719        703        704        721        720        704        705        722        721        705        706        723        722        706        707        724        723        707        708        725        724        708        709        726        725        709        710        727        726        710        711        728        727        711        712        729        728        712        713        730        729        714        715        732        731        715        716        733        732        716        717        734        733        717        718        735        734        718        719        736        735        719        720        737        736        720        721        738        737        721        722        739        738        722        723        740        739        723        724        741        740        724        725        742        741        725        726        743        742        726        727        744        743        727        728        745        744        728        729        746        745        729        730        747        746        731        732        749        748        732        733        750        749        733        734        751        750        734        735        752        751        735        736        753        752        736        737        754        753        737        738        755        754        738        739        756        755        739        740        757        756        740        741        758        757        741        742        759        758        742        743        760        759        743        744        761        760        744        745        762        761        745        746        763        762        746        747        764        763        748        749        766        765        749        750        767        766        750        751        768        767        751        752        769        768        752        753        770        769        753        754        771        770        754        755        772        771        755        756        773        772        756        757        774        773        757        758        775        774        758        759        776        775        759        760        777        776        760        761        778        777        761        762        779        778        762        763        780        779        763        764        781        780        765        766        783        782        766        767        784        783        767        768        785        784        768        769        786        785        769        770        787        786        770        771        788        787        771        772        789        788        772        773        790        789        773        774        791        790        774        775        792        791        775        776        793        792        776        777        794        793        777        778        795        794        778        779        796        795        779        780        797        796        780        781        798        797        782        783        800        799        783        784        801        800        784        785        802        801        785        786        803        802        786        787        804        803        787        788        805        804        788        789        806        805        789        790        807        806        790        791        808        807        791        792        809        808        792        793        810        809        793        794        811        810        794        795        812        811        795        796        813        812        796        797        814        813        797        798        815        814        799        800        817        816        800        801        818        817        801        802        819        818        802        803        820        819        803        804        821        820        804        805        822        821        805        806        823        822        806        807        824        823        807        808        825        824        808        809        826        825        809        810        827        826        810        811        828        827        811        812        829        828        812        813        830        829        813        814        831        830        814        815        832        831        816        817        834        833        817        818        835        834        818        819        836        835        819        820        837        836        820        821        838        837        821        822        839        838        822        823        840        839        823        824        841        840        824        825        842        841        825        826        843        842        826        827        844        843        827        828        845        844        828        829        846        845        829        830        847        846        830        831        848        847        831        832        849        848        833        834        562        561        834        835        563        562        835        836        564        563        836        837        565        564        837        838        566        565        838        839        567        566        839        840        568        567        840        841        569        568        841        842        570        569        842        843        571        570        843        844        572        571        844        845        573        572        845        846        574        573        846        847        575        574        847        848        576        575        848        849        577        576        884        885        579        578        885        886        580        579        886        887        581        580        887        888        582        581        888        889        583        582        889        890        584        583        890        891        585        584        891        892        586        585        892        893        587        586        893        894        588        587        894        895        589        588        895        896        590        589        896        897        591        590        897        898        592        591        898        899        593        592        899        900        594        593        901        902        885        884        902        903        886        885        903        904        887        886        904        905        888        887        905        906        889        888        906        907        890        889        907        908        891        890        908        909        892        891        909        910        893        892        910        911        894        893        911        912        895        894        912        913        896        895        913        914        897        896        914        915        898        897        915        916        899        898        916        917        900        899        918        919        902        901        919        920        903        902        920        921        904        903        921        922        905        904        922        923        906        905        923        924        907        906        924        925        908        907        925        926        909        908        926        927        910        909        927        928        911        910        928        929        912        911        929        930        913        912        930        931        914        913        931        932        915        914        932        933        916        915        933        934        917        916        935        936        919        918        936        937        920        919        937        938        921        920        938        939        922        921        939        940        923        922        940        941        924        923        941        942        925        924        942        943        926        925        943        944        927        926        944        945        928        927        945        946        929        928        946        947        930        929        947        948        931        930        948        949        932        931        949        950        933        932        950        951        934        933        952        953        936        935        953        954        937        936        954        955        938        937        955        956        939        938        956        957        940        939        957        958        941        940        958        959        942        941        959        960        943        942        960        961        944        943        961        962        945        944        962        963        946        945        963        964        947        946        964        965        948        947        965        966        949        948        966        967        950        949        967        968        951        950        969        970        953        952        970        971        954        953        971        972        955        954        972        973        956        955        973        974        957        956        974        975        958        957        975        976        959        958        976        977        960        959        977        978        961        960        978        979        962        961        979        980        963        962        980        981        964        963        981        982        965        964        982        983        966        965        983        984        967        966        984        985        968        967        986        987        970        969        987        988        971        970        988        989        972        971        989        990        973        972        990        991        974        973        991        992        975        974        992        993        976        975        993        994        977        976        994        995        978        977        995        996        979        978        996        997        980        979        997        998        981        980        998        999        982        981        999       1000        983        982       1000       1001        984        983       1001       1002        985        984       1003       1004        987        986       1004       1005        988        987       1005       1006        989        988       1006       1007        990        989       1007       1008        991        990       1008       1009        992        991       1009       1010        993        992       1010       1011        994        993       1011       1012        995        994       1012       1013        996        995       1013       1014        997        996       1014       1015        998        997       1015       1016        999        998       1016       1017       1000        999       1017       1018       1001       1000       1018       1019       1002       1001       1020       1021       1004       1003       1021       1022       1005       1004       1022       1023       1006       1005       1023       1024       1007       1006       1024       1025       1008       1007       1025       1026       1009       1008       1026       1027       1010       1009       1027       1028       1011       1010       1028       1029       1012       1011       1029       1030       1013       1012       1030       1031       1014       1013       1031       1032       1015       1014       1032       1033       1016       1015       1033       1034       1017       1016       1034       1035       1018       1017       1035       1036       1019       1018       1037       1038       1021       1020       1038       1039       1022       1021       1039       1040       1023       1022       1040       1041       1024       1023       1041       1042       1025       1024       1042       1043       1026       1025       1043       1044       1027       1026       1044       1045       1028       1027       1045       1046       1029       1028       1046       1047       1030       1029       1047       1048       1031       1030       1048       1049       1032       1031       1049       1050       1033       1032       1050       1051       1034       1033       1051       1052       1035       1034       1052       1053       1036       1035       1054       1055       1038       1037       1055       1056       1039       1038       1056       1057       1040       1039       1057       1058       1041       1040       1058       1059       1042       1041       1059       1060       1043       1042       1060       1061       1044       1043       1061       1062       1045       1044       1062       1063       1046       1045       1063       1064       1047       1046       1064       1065       1048       1047       1065       1066       1049       1048       1066       1067       1050       1049       1067       1068       1051       1050       1068       1069       1052       1051       1069       1070       1053       1052       1071       1072       1055       1054       1072       1073       1056       1055       1073       1074       1057       1056       1074       1075       1058       1057       1075       1076       1059       1058       1076       1077       1060       1059       1077       1078       1061       1060       1078       1079       1062       1061       1079       1080       1063       1062       1080       1081       1064       1063       1081       1082       1065       1064       1082       1083       1066       1065       1083       1084       1067       1066       1084       1085       1068       1067       1085       1086       1069       1068       1086       1087       1070       1069       1088       1089       1072       1071       1089       1090       1073       1072       1090       1091       1074       1073       1091       1092       1075       1074       1092       1093       1076       1075       1093       1094       1077       1076       1094       1095       1078       1077       1095       1096       1079       1078       1096       1097       1080       1079       1097       1098       1081       1080       1098       1099       1082       1081       1099       1100       1083       1082       1100       1101       1084       1083       1101       1102       1085       1084       1102       1103       1086       1085       1103       1104       1087       1086       1105       1106       1089       1088       1106       1107       1090       1089       1107       1108       1091       1090       1108       1109       1092       1091       1109       1110       1093       1092       1110       1111       1094       1093       1111       1112       1095       1094       1112       1113       1096       1095       1113       1114       1097       1096       1114       1115       1098       1097       1115       1116       1099       1098       1116       1117       1100       1099       1117       1118       1101       1100       1118       1119       1102       1101       1119       1120       1103       1102       1120       1121       1104       1103       1122       1123       1106       1105       1123       1124       1107       1106       1124       1125       1108       1107       1125       1126       1109       1108       1126       1127       1110       1109       1127       1128       1111       1110       1128       1129       1112       1111       1129       1130       1113       1112       1130       1131       1114       1113       1131       1132       1115       1114       1132       1133       1116       1115       1133       1134       1117       1116       1134       1135       1118       1117       1135       1136       1119       1118       1136       1137       1120       1119       1137       1138       1121       1120        272        273       1123       1122        273        274       1124       1123        274        275       1125       1124        275        276       1126       1125        276        277       1127       1126        277        278       1128       1127        278        279       1129       1128        279        280       1130       1129        280        281       1131       1130        281        282       1132       1131        282        283       1133       1132        283        284       1134       1133        284        285       1135       1134        285        286       1136       1135        286        287       1137       1136        287        288       1138       1137 </DataArray>
<DataArray type="Int32"                                    Name="offsets"                                                      NumberOfComponents=" 1" format="ascii">
         4          8         12         16         20         24         28         32         36         40         44         48         52         56         60         64         68         72         76         80         84         88         92         96        100        104        108        112        116        120        124        128        132        136        140        144        148        152        156        160        164        168        172        176        180        184        188        192        196        200        204        208        212        216        220        224        228        232        236        240        244        248        252        256        260        264        268        272        276        280        284        288        292        296        300        304        308        312        316        320        324        328        332        336        340        344        348        352        356        360        364        368        372        376        380        384        388        392        396        400        404        408        412        416        420        424        428        432        436        440        444        448        452        456        460        464        468        472        476        480        484        488        492        496        500        504        508        512        516        520        524        528        532        536        540        544        548        552        556        560        564        568        572        576        580        584        588        592        596        600        604        608        612        616        620        624        628        632        636        640        644        648        652        656        660        664        668        672        676        680        684        688        692        696        700        704        708        712        716        720        724        728        732        736        740        744        748        752        756        760        764        768        772        776        780        784        788        792        796        800        804        808        812        816        820        824        828        832        836        840        844        848        852        856        860        864        868        872        876        880        884        888        892        896        900        904        908        912        916        920        924        928        932        936        940        944        948        952        956        960        964        968        972        976        980        984        988        992        996       1000       1004       1008       1012       1016       1020       1024       1028       1032       1036       1040       1044       1048       1052       1056       1060       1064       1068       1072       1076       1080       1084       1088       1092       1096       1100       1104       1108       1112       1116       1120       1124       1128       1132       1136       1140       1144       1148       1152       1156       1160       1164       1168       1172       1176       1180       1184       1188       1192       1196       1200       1204       1208       1212       1216       1220       1224       1228       1232       1236       1240       1244       1248       1252       1256       1260       1264       1268       1272       1276       1280       1284       1288       1292       1296       1300       1304       1308       1312       1316       1320       1324       1328       1332       1336       1340       1344       1348       1352       1356       1360       1364       1368       1372       1376       1380       1384       1388       1392       1396       1400       1404       1408       1412       1416       1420       1424       1428       1432       1436       1440       1444       1448       1452       1456       1460       1464       1468       1472       1476       1480       1484       1488       1492       1496       1500       1504       1508       1512       1516       1520       1524       1528       1532       1536       1540       1544       1548       1552       1556       1560       1564       1568       1572       1576       1580       1584       1588       1592       1596       1600       1604       1608       1612       1616       1620       1624       1628       1632       1636       1640       1644       1648       1652       1656       1660       1664       1668       1672       1676       1680       1684       1688       1692       1696       1700       1704       1708       1712       1716       1720       1724       1728       1732       1736       1740       1744       1748       1752       1756       1760       1764       1768       1772       1776       1780       1784       1788       1792       1796       1800       1804       1808       1812       1816       1820       1824       1828       1832       1836       1840       1844       1848       1852       1856       1860       1864       1868       1872       1876       1880       1884       1888       1892       1896       1900       1904       1908       1912       1916       1920       1924       1928       1932       1936       1940       1944       1948       1952       1956       1960       1964       1968       1972       1976       1980       1984       1988       1992       1996       2000       2004       2008       2012       2016       2020       2024       2028       2032       2036       2040       2044       2048       2052       2056       2060       2064       2068       2072       2076       2080       2084       2088       2092       2096       2100       2104       2108       2112       2116       2120       2124       2128       2132       2136       2140       2144       2148       2152       2156       2160       2164       2168       2172       2176       2180       2184       2188       2192       2196       2200       2204       2208       2212       2216       2220       2224       2228       2232       2236       2240       2244       2248       2252       2256       2260       2264       2268       2272       2276       2280       2284       2288       2292       2296       2300       2304       2308       2312       2316       2320       2324       2328       2332       2336       2340       2344       2348       2352       2356       2360       2364       2368       2372       2376       2380       2384       2388       2392       2396       2400       2404       2408       2412       2416       2420       2424       2428       2432       2436       2440       2444       2448       2452       2456       2460       2464       2468       2472       2476       2480       2484       2488       2492       2496       2500       2504       2508       2512       2516       2520       2524       2528       2532       2536       2540       2544       2548       2552       2556       2560       2564       2568       2572       2576       2580       2584       2588       2592       2596       2600       2604       2608       2612       2616       2620       2624       2628       2632       2636       2640       2644       2648       2652       2656       2660       2664       2668       2672       2676       2680       2684       2688       2692       2696       2700       2704       2708       2712       2716       2720       2724       2728       2732       2736       2740       2744       2748       2752       2756       2760       2764       2768       2772       2776       2780       2784       2788       2792       2796       2800       2804       2808       2812       2816       2820       2824       2828       2832       2836       2840       2844       2848       2852       2856       2860       2864       2868       2872       2876       2880       2884       2888       2892       2896       2900       2904       2908       2912       2916       2920       2924       2928       2932       2936       2940       2944       2948       2952       2956       2960       2964       2968       2972       2976       2980       2984       2988       2992       2996       3000       3004       3008       3012       3016       3020       3024       3028       3032       3036       3040       3044       3048       3052       3056       3060       3064       3068       3072       3076       3080       3084       3088       3092       3096       3100       3104       3108       3112       3116       3120       3124       3128       3132       3136       3140       3144       3148       3152       3156       3160       3164       3168       3172       3176       3180       3184       3188       3192       3196       3200       3204       3208       3212       3216       3220       3224       3228       3232       3236       3240       3244       3248       3252       3256       3260       3264       3268       3272       3276       3280       3284       3288       3292       3296       3300       3304       3308       3312       3316       3320       3324       3328       3332       3336       3340       3344       3348       3352       3356       3360       3364       3368       3372       3376       3380       3384       3388       3392       3396       3400       3404       3408       3412       3416       3420       3424       3428       3432       3436       3440       3444       3448       3452       3456       3460       3464       3468       3472       3476       3480       3484       3488       3492       3496       3500       3504       3508       3512       3516       3520       3524       3528       3532       3536       3540       3544       3548       3552       3556       3560       3564       3568       3572       3576       3580       3584       3588       3592       3596       3600       3604       3608       3612       3616       3620       3624       3628       3632       3636       3640       3644       3648       3652       3656       3660       3664       3668       3672       3676       3680       3684       3688       3692       3696       3700       3704       3708       3712       3716       3720       3724       3728       3732       3736       3740       3744       3748       3752       3756       3760       3764       3768       3772       3776       3780       3784       3788       3792       3796       3800       3804       3808       3812       3816       3820       3824       3828       3832       3836       3840       3844       3848       3852       3856       3860       3864       3868       3872       3876       3880       3884       3888       3892       3896       3900       3904       3908       3912       3916       3920       3924       3928       3932       3936       3940       3944       3948       3952       3956       3960       3964       3968       3972       3976       3980       3984       3988       3992       3996       4000       4004       4008       4012       4016       4020       4024       4028       4032       4036       4040       4044       4048       4052       4056       4060       4064       4068       4072       4076       4080       4084       4088       4092       4096 </DataArray>
<DataArray type="UInt8"                                    Name="types"                                                      NumberOfComponents=" 1" format="ascii">
         9          9          9          9          9          9          9          9          9          9          9          9          9          9          9          9          9          9          9          9          9          9          9          9          9          9          9          9          9          9          9          9          9          9          9          9          9          9          9          9          9          9          9          9          9          9          9          9          9          9          9          9          9          9          9          9          9          9          9          9          9          9          9          9          9          9          9          9          9          9          9          9          9          9          9          9          9          9          9          9          9          9          9          9          9          9          9          9          9          9          9          9          9          9          9          9          9          9          9          9          9          9          9          9          9          9          9          9          9          9          9          9          9          9          9          9          9          9          9          9          9          9          9          9          9          9          9          9          9          9          9          9          9          9          9          9          9          9          9          9          9          9          9          9          9          9          9          9          9          9          9          9          9          9          9          9          9          9          9          9          9          9          9          9          9          9          9          9          9          9          9          9          9          9          9          9          9          9          9          9          9          9          9          9          9          9          9          9          9          9          9          9          9          9          9          9          9          9          9          9          9          9          9          9          9          9          9          9          9          9          9          9          9          9          9          9          9          9          9          9          9          9          9          9          9          9          9          9          9          9          9          9          9          9          9          9          9          9          9          9          9          9          9          9          9          9          9          9          9          9          9          9          9          9          9          9          9          9          9          9          9          9          9          9          9          9          9          9          9          9          9          9          9          9          9          9          9          9          9          9          9          9          9          9          9          9          9          9          9          9          9          9          9          9          9          9          9          9          9          9          9          9          9          9          9          9          9          9          9          9          9          9          9          9          9          9          9          9          9          9          9          9          9          9          9          9          9          9          9          9          9          9          9          9          9          9          9          9          9          9          9          9          9          9          9          9          9          9          9          9          9          9          9          9          9          9          9          9          9          9          9          9          9          9          9          9          9          9          9          9          9          9          9          9          9          9          9          9          9          9          9          9          9          9          9          9          9          9          9          9          9          9          9          9          9          9          9          9          9          9          9          9          9          9          9          9          9          9          9          9          9          9          9          9          9          9          9          9          9          9          9          9          9          9          9          9          9          9          9          9          9          9          9          9          9          9          9          9          9          9          9          9          9          9          9          9          9          9          9          9          9          9          9          9          9          9          9          9          9          9          9          9          9          9          9          9          9          9          9          9          9          9          9          9          9          9          9          9          9          9          9          9          9          9          9          9          9          9          9          9          9          9          9          9          9          9          9          9          9          9          9          9          9          9          9          9          9          9          9          9          9          9          9          9          9          9          9          9          9          9          9          9          9          9          9          9          9          9          9          9          9          9          9          9          9          9          9          9          9          9          9          9          9          9          9          9          9          9          9          9          9          9          9          9          9          9          9          9          9          9          9          9          9          9          9          9          9          9          9          9          9          9          9          9          9          9          9          9          9          9          9          9          9          9          9          9          9          9          9          9          9          9          9          9          9          9          9          9          9          9          9          9          9          9          9          9          9          9          9          9          9          9          9          9          9          9          9          9          9          9          9          9          9          9          9          9          9          9          9          9          9          9          9          9          9          9          9          9          9          9          9          9          9          9          9          9          9          9          9          9          9          9          9          9          9          9          9          9          9          9          9          9          9          9          9          9          9          9          9          9          9          9          9          9          9          9          9          9          9          9          9          9          9          9          9          9          9          9          9          9          9          9          9          9          9          9          9          9          9          9          9          9          9          9          9          9          9          9          9          9          9          9          9          9          9          9          9          9          9          9          9          9          9          9          9          9          9          9          9          9          9          9          9          9          9          9          9          9          9          9          9          9          9          9          9          9          9          9          9          9          9          9          9          9          9          9          9          9          9          9          9          9          9          9          9          9          9          9          9          9          9          9          9          9          9          9          9          9          9          9          9          9          9          9          9          9          9          9          9          9          9          9          9          9          9          9          9          9          9          9          9          9          9          9          9          9          9          9          9          9          9          9          9          9          9          9          9          9          9          9          9          9          9          9          9          9          9          9          9          9          9          9          9          9          9          9          9          9          9          9          9          9          9          9          9          9          9          9          9          9          9          9          9          9          9          9          9          9          9          9          9          9          9          9          9          9          9          9          9          9          9          9          9          9          9          9          9          9          9          9          9          9          9          9          9          9          9          9          9          9          9          9          9          9          9          9          9          9          9          9          9          9          9          9          9          9          9          9          9          9          9          9          9          9          9          9          9          9          9          9          9          9          9          9          9          9          9          9          9          9          9          9          9          9          9          9          9          9          9          9          9          9          9          9          9          9          9          9          9          9          9          9          9          9          9          9          9          9          9          9          9          9          9          9          9          9          9          9          9          9          9          9          9          9          9          9          9          9          9          9          9          9          9          9          9          9          9          9          9          9          9          9          9          9          9          9          9          9          9          9          9          9          9          9          9          9          9          9          9          9          9          9          9          9          9          9          9          9          9          9          9          9          9          9 </DataArray>
</Cells>
<CellData>
<DataArray type="Int32"                                    Name="material"                                                      NumberOfComponents=" 1" format="ascii">
         1          1          1          1          1          1          1          1          1          1          1          1          1          1          1          1          1          1          1          1          1          1          1          1          1          1          1          1          1          1          1          1          1          1          1          1          1          1          1          1          1          1          1          1          1          1          1          1          1          1          1          1          1          1          1          1          1          1          1          1          1          1          1          1          1          1          1          1          1          1          1          1          1          1          1          1          1          1          1          1          1          1          1          1          1          1          1          1          1          1          1          1          1          1          1          1          1          1          1          1          1          1          1          1          1          1          1          1          1          1          1          1          1          1          1          1          1          1          1          1          1          1          1          1          1          1          1          1          1          1          1          1          1          1          1          1          1          1          1          1          1          1          1          1          1          1          1          1          1          1          1          1          1          1          1          1          1          1          1          1          1          1          1          1          1          1          1          1          1          1          1          1          1          1          1          1          1          1          1          1          1          1          1          1          1          1          1          1          1          1          1          1          1          1          1          1          1          1          1          1          1          1          1          1          1          1          1          1          1          1          1          1          1          1          1          1          1          1          1          1          1          1          1          1          1          1          1          1          1          1          1          1          1          1          1          1          1          1          1          1          1          1          1          1          1          1          1          1          1          1          1          1          1          1          1          1          1          1          1          1          1          1          1          1          1          1          1          1          1          1          1          1          1          1          1          1          1          1          1          1          1          1          1          1          1          1          1          1          1          1          1          1          1          1          1          1          1          1          1          1          1          1          1          1          1          1          1          1          1          1          1          1          1          1          1          1          1          1          1          1          1          1          1          1          1          1          1          1          1          1          1          1          1          1          1          1          1          1          1          1          1          1          1          1          1          1          1          1          1          1          1          1          1          1          1          1          1          1          1          1          1          1          1          1          1          1          1          1          1          1          1          1          1          1          1          1          1          1          1          1          1          1          1          1          1          1          1          1          1          1          1          1          1          1          1          1          1          1          1          1          1          1          1          1          1          1          1          1          1          1          1          1          1          1          1          1          1          1          1          1          1          1          1          1          1          1          1          1          1          1          1          1          1          1          1          1          1          1          1          1          1          1          1          1          1          1          1          1          1          1          1          1          1          1          1          1          1          1          1          1          1          1          1          1          1          1          1          1          1          1          1          1          1          1          1          1          1          1          1          1          1          1          1          1          1          1          1          1          1          1          1          1          1          1          1          1          1          1          1          1          1          1          1          1          1          1          1          1          1          1          1          1          1          1          1          1          1          1          1          1          1          1          1          1          1          1          1          1          1          1          1          1          1          1          1          1          1          1          1          1          1          1          1          1          1          1          1          1          1          1          1          1          1          1          1          1          1          1          1          1          1          1          1          1          1          1          1          1          1          1          1          1          1          1          1          1          1          1          1          1          1          1          1          1          1          1          1          1          1          1          1          1          1          1          1          1          1          1          1          1          1          1          1          1          1          1          1          1          1          1          1          1          1          1          1          1          1          1          1          1          1          1          1          1          1          1          1          1          1          1          1          1          1          1          1          1          1          1          1          1          1          1          1          1          1          1          1          1          1          1          1          1          1          1          1          1          1          1          1          1          1          1          1          1          1          1          1          1          1          1          1          1          1          1          1          1          1          1          1          1          1          1          1          1          1          1          1          1          1          1          1          1          1          1          1          1          1          1          1          1          1          1          1          1          1          1          1          1          1          1          1          1          1          1          1          1          1          1          1          1          1          1          1          1          1          1          1          1          1          1          1          1          1          1          1          1          1          1          1          1          1          1          1          1          1          1          1          1          1          1          1          1          1          1          1          1          1          1          1          1          1          1          1          1          1          1          1          1          1          1          1          1          1          1          1          1          1          1          1          1          1          1          1          1          1          1          1          1          1          1          1          1          1          1          1          1          1          1          1          1          1          1          1          1          1          1          1          1          1          1          1          1          1          1          1          1          1          1          1          1          1          1          1          1          1          1          1          1          1          1          1          1          1          1          1          1          1          1          1          1          1          1          1          1          1          1          1          1          1          1          1          1          1          1          1          1          1          1          1          1          1          1          1          1          1          1          1          1          1          1          1          1          1          1          1          1          1          1          1          1          1          1          1          1          1          1          1          1          1          1          1          1          1          1          1          1          1          1          1          1          1          1          1          1          1          1          1          1          1          1          1          1          1          1          1          1          1          1          1          1          1          1          1          1          1          1          1          1          1          1          1          1          1          1          1          1          1          1          1          1          1          1          1          1          1          1          1          1          1          1          1          1          1          1          1          1          1          1          1          1          1          1          1          1          1          1          1          1          1          1          1          1          1          1          1          1          1          1          1          1          1          1          1          1          1          1          1          1          1          1          1          1          1          1          1          1          1          1          1          1          1          1          1          1          1          1          1          1          1          1          1          1          1          1          1          1          1          1          1          1          1          1          1          1 </DataArray>
</CellData>
<PointData>
<DataArray type="Float64"                                    Name="u"                                                      NumberOfComponents=" 3" format="ascii">
             -0.000525069               0.000000000               0.999999984              -0.000569588              -0.000000000               0.999999984              -0.000589637              -0.000000000               0.999999984              -0.000601187              -0.000000000               0.999999984              -0.000610303              -0.000000000               0.999999984              -0.000619461              -0.000000000               0.999999984              -0.000629446               0.000000000               0.999999984              -0.000640520               0.000000000               0.999999984              -0.000652781               0.000000000               0.999999984              -0.000666023               0.000000000               0.999999984              -0.000680094              -0.000000000               0.999999984              -0.000694676              -0.000000000               0.999999984              -0.000709505               0.000000000               0.999999984              -0.000724369              -0.000000000               0.999999984              -0.000739045               0.000000000               0.999999984              -0.000753226              -0.000000000               0.999999984              -0.000766201               0.000000000               0.999999984              -0.000522150               0.000114003               0.999999984              -0.000563587               0.000094387               0.999999984              -0.000581682               0.000086531               0.999999984              -0.000592136               0.000084496               0.999999984              -0.000600584               0.000085567               0.999999984              -0.000609187               0.000088410               0.999999984              -0.000618788               0.000092169               0.999999984              -0.000629518               0.000096216               0.999999984              -0.000641323               0.000100326               0.999999984              -0.000653989               0.000104116               0.999999984              -0.000667270               0.000107375               0.999999984              -0.000680912               0.000109798               0.999999984              -0.000694643               0.000111193               0.999999984              -0.000708192               0.000111446               0.999999984              -0.000721454               0.000110113               0.999999984              -0.000734105               0.000106242               0.999999984              -0.000745636               0.000098892               0.999999984              -0.000513363               0.000226836               0.999999984              -0.000545881               0.000188102               0.999999984              -0.000558658               0.000173286               0.999999984              -0.000566004               0.000170117               0.999999984              -0.000572620               0.000172892               0.999999984              -0.000580023               0.000178930               0.999999984              -0.000588607               0.000186573               0.999999984              -0.000598213               0.000194826               0.999999984              -0.000608704               0.000203049               0.999999984              -0.000619791               0.000210555               0.999999984              -0.000631188               0.000217074               0.999999984              -0.000642549               0.000222095               0.999999984              -0.000653641               0.000225156               0.999999984              -0.000664270               0.000226042               0.999999984              -0.000674171               0.000224127               0.999999984              -0.000683222               0.000218294               0.999999984              -0.000691395               0.000207576               0.999999984              -0.000498920               0.000337334               0.999999984              -0.000517428               0.000280652               0.999999984              -0.000522573               0.000260570               0.999999984              -0.000525815               0.000257601               0.999999984              -0.000530159               0.000263050               0.999999984              -0.000536137               0.000272823               0.999999984              -0.000543447               0.000284643               0.999999984              -0.000551632               0.000297132               0.999999984              -0.000560476               0.000309434               0.999999984              -0.000569500               0.000320627               0.999999984              -0.000578199               0.000330139               0.999999984              -0.000586349               0.000337658               0.999999984              -0.000593785               0.000342929               0.999999984              -0.000600364               0.000345560               0.999999984              -0.000606088               0.000344845               0.999999984              -0.000611035               0.000340153               0.999999984              -0.000615365               0.000331109               0.999999984              -0.000479130               0.000444403               0.999999984              -0.000479699               0.000371692               0.999999984              -0.000476334               0.000348468               0.999999984              -0.000475631               0.000347173               0.999999984              -0.000478038               0.000356227               0.999999984              -0.000482832               0.000370203               0.999999984              -0.000489162               0.000386263               0.999999984              -0.000496263               0.000402914               0.999999984              -0.000503345               0.000419063               0.999999984              -0.000509970               0.000433682               0.999999984              -0.000515820               0.000446331               0.999999984              -0.000520745               0.000456757               0.999999984              -0.000524499               0.000464715               0.999999984              -0.000527097               0.000470015               0.999999984              -0.000528705               0.000472323               0.999999984              -0.000529548               0.000471455               0.999999984              -0.000529940               0.000467735               0.999999984              -0.000454305               0.000546996               0.999999984              -0.000434644               0.000461064               0.999999984              -0.000423528               0.000436753               0.999999984              -0.000420027               0.000438300               0.999999984              -0.000421566               0.000451474               0.999999984              -0.000426078               0.000469903               0.999999984              -0.000431912               0.000490296               0.999999984              -0.000437865               0.000510957               0.999999984              -0.000443295               0.000530712               0.999999984              -0.000447758               0.000548702               0.999999984              -0.000450835               0.000564572               0.999999984              -0.000452460               0.000578008               0.999999984              -0.000452518               0.000588796               0.999999984              -0.000451163               0.000597235               0.999999984              -0.000448718               0.000603365               0.999999984              -0.000445410               0.000607242               0.999999984              -0.000441310               0.000608975               0.999999984              -0.000424991               0.000644018               0.999999984              -0.000384756               0.000548587               0.999999984              -0.000367878               0.000524904               0.999999984              -0.000363490               0.000529834               0.999999984              -0.000365544               0.000547324               0.999999984              -0.000370447               0.000570210               0.999999984              -0.000376010               0.000594714               0.999999984              -0.000381107               0.000619202               0.999999984              -0.000384863               0.000642597               0.999999984              -0.000386737               0.000663913               0.999999984              -0.000386730               0.000682684               0.999999984              -0.000384712               0.000698699               0.999999984              -0.000380821               0.000712174               0.999999984              -0.000375306               0.000723618               0.999999984              -0.000368374               0.000733229               0.999999984              -0.000360041               0.000741007               0.999999984              -0.000350308               0.000746619               0.999999984              -0.000391871               0.000734388               0.999999984              -0.000332596               0.000633976               0.999999984              -0.000312723               0.000612099               0.999999984              -0.000309569               0.000620467               0.999999984              -0.000313167               0.000641992               0.999999984              -0.000318882               0.000669035               0.999999984              -0.000324350               0.000697611               0.999999984              -0.000328223               0.000726031               0.999999984              -0.000329843               0.000752677               0.999999984              -0.000328984               0.000776546               0.999999984              -0.000325383               0.000797383               0.999999984              -0.000319132               0.000815414               0.999999984              -0.000310453               0.000831174               0.999999984              -0.000299586               0.000845360               0.999999984              -0.000286821               0.000858013               0.999999984              -0.000272257               0.000868757               0.999999984              -0.000256199               0.000877282               0.999999984              -0.000356251               0.000816487               0.999999984              -0.000280095               0.000717064               0.999999984              -0.000261010               0.000697259               0.999999984              -0.000260468               0.000708731               0.999999984              -0.000266163               0.000733932               0.999999984              -0.000272757               0.000764961               0.999999984              -0.000277763               0.000797658               0.999999984              -0.000280125               0.000829375               0.999999984              -0.000279171               0.000858560               0.999999984              -0.000274550               0.000884387               0.999999984              -0.000266156               0.000906806               0.999999984              -0.000254258               0.000926597               0.999999984              -0.000239469               0.000944481               0.999999984              -0.000222424               0.000960881               0.999999984              -0.000203457               0.000975791               0.999999984              -0.000183014               0.000989049               0.999999984              -0.000161825               0.001000810               0.999999984              -0.000319901               0.000893548               0.999999984              -0.000236986               0.000807569               0.999999984              -0.000214793               0.000783140               0.999999984              -0.000212931               0.000788721               0.999999984              -0.000218010               0.000809040               0.999999984              -0.000224535               0.000836926               0.999999984              -0.000230062               0.000868031               0.999999984              -0.000233249               0.000899637               0.999999984              -0.000233379               0.000929983               0.999999984              -0.000230196               0.000957793               0.999999984              -0.000223048               0.000982712               0.999999984              -0.000211901               0.001004866               0.999999984              -0.000197326               0.001024941               0.999999984              -0.000180109               0.001043454               0.999999984              -0.000161129               0.001060884               0.999999984              -0.000140518               0.001077285               0.999999984              -0.000119311               0.001092466               0.999999984              -0.000280126               0.000963283               0.999999984              -0.000196686               0.000894484               0.999999984              -0.000171539               0.000870503               0.999999984              -0.000167526               0.000872251               0.999999984              -0.000171296               0.000888672               0.999999984              -0.000177181               0.000913617               0.999999984              -0.000182702               0.000943059               0.999999984              -0.000186455               0.000974127               0.999999984              -0.000187568               0.001005225               0.999999984              -0.000185431               0.001034937               0.999999984              -0.000179571               0.001062494               0.999999984              -0.000169574               0.001087407               0.999999984              -0.000155694               0.001109889               0.999999984              -0.000138304               0.001130478               0.999999984              -0.000118306               0.001149852               0.999999984              -0.000096398               0.001168396               0.999999984              -0.000073300               0.001186403               0.999999984              -0.000237776               0.001024161               0.999999984              -0.000159057               0.000975378               0.999999984              -0.000132416               0.000955563               0.999999984              -0.000126074               0.000956180               0.999999984              -0.000128011               0.000970259               0.999999984              -0.000132743               0.000993013               0.999999984              -0.000137661               0.001020980               0.999999984              -0.000141397               0.001051723               0.999999984              -0.000143090               0.001083288               0.999999984              -0.000141870               0.001114565               0.999999984              -0.000137245               0.001144693               0.999999984              -0.000128650               0.001172820               0.999999984              -0.000115851               0.001198675               0.999999984              -0.000098882               0.001222359               0.999999984              -0.000078019               0.001244321               0.999999984              -0.000053768               0.001265043               0.999999984              -0.000026903               0.001285237               0.999999984              -0.000193131               0.001075283               0.999999984              -0.000124028               0.001047091               0.999999984              -0.000098002               0.001034273               0.999999984              -0.000090029               0.001036190               0.999999984              -0.000090033               0.001049608               0.999999984              -0.000093227               0.001071420               0.999999984              -0.000097071               0.001098571               0.999999984              -0.000100320               0.001129153               0.999999984              -0.000102032               0.001161549               0.999999984              -0.000101323               0.001194389               0.999999984              -0.000097706               0.001226903               0.999999984              -0.000090581               0.001258346               0.999999984              -0.000079510               0.001288125               0.999999984              -0.000064031               0.001315905               0.999999984              -0.000043658               0.001341724               0.999999984              -0.000018164               0.001365857               0.999999984               0.000012379               0.001388899               0.999999984              -0.000146569               0.001115856               0.999999984              -0.000091209               0.001106549               0.999999984              -0.000068410               0.001102016               0.999999984              -0.000060176               0.001107038               0.999999984              -0.000058731               0.001121304               0.999999984              -0.000060346               0.001143098               0.999999984              -0.000062949               0.001170306               0.999999984              -0.000065301               0.001201181               0.999999984              -0.000066677               0.001234413               0.999999984              -0.000066280               0.001268960               0.999999984              -0.000063502               0.001303844               0.999999984              -0.000057850               0.001338461               0.999999984              -0.000049000               0.001372174               0.999999984              -0.000036183               0.001404451               0.999999984              -0.000018206               0.001435047               0.999999984               0.000005657               0.001463781               0.999999984               0.000036268               0.001490837               0.999999984              -0.000098540               0.001145280               0.999999984              -0.000059996               0.001151049               0.999999984              -0.000042998               0.001154326               0.999999984              -0.000036184               0.001163133               0.999999984              -0.000034273               0.001179064               0.999999984              -0.000034770               0.001201511               0.999999984              -0.000036180               0.001229121               0.999999984              -0.000037658               0.001260579               0.999999984              -0.000038572               0.001294670               0.999999984              -0.000038267               0.001330626               0.999999984              -0.000036347               0.001367586               0.999999984              -0.000032468               0.001404876               0.999999984              -0.000026327               0.001441949               0.999999984              -0.000017067               0.001478282               0.999999984              -0.000003633               0.001513459               0.999999984               0.000015040               0.001547009               0.999999984               0.000040115               0.001578540               0.999999984              -0.000049516               0.001163145               0.999999984              -0.000029769               0.001178594               0.999999984              -0.000020664               0.001187337               0.999999984              -0.000016821               0.001199201               0.999999984              -0.000015501               0.001216764               0.999999984              -0.000015529               0.001240044               0.999999984              -0.000016096               0.001268131               0.999999984              -0.000016800               0.001300035               0.999999984              -0.000017231               0.001334814               0.999999984              -0.000017061               0.001371734               0.999999984              -0.000016028               0.001410061               0.999999984              -0.000014156               0.001449228               0.999999984              -0.000011005               0.001488668               0.999999984              -0.000006090               0.001527891               0.999999984               0.000001087               0.001566341               0.999999984               0.000011475               0.001603434               0.999999984               0.000025828               0.001638470               0.999999984              -0.000000000               0.001169112               0.999999984              -0.000000000               0.001187925               0.999999984              -0.000000000               0.001198639               0.999999984              -0.000000000               0.001211610               0.999999984              -0.000000000               0.001229886               0.999999984              -0.000000000               0.001253598               0.999999984               0.000000000               0.001281847               0.999999984              -0.000000000               0.001313870               0.999999984               0.000000000               0.001348856               0.999999984              -0.000000000               0.001386145               0.999999984               0.000000000               0.001424959               0.999999984               0.000000000               0.001464790               0.999999984               0.000000000               0.001505107               0.999999984              -0.000000000               0.001545435               0.999999984              -0.000000000               0.001585165               0.999999984               0.000000000               0.001623579               0.999999984              -0.000000000               0.001659935               0.999999984              -0.000525069               0.000000000               0.999999984              -0.000569588              -0.000000000               0.999999984              -0.000589637              -0.000000000               0.999999984              -0.000601187              -0.000000000               0.999999984              -0.000610303              -0.000000000               0.999999984              -0.000619461              -0.000000000               0.999999984              -0.000629446               0.000000000               0.999999984              -0.000640520               0.000000000               0.999999984              -0.000652781               0.000000000               0.999999984              -0.000666023               0.000000000               0.999999984              -0.000680094              -0.000000000               0.999999984              -0.000694676              -0.000000000               0.999999984              -0.000709505               0.000000000               0.999999984              -0.000724369              -0.000000000               0.999999984              -0.000739045               0.000000000               0.999999984              -0.000753226              -0.000000000               0.999999984              -0.000766201               0.000000000               0.999999984              -0.000522150              -0.000114003               0.999999984              -0.000563587              -0.000094387               0.999999984              -0.000581682              -0.000086531               0.999999984              -0.000592136              -0.000084496               0.999999984              -0.000600584              -0.000085567               0.999999984              -0.000609187              -0.000088410               0.999999984              -0.000618788              -0.000092169               0.999999984              -0.000629518              -0.000096216               0.999999984              -0.000641323              -0.000100326               0.999999984              -0.000653989              -0.000104116               0.999999984              -0.000667270              -0.000107375               0.999999984              -0.000680912              -0.000109798               0.999999984              -0.000694643              -0.000111193               0.999999984              -0.000708192              -0.000111446               0.999999984              -0.000721454              -0.000110113               0.999999984              -0.000734105              -0.000106242               0.999999984              -0.000745636              -0.000098892               0.999999984              -0.000513363              -0.000226836               0.999999984              -0.000545881              -0.000188102               0.999999984              -0.000558658              -0.000173286               0.999999984              -0.000566004              -0.000170117               0.999999984              -0.000572620              -0.000172892               0.999999984              -0.000580023              -0.000178930               0.999999984              -0.000588607              -0.000186573               0.999999984              -0.000598213              -0.000194826               0.999999984              -0.000608704              -0.000203049               0.999999984              -0.000619791              -0.000210555               0.999999984              -0.000631188              -0.000217074               0.999999984              -0.000642549              -0.000222095               0.999999984              -0.000653641              -0.000225156               0.999999984              -0.000664270              -0.000226042               0.999999984              -0.000674171              -0.000224127               0.999999984              -0.000683222              -0.000218294               0.999999984              -0.000691395              -0.000207576               0.999999984              -0.000498920              -0.000337334               0.999999984              -0.000517428              -0.000280652               0.999999984              -0.000522573              -0.000260570               0.999999984              -0.000525815              -0.000257601               0.999999984              -0.000530159              -0.000263050               0.999999984              -0.000536137              -0.000272823               0.999999984              -0.000543447              -0.000284643               0.999999984              -0.000551632              -0.000297132               0.999999984              -0.000560476              -0.000309434               0.999999984              -0.000569500              -0.000320627               0.999999984              -0.000578199              -0.000330139               0.999999984              -0.000586349              -0.000337658               0.999999984              -0.000593785              -0.000342929               0.999999984              -0.000600364              -0.000345560               0.999999984              -0.000606088              -0.000344845               0.999999984              -0.000611035              -0.000340153               0.999999984              -0.000615365              -0.000331109               0.999999984              -0.000479130              -0.000444403               0.999999984              -0.000479699              -0.000371692               0.999999984              -0.000476334              -0.000348468               0.999999984              -0.000475631              -0.000347173               0.999999984              -0.000478038              -0.000356227               0.999999984              -0.000482832              -0.000370203               0.999999984              -0.000489162              -0.000386263               0.999999984              -0.000496263              -0.000402914               0.999999984              -0.000503345              -0.000419063               0.999999984              -0.000509970              -0.000433682               0.999999984              -0.000515820              -0.000446331               0.999999984              -0.000520745              -0.000456757               0.999999984              -0.000524499              -0.000464715               0.999999984              -0.000527097              -0.000470015               0.999999984              -0.000528705              -0.000472323               0.999999984              -0.000529548              -0.000471455               0.999999984              -0.000529940              -0.000467735               0.999999984              -0.000454305              -0.000546996               0.999999984              -0.000434644              -0.000461064               0.999999984              -0.000423528              -0.000436753               0.999999984              -0.000420027              -0.000438300               0.999999984              -0.000421566              -0.000451474               0.999999984              -0.000426078              -0.000469903               0.999999984              -0.000431912              -0.000490296               0.999999984              -0.000437865              -0.000510957               0.999999984              -0.000443295              -0.000530712               0.999999984              -0.000447758              -0.000548702               0.999999984              -0.000450835              -0.000564572               0.999999984              -0.000452460              -0.000578008               0.999999984              -0.000452518              -0.000588796               0.999999984              -0.000451163              -0.000597235               0.999999984              -0.000448718              -0.000603365               0.999999984              -0.000445410              -0.000607242               0.999999984              -0.000441310              -0.000608975               0.999999984              -0.000424991              -0.000644018               0.999999984              -0.000384756              -0.000548587               0.999999984              -0.000367878              -0.000524904               0.999999984              -0.000363490              -0.000529834               0.999999984              -0.000365544              -0.000547324               0.999999984              -0.000370447              -0.000570210               0.999999984              -0.000376010              -0.000594714               0.999999984              -0.000381107              -0.000619202               0.999999984              -0.000384863              -0.000642597               0.999999984              -0.000386737              -0.000663913               0.999999984              -0.000386730              -0.000682684               0.999999984              -0.000384712              -0.000698699               0.999999984              -0.000380821              -0.000712174               0.999999984              -0.000375306              -0.000723618               0.999999984              -0.000368374              -0.000733229               0.999999984              -0.000360041              -0.000741007               0.999999984              -0.000350308              -0.000746619               0.999999984              -0.000391871              -0.000734388               0.999999984              -0.000332596              -0.000633976               0.999999984              -0.000312723              -0.000612099               0.999999984              -0.000309569              -0.000620467               0.999999984              -0.000313167              -0.000641992               0.999999984              -0.000318882              -0.000669035               0.999999984              -0.000324350              -0.000697611               0.999999984              -0.000328223              -0.000726031               0.999999984              -0.000329843              -0.000752677               0.999999984              -0.000328984              -0.000776546               0.999999984              -0.000325383              -0.000797383               0.999999984              -0.000319132              -0.000815414               0.999999984              -0.000310453              -0.000831174               0.999999984              -0.000299586              -0.000845360               0.999999984              -0.000286821              -0.000858013               0.999999984              -0.000272257              -0.000868757               0.999999984              -0.000256199              -0.000877282               0.999999984              -0.000356251              -0.000816487               0.999999984              -0.000280095              -0.000717064               0.999999984              -0.000261010              -0.000697259               0.999999984              -0.000260468              -0.000708731               0.999999984              -0.000266163              -0.000733932               0.999999984              -0.000272757              -0.000764961               0.999999984              -0.000277763              -0.000797658               0.999999984              -0.000280125              -0.000829375               0.999999984              -0.000279171              -0.000858560               0.999999984              -0.000274550              -0.000884387               0.999999984              -0.000266156              -0.000906806               0.999999984              -0.000254258              -0.000926597               0.999999984              -0.000239469              -0.000944481               0.999999984              -0.000222424              -0.000960881               0.999999984              -0.000203457              -0.000975791               0.999999984              -0.000183014              -0.000989049               0.999999984              -0.000161825              -0.001000810               0.999999984              -0.000319901              -0.000893548               0.999999984              -0.000236986              -0.000807569               0.999999984              -0.000214793              -0.000783140               0.999999984              -0.000212931              -0.000788721               0.999999984              -0.000218010              -0.000809040               0.999999984              -0.000224535              -0.000836926               0.999999984              -0.000230062              -0.000868031               0.999999984              -0.000233249              -0.000899637               0.999999984              -0.000233379              -0.000929983               0.999999984              -0.000230196              -0.000957793               0.999999984              -0.000223048              -0.000982712               0.999999984              -0.000211901              -0.001004866               0.999999984              -0.000197326              -0.001024941               0.999999984              -0.000180109              -0.001043454               0.999999984              -0.000161129              -0.001060884               0.999999984              -0.000140518              -0.001077285               0.999999984              -0.000119311              -0.001092466               0.999999984              -0.000280126              -0.000963283               0.999999984              -0.000196686              -0.000894484               0.999999984              -0.000171539              -0.000870503               0.999999984              -0.000167526              -0.000872251               0.999999984              -0.000171296              -0.000888672               0.999999984              -0.000177181              -0.000913617               0.999999984              -0.000182702              -0.000943059               0.999999984              -0.000186455              -0.000974127               0.999999984              -0.000187568              -0.001005225               0.999999984              -0.000185431              -0.001034937               0.999999984              -0.000179571              -0.001062494               0.999999984              -0.000169574              -0.001087407               0.999999984              -0.000155694              -0.001109889               0.999999984              -0.000138304              -0.001130478               0.999999984              -0.000118306              -0.001149852               0.999999984              -0.000096398              -0.001168396               0.999999984              -0.000073300              -0.001186403               0.999999984              -0.000237776              -0.001024161               0.999999984              -0.000159057              -0.000975378               0.999999984              -0.000132416              -0.000955563               0.999999984              -0.000126074              -0.000956180               0.999999984              -0.000128011              -0.000970259               0.999999984              -0.000132743              -0.000993013               0.999999984              -0.000137661              -0.001020980               0.999999984              -0.000141397              -0.001051723               0.999999984              -0.000143090              -0.001083288               0.999999984              -0.000141870              -0.001114565               0.999999984              -0.000137245              -0.001144693               0.999999984              -0.000128650              -0.001172820               0.999999984              -0.000115851              -0.001198675               0.999999984              -0.000098882              -0.001222359               0.999999984              -0.000078019              -0.001244321               0.999999984              -0.000053768              -0.001265043               0.999999984              -0.000026903              -0.001285237               0.999999984              -0.000193131              -0.001075283               0.999999984              -0.000124028              -0.001047091               0.999999984              -0.000098002              -0.001034273               0.999999984              -0.000090029              -0.001036190               0.999999984              -0.000090033              -0.001049608               0.999999984              -0.000093227              -0.001071420               0.999999984              -0.000097071              -0.001098571               0.999999984              -0.000100320              -0.001129153               0.999999984              -0.000102032              -0.001161549               0.999999984              -0.000101323              -0.001194389               0.999999984              -0.000097706              -0.001226903               0.999999984              -0.000090581              -0.001258346               0.999999984              -0.000079510              -0.001288125               0.999999984              -0.000064031              -0.001315905               0.999999984              -0.000043658              -0.001341724               0.999999984              -0.000018164              -0.001365857               0.999999984               0.000012379              -0.001388899               0.999999984              -0.000146569              -0.001115856               0.999999984              -0.000091209              -0.001106549               0.999999984              -0.000068410              -0.001102016               0.999999984              -0.000060176              -0.001107038               0.999999984              -0.000058731              -0.001121304               0.999999984              -0.000060346              -0.001143098               0.999999984              -0.000062949              -0.001170306               0.999999984              -0.000065301              -0.001201181               0.999999984              -0.000066677              -0.001234413               0.999999984              -0.000066280              -0.001268960               0.999999984              -0.000063502              -0.001303844               0.999999984              -0.000057850              -0.001338461               0.999999984              -0.000049000              -0.001372174               0.999999984              -0.000036183              -0.001404451               0.999999984              -0.000018206              -0.001435047               0.999999984               0.000005657              -0.001463781               0.999999984               0.000036268              -0.001490837               0.999999984              -0.000098540              -0.001145280               0.999999984              -0.000059996              -0.001151049               0.999999984              -0.000042998              -0.001154326               0.999999984              -0.000036184              -0.001163133               0.999999984              -0.000034273              -0.001179064               0.999999984              -0.000034770              -0.001201511               0.999999984              -0.000036180              -0.001229121               0.999999984              -0.000037658              -0.001260579               0.999999984              -0.000038572              -0.001294670               0.999999984              -0.000038267              -0.001330626               0.999999984              -0.000036347              -0.001367586               0.999999984              -0.000032468              -0.001404876               0.999999984              -0.000026327              -0.001441949               0.999999984              -0.000017067              -0.001478282               0.999999984              -0.000003633              -0.001513459               0.999999984               0.000015040              -0.001547009               0.999999984               0.000040115              -0.001578540               0.999999984              -0.000049516              -0.001163145               0.999999984              -0.000029769              -0.001178594               0.999999984              -0.000020664              -0.001187337               0.999999984              -0.000016821              -0.001199201               0.999999984              -0.000015501              -0.001216764               0.999999984              -0.000015529              -0.001240044               0.999999984              -0.000016096              -0.001268131               0.999999984              -0.000016800              -0.001300035               0.999999984              -0.000017231              -0.001334814               0.999999984              -0.000017061              -0.001371734               0.999999984              -0.000016028              -0.001410061               0.999999984              -0.000014156              -0.001449228               0.999999984              -0.000011005              -0.001488668               0.999999984              -0.000006090              -0.001527891               0.999999984               0.000001087              -0.001566341               0.999999984               0.000011475              -0.001603434               0.999999984               0.000025828              -0.001638470               0.999999984               0.000000000              -0.001169112               0.999999984              -0.000000000              -0.001187925               0.999999984              -0.000000000              -0.001198639               0.999999984              -0.000000000              -0.001211610               0.999999984              -0.000000000              -0.001229886               0.999999984               0.000000000              -0.001253598               0.999999984               0.000000000              -0.001281847               0.999999984              -0.000000000              -0.001313870               0.999999984              -0.000000000              -0.001348856               0.999999984              -0.000000000              -0.001386145               0.999999984               0.000000000              -0.001424959               0.999999984              -0.000000000              -0.001464790               0.999999984              -0.000000000              -0.001505107               0.999999984               0.000000000              -0.001545435               0.999999984               0.000000000              -0.001585165               0.999999984              -0.000000000              -0.001623579               0.999999984               0.000000000              -0.001659935               0.999999984               0.000525069              -0.000000000               0.999999984               0.000569588               0.000000000               0.999999984               0.000589637              -0.000000000               0.999999984               0.000601187               0.000000000               0.999999984               0.000610303              -0.000000000               0.999999984               0.000619461               0.000000000               0.999999984               0.000629446               0.000000000               0.999999984               0.000640520              -0.000000000               0.999999984               0.000652781               0.000000000               0.999999984               0.000666023              -0.000000000               0.999999984               0.000680094              -0.000000000               0.999999984               0.000694676              -0.000000000               0.999999984               0.000709505              -0.000000000               0.999999984               0.000724369              -0.000000000               0.999999984               0.000739045               0.000000000               0.999999984               0.000753226              -0.000000000               0.999999984               0.000766201              -0.000000000               0.999999984               0.000522150              -0.000114003               0.999999984               0.000563587              -0.000094387               0.999999984               0.000581682              -0.000086531               0.999999984               0.000592136              -0.000084496               0.999999984               0.000600584              -0.000085567               0.999999984               0.000609187              -0.000088410               0.999999984               0.000618788              -0.000092169               0.999999984               0.000629518              -0.000096216               0.999999984               0.000641323              -0.000100326               0.999999984               0.000653989              -0.000104116               0.999999984               0.000667270              -0.000107375               0.999999984               0.000680912              -0.000109798               0.999999984               0.000694643              -0.000111193               0.999999984               0.000708192              -0.000111446               0.999999984               0.000721454              -0.000110113               0.999999984               0.000734105              -0.000106242               0.999999984               0.000745636              -0.000098892               0.999999984               0.000513363              -0.000226836               0.999999984               0.000545881              -0.000188102               0.999999984               0.000558658              -0.000173286               0.999999984               0.000566004              -0.000170117               0.999999984               0.000572620              -0.000172892               0.999999984               0.000580023              -0.000178930               0.999999984               0.000588607              -0.000186573               0.999999984               0.000598213              -0.000194826               0.999999984               0.000608704              -0.000203049               0.999999984               0.000619791              -0.000210555               0.999999984               0.000631188              -0.000217074               0.999999984               0.000642549              -0.000222095               0.999999984               0.000653641              -0.000225156               0.999999984               0.000664270              -0.000226042               0.999999984               0.000674171              -0.000224127               0.999999984               0.000683222              -0.000218294               0.999999984               0.000691395              -0.000207576               0.999999984               0.000498920              -0.000337334               0.999999984               0.000517428              -0.000280652               0.999999984               0.000522573              -0.000260570               0.999999984               0.000525815              -0.000257601               0.999999984               0.000530159              -0.000263050               0.999999984               0.000536137              -0.000272823               0.999999984               0.000543447              -0.000284643               0.999999984               0.000551632              -0.000297132               0.999999984               0.000560476              -0.000309434               0.999999984               0.000569500              -0.000320627               0.999999984               0.000578199              -0.000330139               0.999999984               0.000586349              -0.000337658               0.999999984               0.000593785              -0.000342929               0.999999984               0.000600364              -0.000345560               0.999999984               0.000606088              -0.000344845               0.999999984               0.000611035              -0.000340153               0.999999984               0.000615365              -0.000331109               0.999999984               0.000479130              -0.000444403               0.999999984               0.000479699              -0.000371692               0.999999984               0.000476334              -0.000348468               0.999999984               0.000475631              -0.000347173               0.999999984               0.000478038              -0.000356227               0.999999984               0.000482832              -0.000370203               0.999999984               0.000489162              -0.000386263               0.999999984               0.000496263              -0.000402914               0.999999984               0.000503345              -0.000419063               0.999999984               0.000509970              -0.000433682               0.999999984               0.000515820              -0.000446331               0.999999984               0.000520745              -0.000456757               0.999999984               0.000524499              -0.000464715               0.999999984               0.000527097              -0.000470015               0.999999984               0.000528705              -0.000472323               0.999999984               0.000529548              -0.000471455               0.999999984               0.000529940              -0.000467735               0.999999984               0.000454305              -0.000546996               0.999999984               0.000434644              -0.000461064               0.999999984               0.000423528              -0.000436753               0.999999984               0.000420027              -0.000438300               0.999999984               0.000421566              -0.000451474               0.999999984               0.000426078              -0.000469903               0.999999984               0.000431912              -0.000490296               0.999999984               0.000437865              -0.000510957               0.999999984               0.000443295              -0.000530712               0.999999984               0.000447758              -0.000548702               0.999999984               0.000450835              -0.000564572               0.999999984               0.000452460              -0.000578008               0.999999984               0.000452518              -0.000588796               0.999999984               0.000451163              -0.000597235               0.999999984               0.000448718              -0.000603365               0.999999984               0.000445410              -0.000607242               0.999999984               0.000441310              -0.000608975               0.999999984               0.000424991              -0.000644018               0.999999984               0.000384756              -0.000548587               0.999999984               0.000367878              -0.000524904               0.999999984               0.000363490              -0.000529834               0.999999984               0.000365544              -0.000547324               0.999999984               0.000370447              -0.000570210               0.999999984               0.000376010              -0.000594714               0.999999984               0.000381107              -0.000619202               0.999999984               0.000384863              -0.000642597               0.999999984               0.000386737              -0.000663913               0.999999984               0.000386730              -0.000682684               0.999999984               0.000384712              -0.000698699               0.999999984               0.000380821              -0.000712174               0.999999984               0.000375306              -0.000723618               0.999999984               0.000368374              -0.000733229               0.999999984               0.000360041              -0.000741007               0.999999984               0.000350308              -0.000746619               0.999999984               0.000391871              -0.000734388               0.999999984               0.000332596              -0.000633976               0.999999984               0.000312723              -0.000612099               0.999999984               0.000309569              -0.000620467               0.999999984               0.000313167              -0.000641992               0.999999984               0.000318882              -0.000669035               0.999999984               0.000324350              -0.000697611               0.999999984               0.000328223              -0.000726031               0.999999984               0.000329843              -0.000752677               0.999999984               0.000328984              -0.000776546               0.999999984               0.000325383              -0.000797383               0.999999984               0.000319132              -0.000815414               0.999999984               0.000310453              -0.000831174               0.999999984               0.000299586              -0.000845360               0.999999984               0.000286821              -0.000858013               0.999999984               0.000272257              -0.000868757               0.999999984               0.000256199              -0.000877282               0.999999984               0.000356251              -0.000816487               0.999999984               0.000280095              -0.000717064               0.999999984               0.000261010              -0.000697259               0.999999984               0.000260468              -0.000708731               0.999999984               0.000266163              -0.000733932               0.999999984               0.000272757              -0.000764961               0.999999984               0.000277763              -0.000797658               0.999999984               0.000280125              -0.000829375               0.999999984               0.000279171              -0.000858560               0.999999984               0.000274550              -0.000884387               0.999999984               0.000266156              -0.000906806               0.999999984               0.000254258              -0.000926597               0.999999984               0.000239469              -0.000944481               0.999999984               0.000222424              -0.000960881               0.999999984               0.000203457              -0.000975791               0.999999984               0.000183014              -0.000989049               0.999999984               0.000161825              -0.001000810               0.999999984               0.000319901              -0.000893548               0.999999984               0.000236986              -0.000807569               0.999999984               0.000214793              -0.000783140               0.999999984               0.000212931              -0.000788721               0.999999984               0.000218010              -0.000809040               0.999999984               0.000224535              -0.000836926               0.999999984               0.000230062              -0.000868031               0.999999984               0.000233249              -0.000899637               0.999999984               0.000233379              -0.000929983               0.999999984               0.000230196              -0.000957793               0.999999984               0.000223048              -0.000982712               0.999999984               0.000211901              -0.001004866               0.999999984               0.000197326              -0.001024941               0.999999984               0.000180109              -0.001043454               0.999999984               0.000161129              -0.001060884               0.999999984               0.000140518              -0.001077285               0.999999984               0.000119311              -0.001092466               0.999999984               0.000280126              -0.000963283               0.999999984               0.000196686              -0.000894484               0.999999984               0.000171539              -0.000870503               0.999999984               0.000167526              -0.000872251               0.999999984               0.000171296              -0.000888672               0.999999984               0.000177181              -0.000913617               0.999999984               0.000182702              -0.000943059               0.999999984               0.000186455              -0.000974127               0.999999984               0.000187568              -0.001005225               0.999999984               0.000185431              -0.001034937               0.999999984               0.000179571              -0.001062494               0.999999984               0.000169574              -0.001087407               0.999999984               0.000155694              -0.001109889               0.999999984               0.000138304              -0.001130478               0.999999984               0.000118306              -0.001149852               0.999999984               0.000096398              -0.001168396               0.999999984               0.000073300              -0.001186403               0.999999984               0.000237776              -0.001024161               0.999999984               0.000159057              -0.000975378               0.999999984               0.000132416              -0.000955563               0.999999984               0.000126074              -0.000956180               0.999999984               0.000128011              -0.000970259               0.999999984               0.000132743              -0.000993013               0.999999984               0.000137661              -0.001020980               0.999999984               0.000141397              -0.001051723               0.999999984               0.000143090              -0.001083288               0.999999984               0.000141870              -0.001114565               0.999999984               0.000137245              -0.001144693               0.999999984               0.000128650              -0.001172820               0.999999984               0.000115851              -0.001198675               0.999999984               0.000098882              -0.001222359               0.999999984               0.000078019              -0.001244321               0.999999984               0.000053768              -0.001265043               0.999999984               0.000026903              -0.001285237               0.999999984               0.000193131              -0.001075283               0.999999984               0.000124028              -0.001047091               0.999999984               0.000098002              -0.001034273               0.999999984               0.000090029              -0.001036190               0.999999984               0.000090033              -0.001049608               0.999999984               0.000093227              -0.001071420               0.999999984               0.000097071              -0.001098571               0.999999984               0.000100320              -0.001129153               0.999999984               0.000102032              -0.001161549               0.999999984               0.000101323              -0.001194389               0.999999984               0.000097706              -0.001226903               0.999999984               0.000090581              -0.001258346               0.999999984               0.000079510              -0.001288125               0.999999984               0.000064031              -0.001315905               0.999999984               0.000043658              -0.001341724               0.999999984               0.000018164              -0.001365857               0.999999984              -0.000012379              -0.001388899               0.999999984               0.000146569              -0.001115856               0.999999984               0.000091209              -0.001106549               0.999999984               0.000068410              -0.001102016               0.999999984               0.000060176              -0.001107038               0.999999984               0.000058731              -0.001121304               0.999999984               0.000060346              -0.001143098               0.999999984               0.000062949              -0.001170306               0.999999984               0.000065301              -0.001201181               0.999999984               0.000066677              -0.001234413               0.999999984               0.000066280              -0.001268960               0.999999984               0.000063502              -0.001303844               0.999999984               0.000057850              -0.001338461               0.999999984               0.000049000              -0.001372174               0.999999984               0.000036183              -0.001404451               0.999999984               0.000018206              -0.001435047               0.999999984              -0.000005657              -0.001463781               0.999999984              -0.000036268              -0.001490837               0.999999984               0.000098540              -0.001145280               0.999999984               0.000059996              -0.001151049               0.999999984               0.000042998              -0.001154326               0.999999984               0.000036184              -0.001163133               0.999999984               0.000034273              -0.001179064               0.999999984               0.000034770              -0.001201511               0.999999984               0.000036180              -0.001229121               0.999999984               0.000037658              -0.001260579               0.999999984               0.000038572              -0.001294670               0.999999984               0.000038267              -0.001330626               0.999999984               0.000036347              -0.001367586               0.999999984               0.000032468              -0.001404876               0.999999984               0.000026327              -0.001441949               0.999999984               0.000017067              -0.001478282               0.999999984               0.000003633              -0.001513459               0.999999984              -0.000015040              -0.001547009               0.999999984              -0.000040115              -0.001578540               0.999999984               0.000049516              -0.001163145               0.999999984               0.000029769              -0.001178594               0.999999984               0.000020664              -0.001187337               0.999999984               0.000016821              -0.001199201               0.999999984               0.000015501              -0.001216764               0.999999984               0.000015529              -0.001240044               0.999999984               0.000016096              -0.001268131               0.999999984               0.000016800              -0.001300035               0.999999984               0.000017231              -0.001334814               0.999999984               0.000017061              -0.001371734               0.999999984               0.000016028              -0.001410061               0.999999984               0.000014156              -0.001449228               0.999999984               0.000011005              -0.001488668               0.999999984               0.000006090              -0.001527891               0.999999984              -0.000001087              -0.001566341               0.999999984              -0.000011475              -0.001603434               0.999999984              -0.000025828              -0.001638470               0.999999984               0.000000000              -0.001169112               0.999999984              -0.000000000              -0.001187925               0.999999984              -0.000000000              -0.001198639               0.999999984              -0.000000000              -0.001211610               0.999999984              -0.000000000              -0.001229886               0.999999984               0.000000000              -0.001253598               0.999999984               0.000000000              -0.001281847               0.999999984              -0.000000000              -0.001313870               0.999999984              -0.000000000              -0.001348856               0.999999984              -0.000000000              -0.001386145               0.999999984               0.000000000              -0.001424959               0.999999984              -0.000000000              -0.001464790               0.999999984              -0.000000000              -0.001505107               0.999999984               0.000000000              -0.001545435               0.999999984               0.000000000              -0.001585165               0.999999984              -0.000000000              -0.001623579               0.999999984               0.000000000              -0.001659935               0.999999984               0.000525069              -0.000000000               0.999999984               0.000569588               0.000000000               0.999999984               0.000589637              -0.000000000               0.999999984               0.000601187               0.000000000               0.999999984               0.000610303              -0.000000000               0.999999984               0.000619461               0.000000000               0.999999984               0.000629446               0.000000000               0.999999984               0.000640520              -0.000000000               0.999999984               0.000652781               0.000000000               0.999999984               0.000666023              -0.000000000               0.999999984               0.000680094              -0.000000000               0.999999984               0.000694676              -0.000000000               0.999999984               0.000709505              -0.000000000               0.999999984               0.000724369              -0.000000000               0.999999984               0.000739045               0.000000000               0.999999984               0.000753226              -0.000000000               0.999999984               0.000766201              -0.000000000               0.999999984               0.000522150               0.000114003               0.999999984               0.000563587               0.000094387               0.999999984               0.000581682               0.000086531               0.999999984               0.000592136               0.000084496               0.999999984               0.000600584               0.000085567               0.999999984               0.000609187               0.000088410               0.999999984               0.000618788               0.000092169               0.999999984               0.000629518               0.000096216               0.999999984               0.000641323               0.000100326               0.999999984               0.000653989               0.000104116               0.999999984               0.000667270               0.000107375               0.999999984               0.000680912               0.000109798               0.999999984               0.000694643               0.000111193               0.999999984               0.000708192               0.000111446               0.999999984               0.000721454               0.000110113               0.999999984               0.000734105               0.000106242               0.999999984               0.000745636               0.000098892               0.999999984               0.000513363               0.000226836               0.999999984               0.000545881               0.000188102               0.999999984               0.000558658               0.000173286               0.999999984               0.000566004               0.000170117               0.999999984               0.000572620               0.000172892               0.999999984               0.000580023               0.000178930               0.999999984               0.000588607               0.000186573               0.999999984               0.000598213               0.000194826               0.999999984               0.000608704               0.000203049               0.999999984               0.000619791               0.000210555               0.999999984               0.000631188               0.000217074               0.999999984               0.000642549               0.000222095               0.999999984               0.000653641               0.000225156               0.999999984               0.000664270               0.000226042               0.999999984               0.000674171               0.000224127               0.999999984               0.000683222               0.000218294               0.999999984               0.000691395               0.000207576               0.999999984               0.000498920               0.000337334               0.999999984               0.000517428               0.000280652               0.999999984               0.000522573               0.000260570               0.999999984               0.000525815               0.000257601               0.999999984               0.000530159               0.000263050               0.999999984               0.000536137               0.000272823               0.999999984               0.000543447               0.000284643               0.999999984               0.000551632               0.000297132               0.999999984               0.000560476               0.000309434               0.999999984               0.000569500               0.000320627               0.999999984               0.000578199               0.000330139               0.999999984               0.000586349               0.000337658               0.999999984               0.000593785               0.000342929               0.999999984               0.000600364               0.000345560               0.999999984               0.000606088               0.000344845               0.999999984               0.000611035               0.000340153               0.999999984               0.000615365               0.000331109               0.999999984               0.000479130               0.000444403               0.999999984               0.000479699               0.000371692               0.999999984               0.000476334               0.000348468               0.999999984               0.000475631               0.000347173               0.999999984               0.000478038               0.000356227               0.999999984               0.000482832               0.000370203               0.999999984               0.000489162               0.000386263               0.999999984               0.000496263               0.000402914               0.999999984               0.000503345               0.000419063               0.999999984               0.000509970               0.000433682               0.999999984               0.000515820               0.000446331               0.999999984               0.000520745               0.000456757               0.999999984               0.000524499               0.000464715               0.999999984               0.000527097               0.000470015               0.999999984               0.000528705               0.000472323               0.999999984               0.000529548               0.000471455               0.999999984               0.000529940               0.000467735               0.999999984               0.000454305               0.000546996               0.999999984               0.000434644               0.000461064               0.999999984               0.000423528               0.000436753               0.999999984               0.000420027               0.000438300               0.999999984               0.000421566               0.000451474               0.999999984               0.000426078               0.000469903               0.999999984               0.000431912               0.000490296               0.999999984               0.000437865               0.000510957               0.999999984               0.000443295               0.000530712               0.999999984               0.000447758               0.000548702               0.999999984               0.000450835               0.000564572               0.999999984               0.000452460               0.000578008               0.999999984               0.000452518               0.000588796               0.999999984               0.000451163               0.000597235               0.999999984               0.000448718               0.000603365               0.999999984               0.000445410               0.000607242               0.999999984               0.000441310               0.000608975               0.999999984               0.000424991               0.000644018               0.999999984               0.000384756               0.000548587               0.999999984               0.000367878               0.000524904               0.999999984               0.000363490               0.000529834               0.999999984               0.000365544               0.000547324               0.999999984               0.000370447               0.000570210               0.999999984               0.000376010               0.000594714               0.999999984               0.000381107               0.000619202               0.999999984               0.000384863               0.000642597               0.999999984               0.000386737               0.000663913               0.999999984               0.000386730               0.000682684               0.999999984               0.000384712               0.000698699               0.999999984               0.000380821               0.000712174               0.999999984               0.000375306               0.000723618               0.999999984               0.000368374               0.000733229               0.999999984               0.000360041               0.000741007               0.999999984               0.000350308               0.000746619               0.999999984               0.000391871               0.000734388               0.999999984               0.000332596               0.000633976               0.999999984               0.000312723               0.000612099               0.999999984               0.000309569               0.000620467               0.999999984               0.000313167               0.000641992               0.999999984               0.000318882               0.000669035               0.999999984               0.000324350               0.000697611               0.999999984               0.000328223               0.000726031               0.999999984               0.000329843               0.000752677               0.999999984               0.000328984               0.000776546               0.999999984               0.000325383               0.000797383               0.999999984               0.000319132               0.000815414               0.999999984               0.000310453               0.000831174               0.999999984               0.000299586               0.000845360               0.999999984               0.000286821               0.000858013               0.999999984               0.000272257               0.000868757               0.999999984               0.000256199               0.000877282               0.999999984               0.000356251               0.000816487               0.999999984               0.000280095               0.000717064               0.999999984               0.000261010               0.000697259               0.999999984               0.000260468               0.000708731               0.999999984               0.000266163               0.000733932               0.999999984               0.000272757               0.000764961               0.999999984               0.000277763               0.000797658               0.999999984               0.000280125               0.000829375               0.999999984               0.000279171               0.000858560               0.999999984               0.000274550               0.000884387               0.999999984               0.000266156               0.000906806               0.999999984               0.000254258               0.000926597               0.999999984               0.000239469               0.000944481               0.999999984               0.000222424               0.000960881               0.999999984               0.000203457               0.000975791               0.999999984               0.000183014               0.000989049               0.999999984               0.000161825               0.001000810               0.999999984               0.000319901               0.000893548               0.999999984               0.000236986               0.000807569               0.999999984               0.000214793               0.000783140               0.999999984               0.000212931               0.000788721               0.999999984               0.000218010               0.000809040               0.999999984               0.000224535               0.000836926               0.999999984               0.000230062               0.000868031               0.999999984               0.000233249               0.000899637               0.999999984               0.000233379               0.000929983               0.999999984               0.000230196               0.000957793               0.999999984               0.000223048               0.000982712               0.999999984               0.000211901               0.001004866               0.999999984               0.000197326               0.001024941               0.999999984               0.000180109               0.001043454               0.999999984               0.000161129               0.001060884               0.999999984               0.000140518               0.001077285               0.999999984               0.000119311               0.001092466               0.999999984               0.000280126               0.000963283               0.999999984               0.000196686               0.000894484               0.999999984               0.000171539               0.000870503               0.999999984               0.000167526               0.000872251               0.999999984               0.000171296               0.000888672               0.999999984               0.000177181               0.000913617               0.999999984               0.000182702               0.000943059               0.999999984               0.000186455               0.000974127               0.999999984               0.000187568               0.001005225               0.999999984               0.000185431               0.001034937               0.999999984               0.000179571               0.001062494               0.999999984               0.000169574               0.001087407               0.999999984               0.000155694               0.001109889               0.999999984               0.000138304               0.001130478               0.999999984               0.000118306               0.001149852               0.999999984               0.000096398               0.001168396               0.999999984               0.000073300               0.001186403               0.999999984               0.000237776               0.001024161               0.999999984               0.000159057               0.000975378               0.999999984               0.000132416               0.000955563               0.999999984               0.000126074               0.000956180               0.999999984               0.000128011               0.000970259               0.999999984               0.000132743               0.000993013               0.999999984               0.000137661               0.001020980               0.999999984               0.000141397               0.001051723               0.999999984               0.000143090               0.001083288               0.999999984               0.000141870               0.001114565               0.999999984               0.000137245               0.001144693               0.999999984               0.000128650               0.001172820               0.999999984               0.000115851               0.001198675               0.999999984               0.000098882               0.001222359               0.999999984               0.000078019               0.001244321               0.999999984               0.000053768               0.001265043               0.999999984               0.000026903               0.001285237               0.999999984               0.000193131               0.001075283               0.999999984               0.000124028               0.001047091               0.999999984               0.000098002               0.001034273               0.999999984               0.000090029               0.001036190               0.999999984               0.000090033               0.001049608               0.999999984               0.000093227               0.001071420               0.999999984               0.000097071               0.001098571               0.999999984               0.000100320               0.001129153               0.999999984               0.000102032               0.001161549               0.999999984               0.000101323               0.001194389               0.999999984               0.000097706               0.001226903               0.999999984               0.000090581               0.001258346               0.999999984               0.000079510               0.001288125               0.999999984               0.000064031               0.001315905               0.999999984               0.000043658               0.001341724               0.999999984               0.000018164               0.001365857               0.999999984              -0.000012379               0.001388899               0.999999984               0.000146569               0.001115856               0.999999984               0.000091209               0.001106549               0.999999984               0.000068410               0.001102016               0.999999984               0.000060176               0.001107038               0.999999984               0.000058731               0.001121304               0.999999984               0.000060346               0.001143098               0.999999984               0.000062949               0.001170306               0.999999984               0.000065301               0.001201181               0.999999984               0.000066677               0.001234413               0.999999984               0.000066280               0.001268960               0.999999984               0.000063502               0.001303844               0.999999984               0.000057850               0.001338461               0.999999984               0.000049000               0.001372174               0.999999984               0.000036183               0.001404451               0.999999984               0.000018206               0.001435047               0.999999984              -0.000005657               0.001463781               0.999999984              -0.000036268               0.001490837               0.999999984               0.000098540               0.001145280               0.999999984               0.000059996               0.001151049               0.999999984               0.000042998               0.001154326               0.999999984               0.000036184               0.001163133               0.999999984               0.000034273               0.001179064               0.999999984               0.000034770               0.001201511               0.999999984               0.000036180               0.001229121               0.999999984               0.000037658               0.001260579               0.999999984               0.000038572               0.001294670               0.999999984               0.000038267               0.001330626               0.999999984               0.000036347               0.001367586               0.999999984               0.000032468               0.001404876               0.999999984               0.000026327               0.001441949               0.999999984               0.000017067               0.001478282               0.999999984               0.000003633               0.001513459               0.999999984              -0.000015040               0.001547009               0.999999984              -0.000040115               0.001578540               0.999999984               0.000049516               0.001163145               0.999999984               0.000029769               0.001178594               0.999999984               0.000020664               0.001187337               0.999999984               0.000016821               0.001199201               0.999999984               0.000015501               0.001216764               0.999999984               0.000015529               0.001240044               0.999999984               0.000016096               0.001268131               0.999999984               0.000016800               0.001300035               0.999999984               0.000017231               0.001334814               0.999999984               0.000017061               0.001371734               0.999999984               0.000016028               0.001410061               0.999999984               0.000014156               0.001449228               0.999999984               0.000011005               0.001488668               0.999999984               0.000006090               0.001527891               0.999999984              -0.000001087               0.001566341               0.999999984              -0.000011475               0.001603434               0.999999984              -0.000025828               0.001638470               0.999999984              -0.000000000               0.001169112               0.999999984              -0.000000000               0.001187925               0.999999984              -0.000000000               0.001198639               0.999999984              -0.000000000               0.001211610               0.999999984              -0.000000000               0.001229886               0.999999984              -0.000000000               0.001253598               0.999999984               0.000000000               0.001281847               0.999999984              -0.000000000               0.001313870               0.999999984               0.000000000               0.001348856               0.999999984              -0.000000000               0.001386145               0.999999984               0.000000000               0.001424959               0.999999984               0.000000000               0.001464790               0.999999984               0.000000000               0.001505107               0.999999984              -0.000000000               0.001545435               0.999999984              -0.000000000               0.001585165               0.999999984               0.000000000               0.001623579               0.999999984              -0.000000000               0.001659935               0.999999984 </DataArray>
<DataArray type="Float64"                                    Name="defo"                                                      NumberOfComponents=" 3" format="ascii">
             -0.000525069               0.000000000               0.999999984              -0.000569588              -0.000000000               0.999999984              -0.000589637              -0.000000000               0.999999984              -0.000601187              -0.000000000               0.999999984              -0.000610303              -0.000000000               0.999999984              -0.000619461              -0.000000000               0.999999984              -0.000629446               0.000000000               0.999999984              -0.000640520               0.000000000               0.999999984              -0.000652781               0.000000000               0.999999984              -0.000666023               0.000000000               0.999999984              -0.000680094              -0.000000000               0.999999984              -0.000694676              -0.000000000               0.999999984              -0.000709505               0.000000000               0.999999984              -0.000724369              -0.000000000               0.999999984              -0.000739045               0.000000000               0.999999984              -0.000753226              -0.000000000               0.999999984              -0.000766201               0.000000000               0.999999984              -0.000522150               0.000114003               0.999999984              -0.000563587               0.000094387               0.999999984              -0.000581682               0.000086531               0.999999984              -0.000592136               0.000084496               0.999999984              -0.000600584               0.000085567               0.999999984              -0.000609187               0.000088410               0.999999984              -0.000618788               0.000092169               0.999999984              -0.000629518               0.000096216               0.999999984              -0.000641323               0.000100326               0.999999984              -0.000653989               0.000104116               0.999999984              -0.000667270               0.000107375               0.999999984              -0.000680912               0.000109798               0.999999984              -0.000694643               0.000111193               0.999999984              -0.000708192               0.000111446               0.999999984              -0.000721454               0.000110113               0.999999984              -0.000734105               0.000106242               0.999999984              -0.000745636               0.000098892               0.999999984              -0.000513363               0.000226836               0.999999984              -0.000545881               0.000188102               0.999999984              -0.000558658               0.000173286               0.999999984              -0.000566004               0.000170117               0.999999984              -0.000572620               0.000172892               0.999999984              -0.000580023               0.000178930               0.999999984              -0.000588607               0.000186573               0.999999984              -0.000598213               0.000194826               0.999999984              -0.000608704               0.000203049               0.999999984              -0.000619791               0.000210555               0.999999984              -0.000631188               0.000217074               0.999999984              -0.000642549               0.000222095               0.999999984              -0.000653641               0.000225156               0.999999984              -0.000664270               0.000226042               0.999999984              -0.000674171               0.000224127               0.999999984              -0.000683222               0.000218294               0.999999984              -0.000691395               0.000207576               0.999999984              -0.000498920               0.000337334               0.999999984              -0.000517428               0.000280652               0.999999984              -0.000522573               0.000260570               0.999999984              -0.000525815               0.000257601               0.999999984              -0.000530159               0.000263050               0.999999984              -0.000536137               0.000272823               0.999999984              -0.000543447               0.000284643               0.999999984              -0.000551632               0.000297132               0.999999984              -0.000560476               0.000309434               0.999999984              -0.000569500               0.000320627               0.999999984              -0.000578199               0.000330139               0.999999984              -0.000586349               0.000337658               0.999999984              -0.000593785               0.000342929               0.999999984              -0.000600364               0.000345560               0.999999984              -0.000606088               0.000344845               0.999999984              -0.000611035               0.000340153               0.999999984              -0.000615365               0.000331109               0.999999984              -0.000479130               0.000444403               0.999999984              -0.000479699               0.000371692               0.999999984              -0.000476334               0.000348468               0.999999984              -0.000475631               0.000347173               0.999999984              -0.000478038               0.000356227               0.999999984              -0.000482832               0.000370203               0.999999984              -0.000489162               0.000386263               0.999999984              -0.000496263               0.000402914               0.999999984              -0.000503345               0.000419063               0.999999984              -0.000509970               0.000433682               0.999999984              -0.000515820               0.000446331               0.999999984              -0.000520745               0.000456757               0.999999984              -0.000524499               0.000464715               0.999999984              -0.000527097               0.000470015               0.999999984              -0.000528705               0.000472323               0.999999984              -0.000529548               0.000471455               0.999999984              -0.000529940               0.000467735               0.999999984              -0.000454305               0.000546996               0.999999984              -0.000434644               0.000461064               0.999999984              -0.000423528               0.000436753               0.999999984              -0.000420027               0.000438300               0.999999984              -0.000421566               0.000451474               0.999999984              -0.000426078               0.000469903               0.999999984              -0.000431912               0.000490296               0.999999984              -0.000437865               0.000510957               0.999999984              -0.000443295               0.000530712               0.999999984              -0.000447758               0.000548702               0.999999984              -0.000450835               0.000564572               0.999999984              -0.000452460               0.000578008               0.999999984              -0.000452518               0.000588796               0.999999984              -0.000451163               0.000597235               0.999999984              -0.000448718               0.000603365               0.999999984              -0.000445410               0.000607242               0.999999984              -0.000441310               0.000608975               0.999999984              -0.000424991               0.000644018               0.999999984              -0.000384756               0.000548587               0.999999984              -0.000367878               0.000524904               0.999999984              -0.000363490               0.000529834               0.999999984              -0.000365544               0.000547324               0.999999984              -0.000370447               0.000570210               0.999999984              -0.000376010               0.000594714               0.999999984              -0.000381107               0.000619202               0.999999984              -0.000384863               0.000642597               0.999999984              -0.000386737               0.000663913               0.999999984              -0.000386730               0.000682684               0.999999984              -0.000384712               0.000698699               0.999999984              -0.000380821               0.000712174               0.999999984              -0.000375306               0.000723618               0.999999984              -0.000368374               0.000733229               0.999999984              -0.000360041               0.000741007               0.999999984              -0.000350308               0.000746619               0.999999984              -0.000391871               0.000734388               0.999999984              -0.000332596               0.000633976               0.999999984              -0.000312723               0.000612099               0.999999984              -0.000309569               0.000620467               0.999999984              -0.000313167               0.000641992               0.999999984              -0.000318882               0.000669035               0.999999984              -0.000324350               0.000697611               0.999999984              -0.000328223               0.000726031               0.999999984              -0.000329843               0.000752677               0.999999984              -0.000328984               0.000776546               0.999999984              -0.000325383               0.000797383               0.999999984              -0.000319132               0.000815414               0.999999984              -0.000310453               0.000831174               0.999999984              -0.000299586               0.000845360               0.999999984              -0.000286821               0.000858013               0.999999984              -0.000272257               0.000868757               0.999999984              -0.000256199               0.000877282               0.999999984              -0.000356251               0.000816487               0.999999984              -0.000280095               0.000717064               0.999999984              -0.000261010               0.000697259               0.999999984              -0.000260468               0.000708731               0.999999984              -0.000266163               0.000733932               0.999999984              -0.000272757               0.000764961               0.999999984              -0.000277763               0.000797658               0.999999984              -0.000280125               0.000829375               0.999999984              -0.000279171               0.000858560               0.999999984              -0.000274550               0.000884387               0.999999984              -0.000266156               0.000906806               0.999999984              -0.000254258               0.000926597               0.999999984              -0.000239469               0.000944481               0.999999984              -0.000222424               0.000960881               0.999999984              -0.000203457               0.000975791               0.999999984              -0.000183014               0.000989049               0.999999984              -0.000161825               0.001000810               0.999999984              -0.000319901               0.000893548               0.999999984              -0.000236986               0.000807569               0.999999984              -0.000214793               0.000783140               0.999999984              -0.000212931               0.000788721               0.999999984              -0.000218010               0.000809040               0.999999984              -0.000224535               0.000836926               0.999999984              -0.000230062               0.000868031               0.999999984              -0.000233249               0.000899637               0.999999984              -0.000233379               0.000929983               0.999999984              -0.000230196               0.000957793               0.999999984              -0.000223048               0.000982712               0.999999984              -0.000211901               0.001004866               0.999999984              -0.000197326               0.001024941               0.999999984              -0.000180109               0.001043454               0.999999984              -0.000161129               0.001060884               0.999999984              -0.000140518               0.001077285               0.999999984              -0.000119311               0.001092466               0.999999984              -0.000280126               0.000963283               0.999999984              -0.000196686               0.000894484               0.999999984              -0.000171539               0.000870503               0.999999984              -0.000167526               0.000872251               0.999999984              -0.000171296               0.000888672               0.999999984              -0.000177181               0.000913617               0.999999984              -0.000182702               0.000943059               0.999999984              -0.000186455               0.000974127               0.999999984              -0.000187568               0.001005225               0.999999984              -0.000185431               0.001034937               0.999999984              -0.000179571               0.001062494               0.999999984              -0.000169574               0.001087407               0.999999984              -0.000155694               0.001109889               0.999999984              -0.000138304               0.001130478               0.999999984              -0.000118306               0.001149852               0.999999984              -0.000096398               0.001168396               0.999999984              -0.000073300               0.001186403               0.999999984              -0.000237776               0.001024161               0.999999984              -0.000159057               0.000975378               0.999999984              -0.000132416               0.000955563               0.999999984              -0.000126074               0.000956180               0.999999984              -0.000128011               0.000970259               0.999999984              -0.000132743               0.000993013               0.999999984              -0.000137661               0.001020980               0.999999984              -0.000141397               0.001051723               0.999999984              -0.000143090               0.001083288               0.999999984              -0.000141870               0.001114565               0.999999984              -0.000137245               0.001144693               0.999999984              -0.000128650               0.001172820               0.999999984              -0.000115851               0.001198675               0.999999984              -0.000098882               0.001222359               0.999999984              -0.000078019               0.001244321               0.999999984              -0.000053768               0.001265043               0.999999984              -0.000026903               0.001285237               0.999999984              -0.000193131               0.001075283               0.999999984              -0.000124028               0.001047091               0.999999984              -0.000098002               0.001034273               0.999999984              -0.000090029               0.001036190               0.999999984              -0.000090033               0.001049608               0.999999984              -0.000093227               0.001071420               0.999999984              -0.000097071               0.001098571               0.999999984              -0.000100320               0.001129153               0.999999984              -0.000102032               0.001161549               0.999999984              -0.000101323               0.001194389               0.999999984              -0.000097706               0.001226903               0.999999984              -0.000090581               0.001258346               0.999999984              -0.000079510               0.001288125               0.999999984              -0.000064031               0.001315905               0.999999984              -0.000043658               0.001341724               0.999999984              -0.000018164               0.001365857               0.999999984               0.000012379               0.001388899               0.999999984              -0.000146569               0.001115856               0.999999984              -0.000091209               0.001106549               0.999999984              -0.000068410               0.001102016               0.999999984              -0.000060176               0.001107038               0.999999984              -0.000058731               0.001121304               0.999999984              -0.000060346               0.001143098               0.999999984              -0.000062949               0.001170306               0.999999984              -0.000065301               0.001201181               0.999999984              -0.000066677               0.001234413               0.999999984              -0.000066280               0.001268960               0.999999984              -0.000063502               0.001303844               0.999999984              -0.000057850               0.001338461               0.999999984              -0.000049000               0.001372174               0.999999984              -0.000036183               0.001404451               0.999999984              -0.000018206               0.001435047               0.999999984               0.000005657               0.001463781               0.999999984               0.000036268               0.001490837               0.999999984              -0.000098540               0.001145280               0.999999984              -0.000059996               0.001151049               0.999999984              -0.000042998               0.001154326               0.999999984              -0.000036184               0.001163133               0.999999984              -0.000034273               0.001179064               0.999999984              -0.000034770               0.001201511               0.999999984              -0.000036180               0.001229121               0.999999984              -0.000037658               0.001260579               0.999999984              -0.000038572               0.001294670               0.999999984              -0.000038267               0.001330626               0.999999984              -0.000036347               0.001367586               0.999999984              -0.000032468               0.001404876               0.999999984              -0.000026327               0.001441949               0.999999984              -0.000017067               0.001478282               0.999999984              -0.000003633               0.001513459               0.999999984               0.000015040               0.001547009               0.999999984               0.000040115               0.001578540               0.999999984              -0.000049516               0.001163145               0.999999984              -0.000029769               0.001178594               0.999999984              -0.000020664               0.001187337               0.999999984              -0.000016821               0.001199201               0.999999984              -0.000015501               0.001216764               0.999999984              -0.000015529               0.001240044               0.999999984              -0.000016096               0.001268131               0.999999984              -0.000016800               0.001300035               0.999999984              -0.000017231               0.001334814               0.999999984              -0.000017061               0.001371734               0.999999984              -0.000016028               0.001410061               0.999999984              -0.000014156               0.001449228               0.999999984              -0.000011005               0.001488668               0.999999984              -0.000006090               0.001527891               0.999999984               0.000001087               0.001566341               0.999999984               0.000011475               0.001603434               0.999999984               0.000025828               0.001638470               0.999999984              -0.000000000               0.001169112               0.999999984              -0.000000000               0.001187925               0.999999984              -0.000000000               0.001198639               0.999999984              -0.000000000               0.001211610               0.999999984              -0.000000000               0.001229886               0.999999984              -0.000000000               0.001253598               0.999999984               0.000000000               0.001281847               0.999999984              -0.000000000               0.001313870               0.999999984               0.000000000               0.001348856               0.999999984              -0.000000000               0.001386145               0.999999984               0.000000000               0.001424959               0.999999984               0.000000000               0.001464790               0.999999984               0.000000000               0.001505107               0.999999984              -0.000000000               0.001545435               0.999999984              -0.000000000               0.001585165               0.999999984               0.000000000               0.001623579               0.999999984              -0.000000000               0.001659935               0.999999984              -0.000525069               0.000000000               0.999999984              -0.000569588              -0.000000000               0.999999984              -0.000589637              -0.000000000               0.999999984              -0.000601187              -0.000000000               0.999999984              -0.000610303              -0.000000000               0.999999984              -0.000619461              -0.000000000               0.999999984              -0.000629446               0.000000000               0.999999984              -0.000640520               0.000000000               0.999999984              -0.000652781               0.000000000               0.999999984              -0.000666023               0.000000000               0.999999984              -0.000680094              -0.000000000               0.999999984              -0.000694676              -0.000000000               0.999999984              -0.000709505               0.000000000               0.999999984              -0.000724369              -0.000000000               0.999999984              -0.000739045               0.000000000               0.999999984              -0.000753226              -0.000000000               0.999999984              -0.000766201               0.000000000               0.999999984              -0.000522150              -0.000114003               0.999999984              -0.000563587              -0.000094387               0.999999984              -0.000581682              -0.000086531               0.999999984              -0.000592136              -0.000084496               0.999999984              -0.000600584              -0.000085567               0.999999984              -0.000609187              -0.000088410               0.999999984              -0.000618788              -0.000092169               0.999999984              -0.000629518              -0.000096216               0.999999984              -0.000641323              -0.000100326               0.999999984              -0.000653989              -0.000104116               0.999999984              -0.000667270              -0.000107375               0.999999984              -0.000680912              -0.000109798               0.999999984              -0.000694643              -0.000111193               0.999999984              -0.000708192              -0.000111446               0.999999984              -0.000721454              -0.000110113               0.999999984              -0.000734105              -0.000106242               0.999999984              -0.000745636              -0.000098892               0.999999984              -0.000513363              -0.000226836               0.999999984              -0.000545881              -0.000188102               0.999999984              -0.000558658              -0.000173286               0.999999984              -0.000566004              -0.000170117               0.999999984              -0.000572620              -0.000172892               0.999999984              -0.000580023              -0.000178930               0.999999984              -0.000588607              -0.000186573               0.999999984              -0.000598213              -0.000194826               0.999999984              -0.000608704              -0.000203049               0.999999984              -0.000619791              -0.000210555               0.999999984              -0.000631188              -0.000217074               0.999999984              -0.000642549              -0.000222095               0.999999984              -0.000653641              -0.000225156               0.999999984              -0.000664270              -0.000226042               0.999999984              -0.000674171              -0.000224127               0.999999984              -0.000683222              -0.000218294               0.999999984              -0.000691395              -0.000207576               0.999999984              -0.000498920              -0.000337334               0.999999984              -0.000517428              -0.000280652               0.999999984              -0.000522573              -0.000260570               0.999999984              -0.000525815              -0.000257601               0.999999984              -0.000530159              -0.000263050               0.999999984              -0.000536137              -0.000272823               0.999999984              -0.000543447              -0.000284643               0.999999984              -0.000551632              -0.000297132               0.999999984              -0.000560476              -0.000309434               0.999999984              -0.000569500              -0.000320627               0.999999984              -0.000578199              -0.000330139               0.999999984              -0.000586349              -0.000337658               0.999999984              -0.000593785              -0.000342929               0.999999984              -0.000600364              -0.000345560               0.999999984              -0.000606088              -0.000344845               0.999999984              -0.000611035              -0.000340153               0.999999984              -0.000615365              -0.000331109               0.999999984              -0.000479130              -0.000444403               0.999999984              -0.000479699              -0.000371692               0.999999984              -0.000476334              -0.000348468               0.999999984              -0.000475631              -0.000347173               0.999999984              -0.000478038              -0.000356227               0.999999984              -0.000482832              -0.000370203               0.999999984              -0.000489162              -0.000386263               0.999999984              -0.000496263              -0.000402914               0.999999984              -0.000503345              -0.000419063               0.999999984              -0.000509970              -0.000433682               0.999999984              -0.000515820              -0.000446331               0.999999984              -0.000520745              -0.000456757               0.999999984              -0.000524499              -0.000464715               0.999999984              -0.000527097              -0.000470015               0.999999984              -0.000528705              -0.000472323               0.999999984              -0.000529548              -0.000471455               0.999999984              -0.000529940              -0.000467735               0.999999984              -0.000454305              -0.000546996               0.999999984              -0.000434644              -0.000461064               0.999999984              -0.000423528              -0.000436753               0.999999984              -0.000420027              -0.000438300               0.999999984              -0.000421566              -0.000451474               0.999999984              -0.000426078              -0.000469903               0.999999984              -0.000431912              -0.000490296               0.999999984              -0.000437865              -0.000510957               0.999999984              -0.000443295              -0.000530712               0.999999984              -0.000447758              -0.000548702               0.999999984              -0.000450835              -0.000564572               0.999999984              -0.000452460              -0.000578008               0.999999984              -0.000452518              -0.000588796               0.999999984              -0.000451163              -0.000597235               0.999999984              -0.000448718              -0.000603365               0.999999984              -0.000445410              -0.000607242               0.999999984              -0.000441310              -0.000608975               0.999999984              -0.000424991              -0.000644018               0.999999984              -0.000384756              -0.000548587               0.999999984              -0.000367878              -0.000524904               0.999999984              -0.000363490              -0.000529834               0.999999984              -0.000365544              -0.000547324               0.999999984              -0.000370447              -0.000570210               0.999999984              -0.000376010              -0.000594714               0.999999984              -0.000381107              -0.000619202               0.999999984              -0.000384863              -0.000642597               0.999999984              -0.000386737              -0.000663913               0.999999984              -0.000386730              -0.000682684               0.999999984              -0.000384712              -0.000698699               0.999999984              -0.000380821              -0.000712174               0.999999984              -0.000375306              -0.000723618               0.999999984              -0.000368374              -0.000733229               0.999999984              -0.000360041              -0.000741007               0.999999984              -0.000350308              -0.000746619               0.999999984              -0.000391871              -0.000734388               0.999999984              -0.000332596              -0.000633976               0.999999984              -0.000312723              -0.000612099               0.999999984              -0.000309569              -0.000620467               0.999999984              -0.000313167              -0.000641992               0.999999984              -0.000318882              -0.000669035               0.999999984              -0.000324350              -0.000697611               0.999999984              -0.000328223              -0.000726031               0.999999984              -0.000329843              -0.000752677               0.999999984              -0.000328984              -0.000776546               0.999999984              -0.000325383              -0.000797383               0.999999984              -0.000319132              -0.000815414               0.999999984              -0.000310453              -0.000831174               0.999999984              -0.000299586              -0.000845360               0.999999984              -0.000286821              -0.000858013               0.999999984              -0.000272257              -0.000868757               0.999999984              -0.000256199              -0.000877282               0.999999984              -0.000356251              -0.000816487               0.999999984              -0.000280095              -0.000717064               0.999999984              -0.000261010              -0.000697259               0.999999984              -0.000260468              -0.000708731               0.999999984              -0.000266163              -0.000733932               0.999999984              -0.000272757              -0.000764961               0.999999984              -0.000277763              -0.000797658               0.999999984              -0.000280125              -0.000829375               0.999999984              -0.000279171              -0.000858560               0.999999984              -0.000274550              -0.000884387               0.999999984              -0.000266156              -0.000906806               0.999999984              -0.000254258              -0.000926597               0.999999984              -0.000239469              -0.000944481               0.999999984              -0.000222424              -0.000960881               0.999999984              -0.000203457              -0.000975791               0.999999984              -0.000183014              -0.000989049               0.999999984              -0.000161825              -0.001000810               0.999999984              -0.000319901              -0.000893548               0.999999984              -0.000236986              -0.000807569               0.999999984              -0.000214793              -0.000783140               0.999999984              -0.000212931              -0.000788721               0.999999984              -0.000218010              -0.000809040               0.999999984              -0.000224535              -0.000836926               0.999999984              -0.000230062              -0.000868031               0.999999984              -0.000233249              -0.000899637               0.999999984              -0.000233379              -0.000929983               0.999999984              -0.000230196              -0.000957793               0.999999984              -0.000223048              -0.000982712               0.999999984              -0.000211901              -0.001004866               0.999999984              -0.000197326              -0.001024941               0.999999984              -0.000180109              -0.001043454               0.999999984              -0.000161129              -0.001060884               0.999999984              -0.000140518              -0.001077285               0.999999984              -0.000119311              -0.001092466               0.999999984              -0.000280126              -0.000963283               0.999999984              -0.000196686              -0.000894484               0.999999984              -0.000171539              -0.000870503               0.999999984              -0.000167526              -0.000872251               0.999999984              -0.000171296              -0.000888672               0.999999984              -0.000177181              -0.000913617               0.999999984              -0.000182702              -0.000943059               0.999999984              -0.000186455              -0.000974127               0.999999984              -0.000187568              -0.001005225               0.999999984              -0.000185431              -0.001034937               0.999999984              -0.000179571              -0.001062494               0.999999984              -0.000169574              -0.001087407               0.999999984              -0.000155694              -0.001109889               0.999999984              -0.000138304              -0.001130478               0.999999984              -0.000118306              -0.001149852               0.999999984              -0.000096398              -0.001168396               0.999999984              -0.000073300              -0.001186403               0.999999984              -0.000237776              -0.001024161               0.999999984              -0.000159057              -0.000975378               0.999999984              -0.000132416              -0.000955563               0.999999984              -0.000126074              -0.000956180               0.999999984              -0.000128011              -0.000970259               0.999999984              -0.000132743              -0.000993013               0.999999984              -0.000137661              -0.001020980               0.999999984              -0.000141397              -0.001051723               0.999999984              -0.000143090              -0.001083288               0.999999984              -0.000141870              -0.001114565               0.999999984              -0.000137245              -0.001144693               0.999999984              -0.000128650              -0.001172820               0.999999984              -0.000115851              -0.001198675               0.999999984              -0.000098882              -0.001222359               0.999999984              -0.000078019              -0.001244321               0.999999984              -0.000053768              -0.001265043               0.999999984              -0.000026903              -0.001285237               0.999999984              -0.000193131              -0.001075283               0.999999984              -0.000124028              -0.001047091               0.999999984              -0.000098002              -0.001034273               0.999999984              -0.000090029              -0.001036190               0.999999984              -0.000090033              -0.001049608               0.999999984              -0.000093227              -0.001071420               0.999999984              -0.000097071              -0.001098571               0.999999984              -0.000100320              -0.001129153               0.999999984              -0.000102032              -0.001161549               0.999999984              -0.000101323              -0.001194389               0.999999984              -0.000097706              -0.001226903               0.999999984              -0.000090581              -0.001258346               0.999999984              -0.000079510              -0.001288125               0.999999984              -0.000064031              -0.001315905               0.999999984              -0.000043658              -0.001341724               0.999999984              -0.000018164              -0.001365857               0.999999984               0.000012379              -0.001388899               0.999999984              -0.000146569              -0.001115856               0.999999984              -0.000091209              -0.001106549               0.999999984              -0.000068410              -0.001102016               0.999999984              -0.000060176              -0.001107038               0.999999984              -0.000058731              -0.001121304               0.999999984              -0.000060346              -0.001143098               0.999999984              -0.000062949              -0.001170306               0.999999984              -0.000065301              -0.001201181               0.999999984              -0.000066677              -0.001234413               0.999999984              -0.000066280              -0.001268960               0.999999984              -0.000063502              -0.001303844               0.999999984              -0.000057850              -0.001338461               0.999999984              -0.000049000              -0.001372174               0.999999984              -0.000036183              -0.001404451               0.999999984              -0.000018206              -0.001435047               0.999999984               0.000005657              -0.001463781               0.999999984               0.000036268              -0.001490837               0.999999984              -0.000098540              -0.001145280               0.999999984              -0.000059996              -0.001151049               0.999999984              -0.000042998              -0.001154326               0.999999984              -0.000036184              -0.001163133               0.999999984              -0.000034273              -0.001179064               0.999999984              -0.000034770              -0.001201511               0.999999984              -0.000036180              -0.001229121               0.999999984              -0.000037658              -0.001260579               0.999999984              -0.000038572              -0.001294670               0.999999984              -0.000038267              -0.001330626               0.999999984              -0.000036347              -0.001367586               0.999999984              -0.000032468              -0.001404876               0.999999984              -0.000026327              -0.001441949               0.999999984              -0.000017067              -0.001478282               0.999999984              -0.000003633              -0.001513459               0.999999984               0.000015040              -0.001547009               0.999999984               0.000040115              -0.001578540               0.999999984              -0.000049516              -0.001163145               0.999999984              -0.000029769              -0.001178594               0.999999984              -0.000020664              -0.001187337               0.999999984              -0.000016821              -0.001199201               0.999999984              -0.000015501              -0.001216764               0.999999984              -0.000015529              -0.001240044               0.999999984              -0.000016096              -0.001268131               0.999999984              -0.000016800              -0.001300035               0.999999984              -0.000017231              -0.001334814               0.999999984              -0.000017061              -0.001371734               0.999999984              -0.000016028              -0.001410061               0.999999984              -0.000014156              -0.001449228               0.999999984              -0.000011005              -0.001488668               0.999999984              -0.000006090              -0.001527891               0.999999984               0.000001087              -0.001566341               0.999999984               0.000011475              -0.001603434               0.999999984               0.000025828              -0.001638470               0.999999984               0.000000000              -0.001169112               0.999999984              -0.000000000              -0.001187925               0.999999984              -0.000000000              -0.001198639               0.999999984              -0.000000000              -0.001211610               0.999999984              -0.000000000              -0.001229886               0.999999984               0.000000000              -0.001253598               0.999999984               0.000000000              -0.001281847               0.999999984              -0.000000000              -0.001313870               0.999999984              -0.000000000              -0.001348856               0.999999984              -0.000000000              -0.001386145               0.999999984               0.000000000              -0.001424959               0.999999984              -0.000000000              -0.001464790               0.999999984              -0.000000000              -0.001505107               0.999999984               0.000000000              -0.001545435               0.999999984               0.000000000              -0.001585165               0.999999984              -0.000000000              -0.001623579               0.999999984               0.000000000              -0.001659935               0.999999984               0.000525069              -0.000000000               0.999999984               0.000569588               0.000000000               0.999999984               0.000589637              -0.000000000               0.999999984               0.000601187               0.000000000               0.999999984               0.000610303              -0.000000000               0.999999984               0.000619461               0.000000000               0.999999984               0.000629446               0.000000000               0.999999984               0.000640520              -0.000000000               0.999999984               0.000652781               0.000000000               0.999999984               0.000666023              -0.000000000               0.999999984               0.000680094              -0.000000000               0.999999984               0.000694676              -0.000000000               0.999999984               0.000709505              -0.000000000               0.999999984               0.000724369              -0.000000000               0.999999984               0.000739045               0.000000000               0.999999984               0.000753226              -0.000000000               0.999999984               0.000766201              -0.000000000               0.999999984               0.000522150              -0.000114003               0.999999984               0.000563587              -0.000094387               0.999999984               0.000581682              -0.000086531               0.999999984               0.000592136              -0.000084496               0.999999984               0.000600584              -0.000085567               0.999999984               0.000609187              -0.000088410               0.999999984               0.000618788              -0.000092169               0.999999984               0.000629518              -0.000096216               0.999999984               0.000641323              -0.000100326               0.999999984               0.000653989              -0.000104116               0.999999984               0.000667270              -0.000107375               0.999999984               0.000680912              -0.000109798               0.999999984               0.000694643              -0.000111193               0.999999984               0.000708192              -0.000111446               0.999999984               0.000721454              -0.000110113               0.999999984               0.000734105              -0.000106242               0.999999984               0.000745636              -0.000098892               0.999999984               0.000513363              -0.000226836               0.999999984               0.000545881              -0.000188102               0.999999984               0.000558658              -0.000173286               0.999999984               0.000566004              -0.000170117               0.999999984               0.000572620              -0.000172892               0.999999984               0.000580023              -0.000178930               0.999999984               0.000588607              -0.000186573               0.999999984               0.000598213              -0.000194826               0.999999984               0.000608704              -0.000203049               0.999999984               0.000619791              -0.000210555               0.999999984               0.000631188              -0.000217074               0.999999984               0.000642549              -0.000222095               0.999999984               0.000653641              -0.000225156               0.999999984               0.000664270              -0.000226042               0.999999984               0.000674171              -0.000224127               0.999999984               0.000683222              -0.000218294               0.999999984               0.000691395              -0.000207576               0.999999984               0.000498920              -0.000337334               0.999999984               0.000517428              -0.000280652               0.999999984               0.000522573              -0.000260570               0.999999984               0.000525815              -0.000257601               0.999999984               0.000530159              -0.000263050               0.999999984               0.000536137              -0.000272823               0.999999984               0.000543447              -0.000284643               0.999999984               0.000551632              -0.000297132               0.999999984               0.000560476              -0.000309434               0.999999984               0.000569500              -0.000320627               0.999999984               0.000578199              -0.000330139               0.999999984               0.000586349              -0.000337658               0.999999984               0.000593785              -0.000342929               0.999999984               0.000600364              -0.000345560               0.999999984               0.000606088              -0.000344845               0.999999984               0.000611035              -0.000340153               0.999999984               0.000615365              -0.000331109               0.999999984               0.000479130              -0.000444403               0.999999984               0.000479699              -0.000371692               0.999999984               0.000476334              -0.000348468               0.999999984               0.000475631              -0.000347173               0.999999984               0.000478038              -0.000356227               0.999999984               0.000482832              -0.000370203               0.999999984               0.000489162              -0.000386263               0.999999984               0.000496263              -0.000402914               0.999999984               0.000503345              -0.000419063               0.999999984               0.000509970              -0.000433682               0.999999984               0.000515820              -0.000446331               0.999999984               0.000520745              -0.000456757               0.999999984               0.000524499              -0.000464715               0.999999984               0.000527097              -0.000470015               0.999999984               0.000528705              -0.000472323               0.999999984               0.000529548              -0.000471455               0.999999984               0.000529940              -0.000467735               0.999999984               0.000454305              -0.000546996               0.999999984               0.000434644              -0.000461064               0.999999984               0.000423528              -0.000436753               0.999999984               0.000420027              -0.000438300               0.999999984               0.000421566              -0.000451474               0.999999984               0.000426078              -0.000469903               0.999999984               0.000431912              -0.000490296               0.999999984               0.000437865              -0.000510957               0.999999984               0.000443295              -0.000530712               0.999999984               0.000447758              -0.000548702               0.999999984               0.000450835              -0.000564572               0.999999984               0.000452460              -0.000578008               0.999999984               0.000452518              -0.000588796               0.999999984               0.000451163              -0.000597235               0.999999984               0.000448718              -0.000603365               0.999999984               0.000445410              -0.000607242               0.999999984               0.000441310              -0.000608975               0.999999984               0.000424991              -0.000644018               0.999999984               0.000384756              -0.000548587               0.999999984               0.000367878              -0.000524904               0.999999984               0.000363490              -0.000529834               0.999999984               0.000365544              -0.000547324               0.999999984               0.000370447              -0.000570210               0.999999984               0.000376010              -0.000594714               0.999999984               0.000381107              -0.000619202               0.999999984               0.000384863              -0.000642597               0.999999984               0.000386737              -0.000663913               0.999999984               0.000386730              -0.000682684               0.999999984               0.000384712              -0.000698699               0.999999984               0.000380821              -0.000712174               0.999999984               0.000375306              -0.000723618               0.999999984               0.000368374              -0.000733229               0.999999984               0.000360041              -0.000741007               0.999999984               0.000350308              -0.000746619               0.999999984               0.000391871              -0.000734388               0.999999984               0.000332596              -0.000633976               0.999999984               0.000312723              -0.000612099               0.999999984               0.000309569              -0.000620467               0.999999984               0.000313167              -0.000641992               0.999999984               0.000318882              -0.000669035               0.999999984               0.000324350              -0.000697611               0.999999984               0.000328223              -0.000726031               0.999999984               0.000329843              -0.000752677               0.999999984               0.000328984              -0.000776546               0.999999984               0.000325383              -0.000797383               0.999999984               0.000319132              -0.000815414               0.999999984               0.000310453              -0.000831174               0.999999984               0.000299586              -0.000845360               0.999999984               0.000286821              -0.000858013               0.999999984               0.000272257              -0.000868757               0.999999984               0.000256199              -0.000877282               0.999999984               0.000356251              -0.000816487               0.999999984               0.000280095              -0.000717064               0.999999984               0.000261010              -0.000697259               0.999999984               0.000260468              -0.000708731               0.999999984               0.000266163              -0.000733932               0.999999984               0.000272757              -0.000764961               0.999999984               0.000277763              -0.000797658               0.999999984               0.000280125              -0.000829375               0.999999984               0.000279171              -0.000858560               0.999999984               0.000274550              -0.000884387               0.999999984               0.000266156              -0.000906806               0.999999984               0.000254258              -0.000926597               0.999999984               0.000239469              -0.000944481               0.999999984               0.000222424              -0.000960881               0.999999984               0.000203457              -0.000975791               0.999999984               0.000183014              -0.000989049               0.999999984               0.000161825              -0.001000810               0.999999984               0.000319901              -0.000893548               0.999999984               0.000236986              -0.000807569               0.999999984               0.000214793              -0.000783140               0.999999984               0.000212931              -0.000788721               0.999999984               0.000218010              -0.000809040               0.999999984               0.000224535              -0.000836926               0.999999984               0.000230062              -0.000868031               0.999999984               0.000233249              -0.000899637               0.999999984               0.000233379              -0.000929983               0.999999984               0.000230196              -0.000957793               0.999999984               0.000223048              -0.000982712               0.999999984               0.000211901              -0.001004866               0.999999984               0.000197326              -0.001024941               0.999999984               0.000180109              -0.001043454               0.999999984               0.000161129              -0.001060884               0.999999984               0.000140518              -0.001077285               0.999999984               0.000119311              -0.001092466               0.999999984               0.000280126              -0.000963283               0.999999984               0.000196686              -0.000894484               0.999999984               0.000171539              -0.000870503               0.999999984               0.000167526              -0.000872251               0.999999984               0.000171296              -0.000888672               0.999999984               0.000177181              -0.000913617               0.999999984               0.000182702              -0.000943059               0.999999984               0.000186455              -0.000974127               0.999999984               0.000187568              -0.001005225               0.999999984               0.000185431              -0.001034937               0.999999984               0.000179571              -0.001062494               0.999999984               0.000169574              -0.001087407               0.999999984               0.000155694              -0.001109889               0.999999984               0.000138304              -0.001130478               0.999999984               0.000118306              -0.001149852               0.999999984               0.000096398              -0.001168396               0.999999984               0.000073300              -0.001186403               0.999999984               0.000237776              -0.001024161               0.999999984               0.000159057              -0.000975378               0.999999984               0.000132416              -0.000955563               0.999999984               0.000126074              -0.000956180               0.999999984               0.000128011              -0.000970259               0.999999984               0.000132743              -0.000993013               0.999999984               0.000137661              -0.001020980               0.999999984               0.000141397              -0.001051723               0.999999984               0.000143090              -0.001083288               0.999999984               0.000141870              -0.001114565               0.999999984               0.000137245              -0.001144693               0.999999984               0.000128650              -0.001172820               0.999999984               0.000115851              -0.001198675               0.999999984               0.000098882              -0.001222359               0.999999984               0.000078019              -0.001244321               0.999999984               0.000053768              -0.001265043               0.999999984               0.000026903              -0.001285237               0.999999984               0.000193131              -0.001075283               0.999999984               0.000124028              -0.001047091               0.999999984               0.000098002              -0.001034273               0.999999984               0.000090029              -0.001036190               0.999999984               0.000090033              -0.001049608               0.999999984               0.000093227              -0.001071420               0.999999984               0.000097071              -0.001098571               0.999999984               0.000100320              -0.001129153               0.999999984               0.000102032              -0.001161549               0.999999984               0.000101323              -0.001194389               0.999999984               0.000097706              -0.001226903               0.999999984               0.000090581              -0.001258346               0.999999984               0.000079510              -0.001288125               0.999999984               0.000064031              -0.001315905               0.999999984               0.000043658              -0.001341724               0.999999984               0.000018164              -0.001365857               0.999999984              -0.000012379              -0.001388899               0.999999984               0.000146569              -0.001115856               0.999999984               0.000091209              -0.001106549               0.999999984               0.000068410              -0.001102016               0.999999984               0.000060176              -0.001107038               0.999999984               0.000058731              -0.001121304               0.999999984               0.000060346              -0.001143098               0.999999984               0.000062949              -0.001170306               0.999999984               0.000065301              -0.001201181               0.999999984               0.000066677              -0.001234413               0.999999984               0.000066280              -0.001268960               0.999999984               0.000063502              -0.001303844               0.999999984               0.000057850              -0.001338461               0.999999984               0.000049000              -0.001372174               0.999999984               0.000036183              -0.001404451               0.999999984               0.000018206              -0.001435047               0.999999984              -0.000005657              -0.001463781               0.999999984              -0.000036268              -0.001490837               0.999999984               0.000098540              -0.001145280               0.999999984               0.000059996              -0.001151049               0.999999984               0.000042998              -0.001154326               0.999999984               0.000036184              -0.001163133               0.999999984               0.000034273              -0.001179064               0.999999984               0.000034770              -0.001201511               0.999999984               0.000036180              -0.001229121               0.999999984               0.000037658              -0.001260579               0.999999984               0.000038572              -0.001294670               0.999999984               0.000038267              -0.001330626               0.999999984               0.000036347              -0.001367586               0.999999984               0.000032468              -0.001404876               0.999999984               0.000026327              -0.001441949               0.999999984               0.000017067              -0.001478282               0.999999984               0.000003633              -0.001513459               0.999999984              -0.000015040              -0.001547009               0.999999984              -0.000040115              -0.001578540               0.999999984               0.000049516              -0.001163145               0.999999984               0.000029769              -0.001178594               0.999999984               0.000020664              -0.001187337               0.999999984               0.000016821              -0.001199201               0.999999984               0.000015501              -0.001216764               0.999999984               0.000015529              -0.001240044               0.999999984               0.000016096              -0.001268131               0.999999984               0.000016800              -0.001300035               0.999999984               0.000017231              -0.001334814               0.999999984               0.000017061              -0.001371734               0.999999984               0.000016028              -0.001410061               0.999999984               0.000014156              -0.001449228               0.999999984               0.000011005              -0.001488668               0.999999984               0.000006090              -0.001527891               0.999999984              -0.000001087              -0.001566341               0.999999984              -0.000011475              -0.001603434               0.999999984              -0.000025828              -0.001638470               0.999999984               0.000000000              -0.001169112               0.999999984              -0.000000000              -0.001187925               0.999999984              -0.000000000              -0.001198639               0.999999984              -0.000000000              -0.001211610               0.999999984              -0.000000000              -0.001229886               0.999999984               0.000000000              -0.001253598               0.999999984               0.000000000              -0.001281847               0.999999984              -0.000000000              -0.001313870               0.999999984              -0.000000000              -0.001348856               0.999999984              -0.000000000              -0.001386145               0.999999984               0.000000000              -0.001424959               0.999999984              -0.000000000              -0.001464790               0.999999984              -0.000000000              -0.001505107               0.999999984               0.000000000              -0.001545435               0.999999984               0.000000000              -0.001585165               0.999999984              -0.000000000              -0.001623579               0.999999984               0.000000000              -0.001659935               0.999999984               0.000525069              -0.000000000               0.999999984               0.000569588               0.000000000               0.999999984               0.000589637              -0.000000000               0.999999984               0.000601187               0.000000000               0.999999984               0.000610303              -0.000000000               0.999999984               0.000619461               0.000000000               0.999999984               0.000629446               0.000000000               0.999999984               0.000640520              -0.000000000               0.999999984               0.000652781               0.000000000               0.999999984               0.000666023              -0.000000000               0.999999984               0.000680094              -0.000000000               0.999999984               0.000694676              -0.000000000               0.999999984               0.000709505              -0.000000000               0.999999984               0.000724369              -0.000000000               0.999999984               0.000739045               0.000000000               0.999999984               0.000753226              -0.000000000               0.999999984               0.000766201              -0.000000000               0.999999984               0.000522150               0.000114003               0.999999984               0.000563587               0.000094387               0.999999984               0.000581682               0.000086531               0.999999984               0.000592136               0.000084496               0.999999984               0.000600584               0.000085567               0.999999984               0.000609187               0.000088410               0.999999984               0.000618788               0.000092169               0.999999984               0.000629518               0.000096216               0.999999984               0.000641323               0.000100326               0.999999984               0.000653989               0.000104116               0.999999984               0.000667270               0.000107375               0.999999984               0.000680912               0.000109798               0.999999984               0.000694643               0.000111193               0.999999984               0.000708192               0.000111446               0.999999984               0.000721454               0.000110113               0.999999984               0.000734105               0.000106242               0.999999984               0.000745636               0.000098892               0.999999984               0.000513363               0.000226836               0.999999984               0.000545881               0.000188102               0.999999984               0.000558658               0.000173286               0.999999984               0.000566004               0.000170117               0.999999984               0.000572620               0.000172892               0.999999984               0.000580023               0.000178930               0.999999984               0.000588607               0.000186573               0.999999984               0.000598213               0.000194826               0.999999984               0.000608704               0.000203049               0.999999984               0.000619791               0.000210555               0.999999984               0.000631188               0.000217074               0.999999984               0.000642549               0.000222095               0.999999984               0.000653641               0.000225156               0.999999984               0.000664270               0.000226042               0.999999984               0.000674171               0.000224127               0.999999984               0.000683222               0.000218294               0.999999984               0.000691395               0.000207576               0.999999984               0.000498920               0.000337334               0.999999984               0.000517428               0.000280652               0.999999984               0.000522573               0.000260570               0.999999984               0.000525815               0.000257601               0.999999984               0.000530159               0.000263050               0.999999984               0.000536137               0.000272823               0.999999984               0.000543447               0.000284643               0.999999984               0.000551632               0.000297132               0.999999984               0.000560476               0.000309434               0.999999984               0.000569500               0.000320627               0.999999984               0.000578199               0.000330139               0.999999984               0.000586349               0.000337658               0.999999984               0.000593785               0.000342929               0.999999984               0.000600364               0.000345560               0.999999984               0.000606088               0.000344845               0.999999984               0.000611035               0.000340153               0.999999984               0.000615365               0.000331109               0.999999984               0.000479130               0.000444403               0.999999984               0.000479699               0.000371692               0.999999984               0.000476334               0.000348468               0.999999984               0.000475631               0.000347173               0.999999984               0.000478038               0.000356227               0.999999984               0.000482832               0.000370203               0.999999984               0.000489162               0.000386263               0.999999984               0.000496263               0.000402914               0.999999984               0.000503345               0.000419063               0.999999984               0.000509970               0.000433682               0.999999984               0.000515820               0.000446331               0.999999984               0.000520745               0.000456757               0.999999984               0.000524499               0.000464715               0.999999984               0.000527097               0.000470015               0.999999984               0.000528705               0.000472323               0.999999984               0.000529548               0.000471455               0.999999984               0.000529940               0.000467735               0.999999984               0.000454305               0.000546996               0.999999984               0.000434644               0.000461064               0.999999984               0.000423528               0.000436753               0.999999984               0.000420027               0.000438300               0.999999984               0.000421566               0.000451474               0.999999984               0.000426078               0.000469903               0.999999984               0.000431912               0.000490296               0.999999984               0.000437865               0.000510957               0.999999984               0.000443295               0.000530712               0.999999984               0.000447758               0.000548702               0.999999984               0.000450835               0.000564572               0.999999984               0.000452460               0.000578008               0.999999984               0.000452518               0.000588796               0.999999984               0.000451163               0.000597235               0.999999984               0.000448718               0.000603365               0.999999984               0.000445410               0.000607242               0.999999984               0.000441310               0.000608975               0.999999984               0.000424991               0.000644018               0.999999984               0.000384756               0.000548587               0.999999984               0.000367878               0.000524904               0.999999984               0.000363490               0.000529834               0.999999984               0.000365544               0.000547324               0.999999984               0.000370447               0.000570210               0.999999984               0.000376010               0.000594714               0.999999984               0.000381107               0.000619202               0.999999984               0.000384863               0.000642597               0.999999984               0.000386737               0.000663913               0.999999984               0.000386730               0.000682684               0.999999984               0.000384712               0.000698699               0.999999984               0.000380821               0.000712174               0.999999984               0.000375306               0.000723618               0.999999984               0.000368374               0.000733229               0.999999984               0.000360041               0.000741007               0.999999984               0.000350308               0.000746619               0.999999984               0.000391871               0.000734388               0.999999984               0.000332596               0.000633976               0.999999984               0.000312723               0.000612099               0.999999984               0.000309569               0.000620467               0.999999984               0.000313167               0.000641992               0.999999984               0.000318882               0.000669035               0.999999984               0.000324350               0.000697611               0.999999984               0.000328223               0.000726031               0.999999984               0.000329843               0.000752677               0.999999984               0.000328984               0.000776546               0.999999984               0.000325383               0.000797383               0.999999984               0.000319132               0.000815414               0.999999984               0.000310453               0.000831174               0.999999984               0.000299586               0.000845360               0.999999984               0.000286821               0.000858013               0.999999984               0.000272257               0.000868757               0.999999984               0.000256199               0.000877282               0.999999984               0.000356251               0.000816487               0.999999984               0.000280095               0.000717064               0.999999984               0.000261010               0.000697259               0.999999984               0.000260468               0.000708731               0.999999984               0.000266163               0.000733932               0.999999984               0.000272757               0.000764961               0.999999984               0.000277763               0.000797658               0.999999984               0.000280125               0.000829375               0.999999984               0.000279171               0.000858560               0.999999984               0.000274550               0.000884387               0.999999984               0.000266156               0.000906806               0.999999984               0.000254258               0.000926597               0.999999984               0.000239469               0.000944481               0.999999984               0.000222424               0.000960881               0.999999984               0.000203457               0.000975791               0.999999984               0.000183014               0.000989049               0.999999984               0.000161825               0.001000810               0.999999984               0.000319901               0.000893548               0.999999984               0.000236986               0.000807569               0.999999984               0.000214793               0.000783140               0.999999984               0.000212931               0.000788721               0.999999984               0.000218010               0.000809040               0.999999984               0.000224535               0.000836926               0.999999984               0.000230062               0.000868031               0.999999984               0.000233249               0.000899637               0.999999984               0.000233379               0.000929983               0.999999984               0.000230196               0.000957793               0.999999984               0.000223048               0.000982712               0.999999984               0.000211901               0.001004866               0.999999984               0.000197326               0.001024941               0.999999984               0.000180109               0.001043454               0.999999984               0.000161129               0.001060884               0.999999984               0.000140518               0.001077285               0.999999984               0.000119311               0.001092466               0.999999984               0.000280126               0.000963283               0.999999984               0.000196686               0.000894484               0.999999984               0.000171539               0.000870503               0.999999984               0.000167526               0.000872251               0.999999984               0.000171296               0.000888672               0.999999984               0.000177181               0.000913617               0.999999984               0.000182702               0.000943059               0.999999984               0.000186455               0.000974127               0.999999984               0.000187568               0.001005225               0.999999984               0.000185431               0.001034937               0.999999984               0.000179571               0.001062494               0.999999984               0.000169574               0.001087407               0.999999984               0.000155694               0.001109889               0.999999984               0.000138304               0.001130478               0.999999984               0.000118306               0.001149852               0.999999984               0.000096398               0.001168396               0.999999984               0.000073300               0.001186403               0.999999984               0.000237776               0.001024161               0.999999984               0.000159057               0.000975378               0.999999984               0.000132416               0.000955563               0.999999984               0.000126074               0.000956180               0.999999984               0.000128011               0.000970259               0.999999984               0.000132743               0.000993013               0.999999984               0.000137661               0.001020980               0.999999984               0.000141397               0.001051723               0.999999984               0.000143090               0.001083288               0.999999984               0.000141870               0.001114565               0.999999984               0.000137245               0.001144693               0.999999984               0.000128650               0.001172820               0.999999984               0.000115851               0.001198675               0.999999984               0.000098882               0.001222359               0.999999984               0.000078019               0.001244321               0.999999984               0.000053768               0.001265043               0.999999984               0.000026903               0.001285237               0.999999984               0.000193131               0.001075283               0.999999984               0.000124028               0.001047091               0.999999984               0.000098002               0.001034273               0.999999984               0.000090029               0.001036190               0.999999984               0.000090033               0.001049608               0.999999984               0.000093227               0.001071420               0.999999984               0.000097071               0.001098571               0.999999984               0.000100320               0.001129153               0.999999984               0.000102032               0.001161549               0.999999984               0.000101323               0.001194389               0.999999984               0.000097706               0.001226903               0.999999984               0.000090581               0.001258346               0.999999984               0.000079510               0.001288125               0.999999984               0.000064031               0.001315905               0.999999984               0.000043658               0.001341724               0.999999984               0.000018164               0.001365857               0.999999984              -0.000012379               0.001388899               0.999999984               0.000146569               0.001115856               0.999999984               0.000091209               0.001106549               0.999999984               0.000068410               0.001102016               0.999999984               0.000060176               0.001107038               0.999999984               0.000058731               0.001121304               0.999999984               0.000060346               0.001143098               0.999999984               0.000062949               0.001170306               0.999999984               0.000065301               0.001201181               0.999999984               0.000066677               0.001234413               0.999999984               0.000066280               0.001268960               0.999999984               0.000063502               0.001303844               0.999999984               0.000057850               0.001338461               0.999999984               0.000049000               0.001372174               0.999999984               0.000036183               0.001404451               0.999999984               0.000018206               0.001435047               0.999999984              -0.000005657               0.001463781               0.999999984              -0.000036268               0.001490837               0.999999984               0.000098540               0.001145280               0.999999984               0.000059996               0.001151049               0.999999984               0.000042998               0.001154326               0.999999984               0.000036184               0.001163133               0.999999984               0.000034273               0.001179064               0.999999984               0.000034770               0.001201511               0.999999984               0.000036180               0.001229121               0.999999984               0.000037658               0.001260579               0.999999984               0.000038572               0.001294670               0.999999984               0.000038267               0.001330626               0.999999984               0.000036347               0.001367586               0.999999984               0.000032468               0.001404876               0.999999984               0.000026327               0.001441949               0.999999984               0.000017067               0.001478282               0.999999984               0.000003633               0.001513459               0.999999984              -0.000015040               0.001547009               0.999999984              -0.000040115               0.001578540               0.999999984               0.000049516               0.001163145               0.999999984               0.000029769               0.001178594               0.999999984               0.000020664               0.001187337               0.999999984               0.000016821               0.001199201               0.999999984               0.000015501               0.001216764               0.999999984               0.000015529               0.001240044               0.999999984               0.000016096               0.001268131               0.999999984               0.000016800               0.001300035               0.999999984               0.000017231               0.001334814               0.999999984               0.000017061               0.001371734               0.999999984               0.000016028               0.001410061               0.999999984               0.000014156               0.001449228               0.999999984               0.000011005               0.001488668               0.999999984               0.000006090               0.001527891               0.999999984              -0.000001087               0.001566341               0.999999984              -0.000011475               0.001603434               0.999999984              -0.000025828               0.001638470               0.999999984              -0.000000000               0.001169112               0.999999984              -0.000000000               0.001187925               0.999999984              -0.000000000               0.001198639               0.999999984              -0.000000000               0.001211610               0.999999984              -0.000000000               0.001229886               0.999999984              -0.000000000               0.001253598               0.999999984               0.000000000               0.001281847               0.999999984              -0.000000000               0.001313870               0.999999984               0.000000000               0.001348856               0.999999984              -0.000000000               0.001386145               0.999999984               0.000000000               0.001424959               0.999999984               0.000000000               0.001464790               0.999999984               0.000000000               0.001505107               0.999999984              -0.000000000               0.001545435               0.999999984              -0.000000000               0.001585165               0.999999984               0.000000000               0.001623579               0.999999984              -0.000000000               0.001659935               0.999999984 </DataArray>
<DataArray type="Float64"                                    Name="stress"                                                      NumberOfComponents="10" format="ascii">
              0.001900371               0.020931430              -0.000000000              -0.001903785               0.007611668               0.005707884               0.000000000               0.000000000               0.000000000               0.000000000               0.001905142               0.016519270              -0.000000000              -0.001350477               0.005956527               0.004606050               0.000000000               0.000000000               0.000000000               0.000000000               0.002522676               0.012960203              -0.000000000              -0.000674020               0.004544698               0.003870677               0.000000000               0.000000000               0.000000000               0.000000000               0.002448207               0.010966199               0.000000000              -0.000452696               0.003806262               0.003353566               0.000000000               0.000000000               0.000000000               0.000000000               0.002159474               0.009727314               0.000000000              -0.000406111               0.003377776               0.002971665               0.000000000               0.000000000               0.000000000               0.000000000               0.001826431               0.008893538               0.000000000              -0.000426780               0.003106743               0.002679963               0.000000000               0.000000000               0.000000000               0.000000000               0.001511265               0.008287018               0.000000000              -0.000469152               0.002918695               0.002449544               0.000000000               0.000000000               0.000000000               0.000000000               0.001222323               0.007805620               0.000000000              -0.000517330               0.002774291               0.002256961               0.000000000               0.000000000               0.000000000               0.000000000               0.000968178               0.007401272              -0.000000000              -0.000562091               0.002654429               0.002092339               0.000000000               0.000000000               0.000000000               0.000000000               0.000749771               0.007038100              -0.000000000              -0.000598597               0.002545542               0.001946945               0.000000000               0.000000000               0.000000000               0.000000000               0.000564902               0.006693748              -0.000000000              -0.000624879               0.002439520               0.001814641               0.000000000               0.000000000               0.000000000               0.000000000               0.000412821               0.006351141              -0.000000000              -0.000639083               0.002330053               0.001690970               0.000000000               0.000000000               0.000000000               0.000000000               0.000286091               0.005999011              -0.000000000              -0.000642591               0.002213847               0.001571257               0.000000000               0.000000000               0.000000000               0.000000000               0.000176960               0.005628788               0.000000000              -0.000637237               0.002088656               0.001451419               0.000000000               0.000000000               0.000000000               0.000000000               0.000084321               0.005221637              -0.000000000              -0.000621083               0.001947556               0.001326473               0.000000000               0.000000000               0.000000000               0.000000000               0.000026511               0.004751456              -0.000000000              -0.000583989               0.001778466               0.001194477               0.000000000               0.000000000               0.000000000               0.000000000              -0.000028468               0.004386844               0.000000000              -0.000559030               0.001648610               0.001089580               0.000000000               0.000000000               0.000000000               0.000000000               0.001976139               0.020510941              -0.001446202              -0.001822811               0.007444516               0.005621704               0.000000000               0.000000000               0.000000000               0.000000000               0.001879360               0.016244310              -0.000748333              -0.001325776               0.005856641               0.004530866               0.000000000               0.000000000               0.000000000               0.000000000               0.002384255               0.012837824              -0.000055080              -0.000710631               0.004516109               0.003805478               0.000000000               0.000000000               0.000000000               0.000000000               0.002265287               0.010927751               0.000234103              -0.000516485               0.003814709               0.003298224               0.000000000               0.000000000               0.000000000               0.000000000               0.001971749               0.009734424               0.000354082              -0.000477396               0.003403907               0.002926511               0.000000000               0.000000000               0.000000000               0.000000000               0.001646361               0.008920477               0.000399274              -0.000497673               0.003139354               0.002641681               0.000000000               0.000000000               0.000000000               0.000000000               0.001342056               0.008319804               0.000406615              -0.000536703               0.002952141               0.002415438               0.000000000               0.000000000               0.000000000               0.000000000               0.001072111               0.007843280               0.000398639              -0.000578367               0.002807189               0.002228823               0.000000000               0.000000000               0.000000000               0.000000000               0.000838322               0.007439646               0.000383591              -0.000615584               0.002685052               0.002069468               0.000000000               0.000000000               0.000000000               0.000000000               0.000640869               0.007075670               0.000364093              -0.000644132               0.002573244               0.001929112               0.000000000               0.000000000               0.000000000               0.000000000               0.000477401               0.006733547               0.000341832              -0.000662667               0.002465382               0.001802716               0.000000000               0.000000000               0.000000000               0.000000000               0.000344513               0.006397122               0.000315956              -0.000670446               0.002355835               0.001685388               0.000000000               0.000000000               0.000000000               0.000000000               0.000236980               0.006054313               0.000289302              -0.000667920               0.002240724               0.001572804               0.000000000               0.000000000               0.000000000               0.000000000               0.000145782               0.005696600               0.000256652              -0.000657405               0.002117983               0.001460578               0.000000000               0.000000000               0.000000000               0.000000000               0.000069616               0.005311784               0.000202241              -0.000637865               0.001983199               0.001345333               0.000000000               0.000000000               0.000000000               0.000000000               0.000023526               0.004887521               0.000115928              -0.000602116               0.001829863               0.001227747               0.000000000               0.000000000               0.000000000               0.000000000              -0.000022044               0.004572328               0.000070604              -0.000579806               0.001717363               0.001137557               0.000000000               0.000000000               0.000000000               0.000000000               0.002161803               0.019305747              -0.002694154              -0.001602540               0.006969364               0.005366825               0.000000000               0.000000000               0.000000000               0.000000000               0.001784738               0.015464821              -0.001397413              -0.001263823               0.005576163               0.004312340               0.000000000               0.000000000               0.000000000               0.000000000               0.001989289               0.012498191              -0.000118304              -0.000816289               0.004438118               0.003621830               0.000000000               0.000000000               0.000000000               0.000000000               0.001761018               0.010814310               0.000400993              -0.000691405               0.003835202               0.003143797               0.000000000               0.000000000               0.000000000               0.000000000               0.001450292               0.009737560               0.000608091              -0.000673334               0.003470266               0.002796932               0.000000000               0.000000000               0.000000000               0.000000000               0.001152107               0.008978477               0.000680654              -0.000690268               0.003222885               0.002532617               0.000000000               0.000000000               0.000000000               0.000000000               0.000895586               0.008401336               0.000692382              -0.000714320               0.003038524               0.002324204               0.000000000               0.000000000               0.000000000               0.000000000               0.000679343               0.007934025               0.000678142              -0.000736998               0.002890314               0.002153317               0.000000000               0.000000000               0.000000000               0.000000000               0.000497889               0.007530953               0.000647777              -0.000754659               0.002761845               0.002007186               0.000000000               0.000000000               0.000000000               0.000000000               0.000352764               0.007165153               0.000609901              -0.000763356               0.002642812               0.001879457               0.000000000               0.000000000               0.000000000               0.000000000               0.000239703               0.006820935               0.000569604              -0.000762726               0.002527864               0.001765138               0.000000000               0.000000000               0.000000000               0.000000000               0.000154171               0.006492953               0.000522627              -0.000753803               0.002415564               0.001661760               0.000000000               0.000000000               0.000000000               0.000000000               0.000090587               0.006176288               0.000470501              -0.000738064               0.002304763               0.001566699               0.000000000               0.000000000               0.000000000               0.000000000               0.000046738               0.005863752               0.000406048              -0.000715441               0.002193045               0.001477604               0.000000000               0.000000000               0.000000000               0.000000000               0.000018598               0.005550624               0.000310281              -0.000686852               0.002079140               0.001392288               0.000000000               0.000000000               0.000000000               0.000000000               0.000004580               0.005243950               0.000173020              -0.000653775               0.001965891               0.001312116               0.000000000               0.000000000               0.000000000               0.000000000              -0.000016922               0.005042559               0.000100604              -0.000636664               0.001893058               0.001256394               0.000000000               0.000000000               0.000000000               0.000000000               0.002362236               0.017474478              -0.003595507              -0.001298470               0.006257591               0.004959121               0.000000000               0.000000000               0.000000000               0.000000000               0.001592949               0.014296888              -0.001876099              -0.001189753               0.005162166               0.003972413               0.000000000               0.000000000               0.000000000               0.000000000               0.001381870               0.011993010              -0.000199938              -0.000980922               0.004324604               0.003343682               0.000000000               0.000000000               0.000000000               0.000000000               0.001029197               0.010625608               0.000449406              -0.000942250               0.003855917               0.002913667               0.000000000               0.000000000               0.000000000               0.000000000               0.000717231               0.009704683               0.000695997              -0.000944121               0.003549569               0.002605448               0.000000000               0.000000000               0.000000000               0.000000000               0.000472972               0.009018806               0.000777077              -0.000949984               0.003322900               0.002372916               0.000000000               0.000000000               0.000000000               0.000000000               0.000294032               0.008472243               0.000786185              -0.000948766               0.003140308               0.002191542               0.000000000               0.000000000               0.000000000               0.000000000               0.000159336               0.008013984               0.000763681              -0.000941995               0.002985299               0.002043305               0.000000000               0.000000000               0.000000000               0.000000000               0.000056047               0.007610519               0.000723583              -0.000930295               0.002846912               0.001916617               0.000000000               0.000000000               0.000000000               0.000000000              -0.000009298               0.007246166               0.000672981              -0.000909255               0.002718449               0.001809194               0.000000000               0.000000000               0.000000000               0.000000000              -0.000046336               0.006910863               0.000619626              -0.000881232               0.002597342               0.001716110               0.000000000               0.000000000               0.000000000               0.000000000              -0.000063596               0.006604073               0.000562553              -0.000849356               0.002484454               0.001635098               0.000000000               0.000000000               0.000000000               0.000000000              -0.000063851               0.006326505               0.000498559              -0.000814755               0.002380399               0.001565644               0.000000000               0.000000000               0.000000000               0.000000000              -0.000054183               0.006074585               0.000416486              -0.000779640               0.002284721               0.001505081               0.000000000               0.000000000               0.000000000               0.000000000              -0.000039849               0.005851889               0.000304519              -0.000746428               0.002199419               0.001452992               0.000000000               0.000000000               0.000000000               0.000000000              -0.000021625               0.005674650               0.000162882              -0.000717439               0.002130678               0.001413238               0.000000000               0.000000000               0.000000000               0.000000000              -0.000016621               0.005584823               0.000088392              -0.000704334               0.002096367               0.001392033               0.000000000               0.000000000               0.000000000               0.000000000               0.002456794               0.015234639              -0.004073911              -0.000983033               0.005405839               0.004422806               0.000000000               0.000000000               0.000000000               0.000000000               0.001278007               0.012889393              -0.002160478              -0.001131920               0.004673727               0.003541808               0.000000000               0.000000000               0.000000000               0.000000000               0.000633113               0.011373539              -0.000319145              -0.001184272               0.004185899               0.003001627               0.000000000               0.000000000               0.000000000               0.000000000               0.000195916               0.010354579               0.000356634              -0.001220851               0.003858442               0.002637591               0.000000000               0.000000000               0.000000000               0.000000000              -0.000072534               0.009595772               0.000600119              -0.001226669               0.003607448               0.002380779               0.000000000               0.000000000               0.000000000               0.000000000              -0.000230414               0.008987472               0.000672579              -0.001209836               0.003399073               0.002189236               0.000000000               0.000000000               0.000000000               0.000000000              -0.000315168               0.008475366               0.000677578              -0.001177606               0.003217629               0.002040023               0.000000000               0.000000000               0.000000000               0.000000000              -0.000348781               0.008032244               0.000655778              -0.001134821               0.003055662               0.001920841               0.000000000               0.000000000               0.000000000               0.000000000              -0.000350123               0.007636549               0.000616177              -0.001085862               0.002907445               0.001821583               0.000000000               0.000000000               0.000000000               0.000000000              -0.000327141               0.007283001               0.000564982              -0.001033051               0.002771993               0.001738942               0.000000000               0.000000000               0.000000000               0.000000000              -0.000288199               0.006970005               0.000510029              -0.000979323               0.002649753               0.001670430               0.000000000               0.000000000               0.000000000               0.000000000              -0.000236065               0.006692318               0.000451390              -0.000925062               0.002539104               0.001614043               0.000000000               0.000000000               0.000000000               0.000000000              -0.000175663               0.006447340               0.000388382              -0.000871789               0.002439688               0.001567899               0.000000000               0.000000000               0.000000000               0.000000000              -0.000120213               0.006240717               0.000312592              -0.000825167               0.002355274               0.001530107               0.000000000               0.000000000               0.000000000               0.000000000              -0.000072125               0.006082797               0.000216933              -0.000787394               0.002290043               0.001502649               0.000000000               0.000000000               0.000000000               0.000000000              -0.000031699               0.005981171               0.000109472              -0.000759532               0.002246881               0.001487349               0.000000000               0.000000000               0.000000000               0.000000000              -0.000016387               0.005940263               0.000056846              -0.000748676               0.002229626               0.001480951               0.000000000               0.000000000               0.000000000               0.000000000               0.002340425               0.012808766              -0.004137204              -0.000723438               0.004510691               0.003787253               0.000000000               0.000000000               0.000000000               0.000000000               0.000836821               0.011387716              -0.002276847              -0.001109655               0.004165752               0.003056097               0.000000000               0.000000000               0.000000000               0.000000000              -0.000162332               0.010686214              -0.000499629              -0.001396648               0.004027585               0.002630937               0.000000000               0.000000000               0.000000000               0.000000000              -0.000605223               0.009994402               0.000123328              -0.001476255               0.003823519               0.002347264               0.000000000               0.000000000               0.000000000               0.000000000              -0.000780796               0.009385120               0.000342062              -0.001465935               0.003616987               0.002151052               0.000000000               0.000000000               0.000000000               0.000000000              -0.000821778               0.008854394               0.000408699              -0.001414963               0.003423089               0.002008127               0.000000000               0.000000000               0.000000000               0.000000000              -0.000790742               0.008384213               0.000420741              -0.001344552               0.003242894               0.001898342               0.000000000               0.000000000               0.000000000               0.000000000              -0.000720814               0.007966092               0.000410532              -0.001266064               0.003077359               0.001811295               0.000000000               0.000000000               0.000000000               0.000000000              -0.000632396               0.007592189               0.000382860              -0.001186169               0.002926094               0.001739925               0.000000000               0.000000000               0.000000000               0.000000000              -0.000533190               0.007258519               0.000345989              -0.001107258               0.002788568               0.001681310               0.000000000               0.000000000               0.000000000               0.000000000              -0.000431170               0.006958785               0.000305312              -0.001031534               0.002663417               0.001631882               0.000000000               0.000000000               0.000000000               0.000000000              -0.000331278               0.006689572               0.000261103              -0.000960423               0.002549976               0.001589553               0.000000000               0.000000000               0.000000000               0.000000000              -0.000235329               0.006457632               0.000217376              -0.000895450               0.002451006               0.001555556               0.000000000               0.000000000               0.000000000               0.000000000              -0.000156185               0.006268120               0.000171262              -0.000842082               0.002370047               0.001527964               0.000000000               0.000000000               0.000000000               0.000000000              -0.000093746               0.006124863               0.000116152              -0.000800761               0.002308521               0.001507760               0.000000000               0.000000000               0.000000000               0.000000000              -0.000041461               0.006024620               0.000056153              -0.000768624               0.002264395               0.001495771               0.000000000               0.000000000               0.000000000               0.000000000              -0.000028576               0.005967283               0.000032616              -0.000756625               0.002241283               0.001484658               0.000000000               0.000000000               0.000000000               0.000000000               0.001958056               0.010395146              -0.003854714              -0.000565125               0.003653388               0.003088263               0.000000000               0.000000000               0.000000000               0.000000000               0.000297862               0.009909481              -0.002272542              -0.001126986               0.003678788               0.002551803               0.000000000               0.000000000               0.000000000               0.000000000              -0.000910764               0.009965378              -0.000749849              -0.001587205               0.003850828               0.002263623               0.000000000               0.000000000               0.000000000               0.000000000              -0.001268833               0.009555672              -0.000218931              -0.001670267               0.003741948               0.002071681               0.000000000               0.000000000               0.000000000               0.000000000              -0.001307774               0.009076767              -0.000015442              -0.001625007               0.003567228               0.001942221               0.000000000               0.000000000               0.000000000               0.000000000              -0.001218208               0.008617346               0.000063602              -0.001533993               0.003383751               0.001849758               0.000000000               0.000000000               0.000000000               0.000000000              -0.001078218               0.008195325               0.000095668              -0.001428744               0.003207996               0.001779252               0.000000000               0.000000000               0.000000000               0.000000000              -0.000918874               0.007815613               0.000108752              -0.001321526               0.003045687               0.001724161               0.000000000               0.000000000               0.000000000               0.000000000              -0.000754926               0.007463435               0.000106254              -0.001216024               0.002893128               0.001677104               0.000000000               0.000000000               0.000000000               0.000000000              -0.000603557               0.007129827               0.000093794              -0.001117559               0.002749105               0.001631546               0.000000000               0.000000000               0.000000000               0.000000000              -0.000469966               0.006817695               0.000079007              -0.001028447               0.002615358               0.001586911               0.000000000               0.000000000               0.000000000               0.000000000              -0.000351186               0.006539522               0.000065682              -0.000949133               0.002496196               0.001547064               0.000000000               0.000000000               0.000000000               0.000000000              -0.000250918               0.006305801               0.000059121              -0.000882317               0.002396019               0.001513701               0.000000000               0.000000000               0.000000000               0.000000000              -0.000172324               0.006116086               0.000055867              -0.000829130               0.002315052               0.001485921               0.000000000               0.000000000               0.000000000               0.000000000              -0.000107635               0.005963625               0.000047092              -0.000785814               0.002249793               0.001463979               0.000000000               0.000000000               0.000000000               0.000000000              -0.000051044               0.005835977               0.000028700              -0.000748637               0.002194852               0.001446215               0.000000000               0.000000000               0.000000000               0.000000000              -0.000043716               0.005750121               0.000027299              -0.000735157               0.002161740               0.001426583               0.000000000               0.000000000               0.000000000               0.000000000               0.001336121               0.008148976              -0.003314677              -0.000517579               0.002888823               0.002371245               0.000000000               0.000000000               0.000000000               0.000000000              -0.000302147               0.008543343              -0.002189796              -0.001181222               0.003241493               0.002060271               0.000000000               0.000000000               0.000000000               0.000000000              -0.001535543               0.009232056              -0.001058861              -0.001729831               0.003653932               0.001924100               0.000000000               0.000000000               0.000000000               0.000000000              -0.001734433               0.009054385              -0.000615081              -0.001782206               0.003612167               0.001829961               0.000000000               0.000000000               0.000000000               0.000000000              -0.001620635               0.008690570              -0.000401584              -0.001694055               0.003461513               0.001767458               0.000000000               0.000000000               0.000000000               0.000000000              -0.001409558               0.008305490              -0.000289813              -0.001566766               0.003290725               0.001723958               0.000000000               0.000000000               0.000000000               0.000000000              -0.001174333               0.007941802              -0.000224398              -0.001433097               0.003124940               0.001691843               0.000000000               0.000000000               0.000000000               0.000000000              -0.000948824               0.007585742              -0.000180474              -0.001304024               0.002963230               0.001659206               0.000000000               0.000000000               0.000000000               0.000000000              -0.000749993               0.007225950              -0.000154986              -0.001184488               0.002803455               0.001618967               0.000000000               0.000000000               0.000000000               0.000000000              -0.000577252               0.006875245              -0.000136609              -0.001075872               0.002650349               0.001574477               0.000000000               0.000000000               0.000000000               0.000000000              -0.000432609               0.006550142              -0.000112219              -0.000980994               0.002510357               0.001529363               0.000000000               0.000000000               0.000000000               0.000000000              -0.000318163               0.006268542              -0.000079732              -0.000902877               0.002390452               0.001487575               0.000000000               0.000000000               0.000000000               0.000000000              -0.000229249               0.006035374              -0.000038854              -0.000840388               0.002291900               0.001451512               0.000000000               0.000000000               0.000000000               0.000000000              -0.000160629               0.005840904               0.000001288              -0.000790347               0.002210398               0.001420051               0.000000000               0.000000000               0.000000000               0.000000000              -0.000102568               0.005675559               0.000025241              -0.000747906               0.002141136               0.001393230               0.000000000               0.000000000               0.000000000               0.000000000              -0.000051167               0.005534886               0.000025683              -0.000711046               0.002081959               0.001370913               0.000000000               0.000000000               0.000000000               0.000000000              -0.000041431               0.005448786               0.000028183              -0.000696633               0.002048455               0.001351822               0.000000000               0.000000000               0.000000000               0.000000000               0.000577625               0.006243493              -0.002625068              -0.000563828               0.002269085               0.001705257               0.000000000               0.000000000               0.000000000               0.000000000              -0.000873423               0.007325498              -0.002076143              -0.001243219               0.002856214               0.001612995               0.000000000               0.000000000               0.000000000               0.000000000              -0.001996365               0.008523416              -0.001417752              -0.001814060               0.003445797               0.001631737               0.000000000               0.000000000               0.000000000               0.000000000              -0.002029364               0.008581543              -0.001030731              -0.001833700               0.003471719               0.001638019               0.000000000               0.000000000               0.000000000               0.000000000              -0.001792835               0.008352291              -0.000787737              -0.001716345               0.003356184               0.001639839               0.000000000               0.000000000               0.000000000               0.000000000              -0.001488061               0.008056699              -0.000628949              -0.001565107               0.003207242               0.001642135               0.000000000               0.000000000               0.000000000               0.000000000              -0.001188053               0.007737686              -0.000524102              -0.001412727               0.003050112               0.001637385               0.000000000               0.000000000               0.000000000               0.000000000              -0.000921502               0.007391249              -0.000449626              -0.001269466               0.002886881               0.001617414               0.000000000               0.000000000               0.000000000               0.000000000              -0.000693385               0.007029378              -0.000392567              -0.001138689               0.002722666               0.001583977               0.000000000               0.000000000               0.000000000               0.000000000              -0.000501520               0.006672611              -0.000338010              -0.001022144               0.002564896               0.001542752               0.000000000               0.000000000               0.000000000               0.000000000              -0.000349988               0.006348297              -0.000271845              -0.000924780               0.002424338               0.001499558               0.000000000               0.000000000               0.000000000               0.000000000              -0.000246107               0.006069320              -0.000194424              -0.000850953               0.002306738               0.001455784               0.000000000               0.000000000               0.000000000               0.000000000              -0.000184459               0.005831406              -0.000116082              -0.000798096               0.002209815               0.001411719               0.000000000               0.000000000               0.000000000               0.000000000              -0.000147861               0.005621075              -0.000047401              -0.000758081               0.002126367               0.001368286               0.000000000               0.000000000               0.000000000               0.000000000              -0.000119718               0.005434049               0.000000842              -0.000724148               0.002052714               0.001328566               0.000000000               0.000000000               0.000000000               0.000000000              -0.000101385               0.005272116               0.000021448              -0.000697032               0.001989698               0.001292666               0.000000000               0.000000000               0.000000000               0.000000000              -0.000091678               0.005192154               0.000024806              -0.000683397               0.001958499               0.001275103               0.000000000               0.000000000               0.000000000               0.000000000              -0.000335892               0.004473554              -0.001888498              -0.000685153               0.001719554               0.001034400               0.000000000               0.000000000               0.000000000               0.000000000              -0.001336263               0.005932566              -0.001943428              -0.001242667               0.002391724               0.001149057               0.000000000               0.000000000               0.000000000               0.000000000              -0.002233930               0.007493094              -0.001798577              -0.001774357               0.003089125               0.001314768               0.000000000               0.000000000               0.000000000               0.000000000              -0.002186991               0.007876512              -0.001481638              -0.001804682               0.003227038               0.001422356               0.000000000               0.000000000               0.000000000               0.000000000              -0.001903315               0.007875871              -0.001211304              -0.001698223               0.003191338               0.001493115               0.000000000               0.000000000               0.000000000               0.000000000              -0.001569097               0.007739528              -0.001004855              -0.001555849               0.003098433               0.001542584               0.000000000               0.000000000               0.000000000               0.000000000              -0.001247665               0.007521818              -0.000852351              -0.001408098               0.002976614               0.001568515               0.000000000               0.000000000               0.000000000               0.000000000              -0.000962797               0.007250140              -0.000734509              -0.001267313               0.002839127               0.001571813               0.000000000               0.000000000               0.000000000               0.000000000              -0.000723096               0.006939291              -0.000640320              -0.001138570               0.002692597               0.001554027               0.000000000               0.000000000               0.000000000               0.000000000              -0.000526676               0.006610114              -0.000550568              -0.001023765               0.002544604               0.001520839               0.000000000               0.000000000               0.000000000               0.000000000              -0.000370759               0.006293337              -0.000450647              -0.000925700               0.002406324               0.001480625               0.000000000               0.000000000               0.000000000               0.000000000              -0.000262277               0.006004323              -0.000342905              -0.000848892               0.002284385               0.001435493               0.000000000               0.000000000               0.000000000               0.000000000              -0.000200580               0.005750351              -0.000236296              -0.000794009               0.002181434               0.001387425               0.000000000               0.000000000               0.000000000               0.000000000              -0.000178957               0.005529795              -0.000141149              -0.000758331               0.002096024               0.001337692               0.000000000               0.000000000               0.000000000               0.000000000              -0.000179605               0.005339254              -0.000061223              -0.000734757               0.002024653               0.001289896               0.000000000               0.000000000               0.000000000               0.000000000              -0.000195342               0.005164443              -0.000007439              -0.000718807               0.001961066               0.001242259               0.000000000               0.000000000               0.000000000               0.000000000              -0.000203752               0.005078724               0.000009284              -0.000711246               0.001929973               0.001218727               0.000000000               0.000000000               0.000000000               0.000000000              -0.001537429               0.002872986              -0.001146912              -0.000935657               0.001269538               0.000333880               0.000000000               0.000000000               0.000000000               0.000000000              -0.001868138               0.004542988              -0.001742857              -0.001268423               0.001937121               0.000668698               0.000000000               0.000000000               0.000000000               0.000000000              -0.002386362               0.006303966              -0.002092731              -0.001682878               0.002662260               0.000979382               0.000000000               0.000000000               0.000000000               0.000000000              -0.002267580               0.006993317              -0.001905033              -0.001724504               0.002905917               0.001181413               0.000000000               0.000000000               0.000000000               0.000000000              -0.001965226               0.007248374              -0.001642300              -0.001643003               0.002963768               0.001320765               0.000000000               0.000000000               0.000000000               0.000000000              -0.001625670               0.007300969              -0.001405648              -0.001522244               0.002941046               0.001418802               0.000000000               0.000000000               0.000000000               0.000000000              -0.001306289               0.007220657              -0.001213322              -0.001392437               0.002871007               0.001478570               0.000000000               0.000000000               0.000000000               0.000000000              -0.001016222               0.007059070              -0.001057213              -0.001263464               0.002774154               0.001510690               0.000000000               0.000000000               0.000000000               0.000000000              -0.000762062               0.006840379              -0.000924530              -0.001140818               0.002660376               0.001519558               0.000000000               0.000000000               0.000000000               0.000000000              -0.000550814               0.006583321              -0.000802895              -0.001029468               0.002537574               0.001508106               0.000000000               0.000000000               0.000000000               0.000000000              -0.000375830               0.006305597              -0.000681310              -0.000929134               0.002411556               0.001482422               0.000000000               0.000000000               0.000000000               0.000000000              -0.000242184               0.006024196              -0.000556209              -0.000843841               0.002289326               0.001445484               0.000000000               0.000000000               0.000000000               0.000000000              -0.000156459               0.005763071              -0.000427629              -0.000779054               0.002180689               0.001401635               0.000000000               0.000000000               0.000000000               0.000000000              -0.000123869               0.005534439              -0.000300746              -0.000738254               0.002090879               0.001352625               0.000000000               0.000000000               0.000000000               0.000000000              -0.000145797               0.005333629              -0.000180417              -0.000721376               0.002018317               0.001296941               0.000000000               0.000000000               0.000000000               0.000000000              -0.000210130               0.005156657              -0.000075208              -0.000723379               0.001959995               0.001236616               0.000000000               0.000000000               0.000000000               0.000000000              -0.000266998               0.005064041              -0.000022222              -0.000733127               0.001932373               0.001199245               0.000000000               0.000000000               0.000000000               0.000000000              -0.002948387               0.001554758              -0.000455500              -0.001299988               0.000951575              -0.000348412               0.000000000               0.000000000               0.000000000               0.000000000              -0.002516157               0.003237205              -0.001453610              -0.001348207               0.001528459               0.000180252               0.000000000               0.000000000               0.000000000               0.000000000              -0.002495309               0.004975783              -0.002203206              -0.001557711               0.002177814               0.000620103               0.000000000               0.000000000               0.000000000               0.000000000              -0.002234541               0.005881786              -0.002178746              -0.001573173               0.002484966               0.000911793               0.000000000               0.000000000               0.000000000               0.000000000              -0.001903652               0.006371856              -0.001968947              -0.001510349               0.002627380               0.001117031               0.000000000               0.000000000               0.000000000               0.000000000              -0.001566309               0.006622263              -0.001737075              -0.001415146               0.002679114               0.001263968               0.000000000               0.000000000               0.000000000               0.000000000              -0.001257694               0.006706512              -0.001527198              -0.001309946               0.002672130               0.001362184               0.000000000               0.000000000               0.000000000               0.000000000              -0.000979074               0.006679485              -0.001349479              -0.001202086               0.002627168               0.001425082               0.000000000               0.000000000               0.000000000               0.000000000              -0.000729702               0.006573329              -0.001192155              -0.001095302               0.002556188               0.001460886               0.000000000               0.000000000               0.000000000               0.000000000              -0.000509115               0.006418322              -0.001046320              -0.000993206               0.002470488               0.001477282               0.000000000               0.000000000               0.000000000               0.000000000              -0.000318385               0.006219679              -0.000906749              -0.000896852               0.002372156               0.001475304               0.000000000               0.000000000               0.000000000               0.000000000              -0.000158716               0.005991717              -0.000768092              -0.000808481               0.002266713               0.001458231               0.000000000               0.000000000               0.000000000               0.000000000              -0.000036507               0.005759731              -0.000626231              -0.000733655               0.002164443               0.001430788               0.000000000               0.000000000               0.000000000               0.000000000               0.000036501               0.005540094              -0.000476647              -0.000678822               0.002072954               0.001394131               0.000000000               0.000000000               0.000000000               0.000000000               0.000040969               0.005335808              -0.000317847              -0.000651611               0.001995789               0.001344177               0.000000000               0.000000000               0.000000000               0.000000000              -0.000029710               0.005156574              -0.000155924              -0.000655711               0.001937411               0.001281700               0.000000000               0.000000000               0.000000000               0.000000000              -0.000111579               0.005058460              -0.000065811              -0.000674148               0.001910852               0.001236704               0.000000000               0.000000000               0.000000000               0.000000000              -0.004468432               0.000579161               0.000092057              -0.001748055               0.000775734              -0.000972322               0.000000000               0.000000000               0.000000000               0.000000000              -0.003237446               0.002083770              -0.001112978              -0.001474511               0.001186085              -0.000288426               0.000000000               0.000000000               0.000000000               0.000000000              -0.002580763               0.003618046              -0.002106394              -0.001420039               0.001679349               0.000259309               0.000000000               0.000000000               0.000000000               0.000000000              -0.002109418               0.004631481              -0.002233311              -0.001369965               0.002000465               0.000630501               0.000000000               0.000000000               0.000000000               0.000000000              -0.001721493               0.005309898              -0.002100724              -0.001309295               0.002206379               0.000897084               0.000000000               0.000000000               0.000000000               0.000000000              -0.001384855               0.005740907              -0.001903570              -0.001236932               0.002325927               0.001088995               0.000000000               0.000000000               0.000000000               0.000000000              -0.001090404               0.005987849              -0.001706606              -0.001157381               0.002381723               0.001224342               0.000000000               0.000000000               0.000000000               0.000000000              -0.000828466               0.006110209              -0.001527817              -0.001074449               0.002394865               0.001320416               0.000000000               0.000000000               0.000000000               0.000000000              -0.000592360               0.006134939              -0.001364788              -0.000989001               0.002374626               0.001385625               0.000000000               0.000000000               0.000000000               0.000000000              -0.000375197               0.006092281              -0.001213337              -0.000902232               0.002331484               0.001429252               0.000000000               0.000000000               0.000000000               0.000000000              -0.000176203               0.005998413              -0.001068758              -0.000815876               0.002271409               0.001455533               0.000000000               0.000000000               0.000000000               0.000000000               0.000006464               0.005861419              -0.000927899              -0.000730252               0.002197204               0.001466952               0.000000000               0.000000000               0.000000000               0.000000000               0.000171367               0.005694182              -0.000784403              -0.000647509               0.002113878               0.001466369               0.000000000               0.000000000               0.000000000               0.000000000               0.000304933               0.005513765              -0.000623610              -0.000574870               0.002029526               0.001454657               0.000000000               0.000000000               0.000000000               0.000000000               0.000383116               0.005331367              -0.000437840              -0.000522751               0.001951355               0.001428604               0.000000000               0.000000000               0.000000000               0.000000000               0.000388280               0.005161422              -0.000228078              -0.000499572               0.001886981               0.001387409               0.000000000               0.000000000               0.000000000               0.000000000               0.000352427               0.005071410              -0.000111903              -0.000501765               0.001857708               0.001355943               0.000000000               0.000000000               0.000000000               0.000000000              -0.005941287              -0.000064141               0.000413269              -0.002219963               0.000718602              -0.001501361               0.000000000               0.000000000               0.000000000               0.000000000              -0.003968014               0.001144447              -0.000768854              -0.001631059               0.000925162              -0.000705897               0.000000000               0.000000000               0.000000000               0.000000000              -0.002662551               0.002360667              -0.001799225              -0.001293538               0.001218059              -0.000075479               0.000000000               0.000000000               0.000000000               0.000000000              -0.001939055               0.003382541              -0.002021725              -0.001149961               0.001510822               0.000360860               0.000000000               0.000000000               0.000000000               0.000000000              -0.001462534               0.004178477              -0.001965733              -0.001070758               0.001749730               0.000678972               0.000000000               0.000000000               0.000000000               0.000000000              -0.001109365               0.004754202              -0.001820828              -0.001010286               0.001921480               0.000911194               0.000000000               0.000000000               0.000000000               0.000000000              -0.000824240               0.005145927              -0.001658772              -0.000952329               0.002032734               0.001080405               0.000000000               0.000000000               0.000000000               0.000000000              -0.000579350               0.005401370              -0.001503047              -0.000892426               0.002097914               0.001205488               0.000000000               0.000000000               0.000000000               0.000000000              -0.000356377               0.005556222              -0.001355694              -0.000828168               0.002128111               0.001299943               0.000000000               0.000000000               0.000000000               0.000000000              -0.000145437               0.005632439              -0.001216892              -0.000758592               0.002130325               0.001371732               0.000000000               0.000000000               0.000000000               0.000000000               0.000058636               0.005647043              -0.001085219              -0.000683891               0.002110292               0.001426402               0.000000000               0.000000000               0.000000000               0.000000000               0.000262436               0.005613576              -0.000960032              -0.000603282               0.002072267               0.001468985               0.000000000               0.000000000               0.000000000               0.000000000               0.000465536               0.005535358              -0.000831349              -0.000517343               0.002017548               0.001500206               0.000000000               0.000000000               0.000000000               0.000000000               0.000661620               0.005426848              -0.000676909              -0.000430248               0.001952347               0.001522099               0.000000000               0.000000000               0.000000000               0.000000000               0.000837851               0.005296308              -0.000488856              -0.000347844               0.001881366               0.001533523               0.000000000               0.000000000               0.000000000               0.000000000               0.000978644               0.005152908              -0.000263239              -0.000277121               0.001809993               0.001532871               0.000000000               0.000000000               0.000000000               0.000000000               0.001057803               0.005087158              -0.000142767              -0.000239218               0.001775442               0.001536224               0.000000000               0.000000000               0.000000000               0.000000000              -0.007183016              -0.000433181               0.000472494              -0.002639482               0.000735428              -0.001904053               0.000000000               0.000000000               0.000000000               0.000000000              -0.004611512               0.000460576              -0.000462507              -0.001786887               0.000749149              -0.001037738               0.000000000               0.000000000               0.000000000               0.000000000              -0.002744516               0.001342685              -0.001307676              -0.001197027               0.000846564              -0.000350463               0.000000000               0.000000000               0.000000000               0.000000000              -0.001776880               0.002306041              -0.001537397              -0.000954583               0.001086866               0.000132283               0.000000000               0.000000000               0.000000000               0.000000000              -0.001198397               0.003152888              -0.001534653              -0.000843509               0.001332121               0.000488612               0.000000000               0.000000000               0.000000000               0.000000000              -0.000811254               0.003824332              -0.001447185              -0.000782261               0.001535518               0.000753257               0.000000000               0.000000000               0.000000000               0.000000000              -0.000524805               0.004326404              -0.001334085              -0.000737601               0.001687987               0.000950386               0.000000000               0.000000000               0.000000000               0.000000000              -0.000289967               0.004689719              -0.001220014              -0.000694951               0.001794874               0.001099923               0.000000000               0.000000000               0.000000000               0.000000000              -0.000079653               0.004951310              -0.001107854              -0.000648783               0.001866681               0.001217898               0.000000000               0.000000000               0.000000000               0.000000000               0.000123814               0.005132707              -0.000999879              -0.000595157               0.001909271               0.001314114               0.000000000               0.000000000               0.000000000               0.000000000               0.000330799               0.005244925              -0.000900489              -0.000531565               0.001925479               0.001393914               0.000000000               0.000000000               0.000000000               0.000000000               0.000552191               0.005305200              -0.000808016              -0.000456078               0.001920408               0.001464331               0.000000000               0.000000000               0.000000000               0.000000000               0.000784982               0.005317612              -0.000708696              -0.000370333               0.001895964               0.001525631               0.000000000               0.000000000               0.000000000               0.000000000               0.001034218               0.005290775              -0.000585657              -0.000273515               0.001854746               0.001581231               0.000000000               0.000000000               0.000000000               0.000000000               0.001306538               0.005227836              -0.000430452              -0.000163528               0.001797104               0.001633576               0.000000000               0.000000000               0.000000000               0.000000000               0.001594303               0.005126052              -0.000235727              -0.000042893               0.001722964               0.001680071               0.000000000               0.000000000               0.000000000               0.000000000               0.001807400               0.005090548              -0.000136001               0.000041456               0.001683014               0.001724470               0.000000000               0.000000000               0.000000000               0.000000000              -0.008015414              -0.000609083               0.000302901              -0.002929643               0.000773515              -0.002156128               0.000000000               0.000000000               0.000000000               0.000000000              -0.005056911               0.000047033              -0.000211686              -0.001902219               0.000649746              -0.001252473               0.000000000               0.000000000               0.000000000               0.000000000              -0.002805519               0.000680016              -0.000686182              -0.001137070               0.000605691              -0.000531379               0.000000000               0.000000000               0.000000000               0.000000000              -0.001659308               0.001577443              -0.000829752              -0.000819419               0.000798948              -0.000020471               0.000000000               0.000000000               0.000000000               0.000000000              -0.000997889               0.002436684              -0.000843669              -0.000678792               0.001038484               0.000359691               0.000000000               0.000000000               0.000000000               0.000000000              -0.000579400               0.003153163              -0.000806433              -0.000611419               0.001254850               0.000643431               0.000000000               0.000000000               0.000000000               0.000000000              -0.000287078               0.003717059              -0.000749143              -0.000572286               0.001429769               0.000857483               0.000000000               0.000000000               0.000000000               0.000000000              -0.000059063               0.004151656              -0.000687628              -0.000541105               0.001564240               0.001023135               0.000000000               0.000000000               0.000000000               0.000000000               0.000142846               0.004486314              -0.000626221              -0.000507221               0.001664497               0.001157276               0.000000000               0.000000000               0.000000000               0.000000000               0.000342549               0.004739389              -0.000566980              -0.000463967               0.001734436               0.001270469               0.000000000               0.000000000               0.000000000               0.000000000               0.000551571               0.004923235              -0.000514721              -0.000408564               0.001777250               0.001368686               0.000000000               0.000000000               0.000000000               0.000000000               0.000777825               0.005051562              -0.000466102              -0.000339760               0.001797091               0.001457330               0.000000000               0.000000000               0.000000000               0.000000000               0.001027490               0.005130475              -0.000410433              -0.000256000               0.001795475               0.001539475               0.000000000               0.000000000               0.000000000               0.000000000               0.001315120               0.005165006              -0.000343205              -0.000152455               0.001772470               0.001620014               0.000000000               0.000000000               0.000000000               0.000000000               0.001655502               0.005153501              -0.000254923              -0.000023374               0.001725608               0.001702233               0.000000000               0.000000000               0.000000000               0.000000000               0.002060639               0.005092104              -0.000139156               0.000136225               0.001651943               0.001788168               0.000000000               0.000000000               0.000000000               0.000000000               0.002384578               0.005085676              -0.000081723               0.000258505               0.001609040               0.001867545               0.000000000               0.000000000               0.000000000               0.000000000              -0.008307886              -0.000657543              -0.000000000              -0.003033263               0.000791901              -0.002241361               0.000000000               0.000000000               0.000000000               0.000000000              -0.005215828              -0.000090082              -0.000000000              -0.001944674               0.000618193              -0.001326481               0.000000000               0.000000000               0.000000000               0.000000000              -0.002827687               0.000449452              -0.000000000              -0.001116563               0.000522001              -0.000594562               0.000000000               0.000000000               0.000000000               0.000000000              -0.001616205               0.001320233               0.000000000              -0.000771105               0.000697107              -0.000073997               0.000000000               0.000000000               0.000000000               0.000000000              -0.000921431               0.002182532              -0.000000000              -0.000618352               0.000933621               0.000315269               0.000000000               0.000000000               0.000000000               0.000000000              -0.000491667               0.002907675               0.000000000              -0.000547833               0.001151826               0.000603993               0.000000000               0.000000000               0.000000000               0.000000000              -0.000198017               0.003487227              -0.000000000              -0.000510159               0.001332450               0.000822291               0.000000000               0.000000000               0.000000000               0.000000000               0.000027515               0.003946830              -0.000000000              -0.000483035               0.001476608               0.000993574               0.000000000               0.000000000               0.000000000               0.000000000               0.000227547               0.004310114               0.000000000              -0.000453433               0.001587835               0.001134402               0.000000000               0.000000000               0.000000000               0.000000000               0.000426369               0.004589925              -0.000000000              -0.000413851               0.001667910               0.001254059               0.000000000               0.000000000               0.000000000               0.000000000               0.000636451               0.004799669               0.000000000              -0.000361289               0.001720303               0.001359015               0.000000000               0.000000000               0.000000000               0.000000000               0.000861130               0.004952799               0.000000000              -0.000296175               0.001749641               0.001453466               0.000000000               0.000000000               0.000000000               0.000000000               0.001116684               0.005057557              -0.000000000              -0.000213437               0.001756981               0.001543544               0.000000000               0.000000000               0.000000000               0.000000000               0.001419785               0.005116415              -0.000000000              -0.000107132               0.001741165               0.001634033               0.000000000               0.000000000               0.000000000               0.000000000               0.001784866               0.005122761               0.000000000               0.000028979               0.001697910               0.001726889               0.000000000               0.000000000               0.000000000               0.000000000               0.002237292               0.005076815              -0.000000000               0.000204380               0.001624128               0.001828508               0.000000000               0.000000000               0.000000000               0.000000000               0.002607400               0.005083148              -0.000000000               0.000342378               0.001580240               0.001922618               0.000000000               0.000000000               0.000000000               0.000000000               0.000000000               0.000000000               0.000000000               0.000000000               0.000000000               0.000000000               0.000000000               0.000000000               0.000000000               0.000000000               0.000000000               0.000000000               0.000000000               0.000000000               0.000000000               0.000000000               0.000000000               0.000000000               0.000000000               0.000000000               0.000000000               0.000000000               0.000000000               0.000000000               0.000000000               0.000000000               0.000000000               0.000000000               0.000000000               0.000000000               0.000000000               0.000000000               0.000000000               0.000000000               0.000000000               0.000000000               0.000000000               0.000000000               0.000000000               0.000000000               0.000000000               0.000000000               0.000000000               0.000000000               0.000000000               0.000000000               0.000000000               0.000000000               0.000000000               0.000000000               0.000000000               0.000000000               0.000000000               0.000000000               0.000000000               0.000000000               0.000000000               0.000000000               0.000000000               0.000000000               0.000000000               0.000000000               0.000000000               0.000000000               0.000000000               0.000000000               0.000000000               0.000000000               0.000000000               0.000000000               0.000000000               0.000000000               0.000000000               0.000000000               0.000000000               0.000000000               0.000000000               0.000000000               0.000000000               0.000000000               0.000000000               0.000000000               0.000000000               0.000000000               0.000000000               0.000000000               0.000000000               0.000000000               0.000000000               0.000000000               0.000000000               0.000000000               0.000000000               0.000000000               0.000000000               0.000000000               0.000000000               0.000000000               0.000000000               0.000000000               0.000000000               0.000000000               0.000000000               0.000000000               0.000000000               0.000000000               0.000000000               0.000000000               0.000000000               0.000000000               0.000000000               0.000000000               0.000000000               0.000000000               0.000000000               0.000000000               0.000000000               0.000000000               0.000000000               0.000000000               0.000000000               0.000000000               0.000000000               0.000000000               0.000000000               0.000000000               0.000000000               0.000000000               0.000000000               0.000000000               0.000000000               0.000000000               0.000000000               0.000000000               0.000000000               0.000000000               0.000000000               0.000000000               0.000000000               0.000000000               0.000000000               0.000000000               0.000000000               0.000000000               0.000000000               0.000000000               0.000000000               0.000000000               0.000000000               0.000000000               0.000000000               0.000000000               0.000000000               0.000000000               0.000000000               0.000000000               0.000000000               0.000000000               0.000000000               0.000000000               0.000000000               0.000000000               0.000000000               0.000000000               0.000000000               0.000000000               0.000000000               0.000000000               0.000000000               0.000000000               0.001976139               0.020510941               0.001446202              -0.001822811               0.007444516               0.005621704               0.000000000               0.000000000               0.000000000               0.000000000               0.001879360               0.016244310               0.000748333              -0.001325776               0.005856641               0.004530866               0.000000000               0.000000000               0.000000000               0.000000000               0.002384255               0.012837824               0.000055080              -0.000710631               0.004516109               0.003805478               0.000000000               0.000000000               0.000000000               0.000000000               0.002265287               0.010927751              -0.000234103              -0.000516485               0.003814709               0.003298224               0.000000000               0.000000000               0.000000000               0.000000000               0.001971749               0.009734424              -0.000354082              -0.000477396               0.003403907               0.002926511               0.000000000               0.000000000               0.000000000               0.000000000               0.001646361               0.008920477              -0.000399274              -0.000497673               0.003139354               0.002641681               0.000000000               0.000000000               0.000000000               0.000000000               0.001342056               0.008319804              -0.000406615              -0.000536703               0.002952141               0.002415438               0.000000000               0.000000000               0.000000000               0.000000000               0.001072111               0.007843280              -0.000398639              -0.000578367               0.002807189               0.002228823               0.000000000               0.000000000               0.000000000               0.000000000               0.000838322               0.007439646              -0.000383591              -0.000615584               0.002685052               0.002069468               0.000000000               0.000000000               0.000000000               0.000000000               0.000640869               0.007075670              -0.000364093              -0.000644132               0.002573244               0.001929112               0.000000000               0.000000000               0.000000000               0.000000000               0.000477401               0.006733547              -0.000341832              -0.000662667               0.002465382               0.001802716               0.000000000               0.000000000               0.000000000               0.000000000               0.000344513               0.006397122              -0.000315956              -0.000670446               0.002355835               0.001685388               0.000000000               0.000000000               0.000000000               0.000000000               0.000236980               0.006054313              -0.000289302              -0.000667920               0.002240724               0.001572804               0.000000000               0.000000000               0.000000000               0.000000000               0.000145782               0.005696600              -0.000256652              -0.000657405               0.002117983               0.001460578               0.000000000               0.000000000               0.000000000               0.000000000               0.000069616               0.005311784              -0.000202241              -0.000637865               0.001983199               0.001345333               0.000000000               0.000000000               0.000000000               0.000000000               0.000023526               0.004887521              -0.000115928              -0.000602116               0.001829863               0.001227747               0.000000000               0.000000000               0.000000000               0.000000000              -0.000022044               0.004572328              -0.000070604              -0.000579806               0.001717363               0.001137557               0.000000000               0.000000000               0.000000000               0.000000000               0.002161803               0.019305747               0.002694154              -0.001602540               0.006969364               0.005366825               0.000000000               0.000000000               0.000000000               0.000000000               0.001784738               0.015464821               0.001397413              -0.001263823               0.005576163               0.004312340               0.000000000               0.000000000               0.000000000               0.000000000               0.001989289               0.012498191               0.000118304              -0.000816289               0.004438118               0.003621830               0.000000000               0.000000000               0.000000000               0.000000000               0.001761018               0.010814310              -0.000400993              -0.000691405               0.003835202               0.003143797               0.000000000               0.000000000               0.000000000               0.000000000               0.001450292               0.009737560              -0.000608091              -0.000673334               0.003470266               0.002796932               0.000000000               0.000000000               0.000000000               0.000000000               0.001152107               0.008978477              -0.000680654              -0.000690268               0.003222885               0.002532617               0.000000000               0.000000000               0.000000000               0.000000000               0.000895586               0.008401336              -0.000692382              -0.000714320               0.003038524               0.002324204               0.000000000               0.000000000               0.000000000               0.000000000               0.000679343               0.007934025              -0.000678142              -0.000736998               0.002890314               0.002153317               0.000000000               0.000000000               0.000000000               0.000000000               0.000497889               0.007530953              -0.000647777              -0.000754659               0.002761845               0.002007186               0.000000000               0.000000000               0.000000000               0.000000000               0.000352764               0.007165153              -0.000609901              -0.000763356               0.002642812               0.001879457               0.000000000               0.000000000               0.000000000               0.000000000               0.000239703               0.006820935              -0.000569604              -0.000762726               0.002527864               0.001765138               0.000000000               0.000000000               0.000000000               0.000000000               0.000154171               0.006492953              -0.000522627              -0.000753803               0.002415564               0.001661760               0.000000000               0.000000000               0.000000000               0.000000000               0.000090587               0.006176288              -0.000470501              -0.000738064               0.002304763               0.001566699               0.000000000               0.000000000               0.000000000               0.000000000               0.000046738               0.005863752              -0.000406048              -0.000715441               0.002193045               0.001477604               0.000000000               0.000000000               0.000000000               0.000000000               0.000018598               0.005550624              -0.000310281              -0.000686852               0.002079140               0.001392288               0.000000000               0.000000000               0.000000000               0.000000000               0.000004580               0.005243950              -0.000173020              -0.000653775               0.001965891               0.001312116               0.000000000               0.000000000               0.000000000               0.000000000              -0.000016922               0.005042559              -0.000100604              -0.000636664               0.001893058               0.001256394               0.000000000               0.000000000               0.000000000               0.000000000               0.002362236               0.017474478               0.003595507              -0.001298470               0.006257591               0.004959121               0.000000000               0.000000000               0.000000000               0.000000000               0.001592949               0.014296888               0.001876099              -0.001189753               0.005162166               0.003972413               0.000000000               0.000000000               0.000000000               0.000000000               0.001381870               0.011993010               0.000199938              -0.000980922               0.004324604               0.003343682               0.000000000               0.000000000               0.000000000               0.000000000               0.001029197               0.010625608              -0.000449406              -0.000942250               0.003855917               0.002913667               0.000000000               0.000000000               0.000000000               0.000000000               0.000717231               0.009704683              -0.000695997              -0.000944121               0.003549569               0.002605448               0.000000000               0.000000000               0.000000000               0.000000000               0.000472972               0.009018806              -0.000777077              -0.000949984               0.003322900               0.002372916               0.000000000               0.000000000               0.000000000               0.000000000               0.000294032               0.008472243              -0.000786185              -0.000948766               0.003140308               0.002191542               0.000000000               0.000000000               0.000000000               0.000000000               0.000159336               0.008013984              -0.000763681              -0.000941995               0.002985299               0.002043305               0.000000000               0.000000000               0.000000000               0.000000000               0.000056047               0.007610519              -0.000723583              -0.000930295               0.002846912               0.001916617               0.000000000               0.000000000               0.000000000               0.000000000              -0.000009298               0.007246166              -0.000672981              -0.000909255               0.002718449               0.001809194               0.000000000               0.000000000               0.000000000               0.000000000              -0.000046336               0.006910863              -0.000619626              -0.000881232               0.002597342               0.001716110               0.000000000               0.000000000               0.000000000               0.000000000              -0.000063596               0.006604073              -0.000562553              -0.000849356               0.002484454               0.001635098               0.000000000               0.000000000               0.000000000               0.000000000              -0.000063851               0.006326505              -0.000498559              -0.000814755               0.002380399               0.001565644               0.000000000               0.000000000               0.000000000               0.000000000              -0.000054183               0.006074585              -0.000416486              -0.000779640               0.002284721               0.001505081               0.000000000               0.000000000               0.000000000               0.000000000              -0.000039849               0.005851889              -0.000304519              -0.000746428               0.002199419               0.001452992               0.000000000               0.000000000               0.000000000               0.000000000              -0.000021625               0.005674650              -0.000162882              -0.000717439               0.002130678               0.001413238               0.000000000               0.000000000               0.000000000               0.000000000              -0.000016621               0.005584823              -0.000088392              -0.000704334               0.002096367               0.001392033               0.000000000               0.000000000               0.000000000               0.000000000               0.002456794               0.015234639               0.004073911              -0.000983033               0.005405839               0.004422806               0.000000000               0.000000000               0.000000000               0.000000000               0.001278007               0.012889393               0.002160478              -0.001131920               0.004673727               0.003541808               0.000000000               0.000000000               0.000000000               0.000000000               0.000633113               0.011373539               0.000319145              -0.001184272               0.004185899               0.003001627               0.000000000               0.000000000               0.000000000               0.000000000               0.000195916               0.010354579              -0.000356634              -0.001220851               0.003858442               0.002637591               0.000000000               0.000000000               0.000000000               0.000000000              -0.000072534               0.009595772              -0.000600119              -0.001226669               0.003607448               0.002380779               0.000000000               0.000000000               0.000000000               0.000000000              -0.000230414               0.008987472              -0.000672579              -0.001209836               0.003399073               0.002189236               0.000000000               0.000000000               0.000000000               0.000000000              -0.000315168               0.008475366              -0.000677578              -0.001177606               0.003217629               0.002040023               0.000000000               0.000000000               0.000000000               0.000000000              -0.000348781               0.008032244              -0.000655778              -0.001134821               0.003055662               0.001920841               0.000000000               0.000000000               0.000000000               0.000000000              -0.000350123               0.007636549              -0.000616177              -0.001085862               0.002907445               0.001821583               0.000000000               0.000000000               0.000000000               0.000000000              -0.000327141               0.007283001              -0.000564982              -0.001033051               0.002771993               0.001738942               0.000000000               0.000000000               0.000000000               0.000000000              -0.000288199               0.006970005              -0.000510029              -0.000979323               0.002649753               0.001670430               0.000000000               0.000000000               0.000000000               0.000000000              -0.000236065               0.006692318              -0.000451390              -0.000925062               0.002539104               0.001614043               0.000000000               0.000000000               0.000000000               0.000000000              -0.000175663               0.006447340              -0.000388382              -0.000871789               0.002439688               0.001567899               0.000000000               0.000000000               0.000000000               0.000000000              -0.000120213               0.006240717              -0.000312592              -0.000825167               0.002355274               0.001530107               0.000000000               0.000000000               0.000000000               0.000000000              -0.000072125               0.006082797              -0.000216933              -0.000787394               0.002290043               0.001502649               0.000000000               0.000000000               0.000000000               0.000000000              -0.000031699               0.005981171              -0.000109472              -0.000759532               0.002246881               0.001487349               0.000000000               0.000000000               0.000000000               0.000000000              -0.000016387               0.005940263              -0.000056846              -0.000748676               0.002229626               0.001480951               0.000000000               0.000000000               0.000000000               0.000000000               0.002340425               0.012808766               0.004137204              -0.000723438               0.004510691               0.003787253               0.000000000               0.000000000               0.000000000               0.000000000               0.000836821               0.011387716               0.002276847              -0.001109655               0.004165752               0.003056097               0.000000000               0.000000000               0.000000000               0.000000000              -0.000162332               0.010686214               0.000499629              -0.001396648               0.004027585               0.002630937               0.000000000               0.000000000               0.000000000               0.000000000              -0.000605223               0.009994402              -0.000123328              -0.001476255               0.003823519               0.002347264               0.000000000               0.000000000               0.000000000               0.000000000              -0.000780796               0.009385120              -0.000342062              -0.001465935               0.003616987               0.002151052               0.000000000               0.000000000               0.000000000               0.000000000              -0.000821778               0.008854394              -0.000408699              -0.001414963               0.003423089               0.002008127               0.000000000               0.000000000               0.000000000               0.000000000              -0.000790742               0.008384213              -0.000420741              -0.001344552               0.003242894               0.001898342               0.000000000               0.000000000               0.000000000               0.000000000              -0.000720814               0.007966092              -0.000410532              -0.001266064               0.003077359               0.001811295               0.000000000               0.000000000               0.000000000               0.000000000              -0.000632396               0.007592189              -0.000382860              -0.001186169               0.002926094               0.001739925               0.000000000               0.000000000               0.000000000               0.000000000              -0.000533190               0.007258519              -0.000345989              -0.001107258               0.002788568               0.001681310               0.000000000               0.000000000               0.000000000               0.000000000              -0.000431170               0.006958785              -0.000305312              -0.001031534               0.002663417               0.001631882               0.000000000               0.000000000               0.000000000               0.000000000              -0.000331278               0.006689572              -0.000261103              -0.000960423               0.002549976               0.001589553               0.000000000               0.000000000               0.000000000               0.000000000              -0.000235329               0.006457632              -0.000217376              -0.000895450               0.002451006               0.001555556               0.000000000               0.000000000               0.000000000               0.000000000              -0.000156185               0.006268120              -0.000171262              -0.000842082               0.002370047               0.001527964               0.000000000               0.000000000               0.000000000               0.000000000              -0.000093746               0.006124863              -0.000116152              -0.000800761               0.002308521               0.001507760               0.000000000               0.000000000               0.000000000               0.000000000              -0.000041461               0.006024620              -0.000056153              -0.000768624               0.002264395               0.001495771               0.000000000               0.000000000               0.000000000               0.000000000              -0.000028576               0.005967283              -0.000032616              -0.000756625               0.002241283               0.001484658               0.000000000               0.000000000               0.000000000               0.000000000               0.001958056               0.010395146               0.003854714              -0.000565125               0.003653388               0.003088263               0.000000000               0.000000000               0.000000000               0.000000000               0.000297862               0.009909481               0.002272542              -0.001126986               0.003678788               0.002551803               0.000000000               0.000000000               0.000000000               0.000000000              -0.000910764               0.009965378               0.000749849              -0.001587205               0.003850828               0.002263623               0.000000000               0.000000000               0.000000000               0.000000000              -0.001268833               0.009555672               0.000218931              -0.001670267               0.003741948               0.002071681               0.000000000               0.000000000               0.000000000               0.000000000              -0.001307774               0.009076767               0.000015442              -0.001625007               0.003567228               0.001942221               0.000000000               0.000000000               0.000000000               0.000000000              -0.001218208               0.008617346              -0.000063602              -0.001533993               0.003383751               0.001849758               0.000000000               0.000000000               0.000000000               0.000000000              -0.001078218               0.008195325              -0.000095668              -0.001428744               0.003207996               0.001779252               0.000000000               0.000000000               0.000000000               0.000000000              -0.000918874               0.007815613              -0.000108752              -0.001321526               0.003045687               0.001724161               0.000000000               0.000000000               0.000000000               0.000000000              -0.000754926               0.007463435              -0.000106254              -0.001216024               0.002893128               0.001677104               0.000000000               0.000000000               0.000000000               0.000000000              -0.000603557               0.007129827              -0.000093794              -0.001117559               0.002749105               0.001631546               0.000000000               0.000000000               0.000000000               0.000000000              -0.000469966               0.006817695              -0.000079007              -0.001028447               0.002615358               0.001586911               0.000000000               0.000000000               0.000000000               0.000000000              -0.000351186               0.006539522              -0.000065682              -0.000949133               0.002496196               0.001547064               0.000000000               0.000000000               0.000000000               0.000000000              -0.000250918               0.006305801              -0.000059121              -0.000882317               0.002396019               0.001513701               0.000000000               0.000000000               0.000000000               0.000000000              -0.000172324               0.006116086              -0.000055867              -0.000829130               0.002315052               0.001485921               0.000000000               0.000000000               0.000000000               0.000000000              -0.000107635               0.005963625              -0.000047092              -0.000785814               0.002249793               0.001463979               0.000000000               0.000000000               0.000000000               0.000000000              -0.000051044               0.005835977              -0.000028700              -0.000748637               0.002194852               0.001446215               0.000000000               0.000000000               0.000000000               0.000000000              -0.000043716               0.005750121              -0.000027299              -0.000735157               0.002161740               0.001426583               0.000000000               0.000000000               0.000000000               0.000000000               0.001336121               0.008148976               0.003314677              -0.000517579               0.002888823               0.002371245               0.000000000               0.000000000               0.000000000               0.000000000              -0.000302147               0.008543343               0.002189796              -0.001181222               0.003241493               0.002060271               0.000000000               0.000000000               0.000000000               0.000000000              -0.001535543               0.009232056               0.001058861              -0.001729831               0.003653932               0.001924100               0.000000000               0.000000000               0.000000000               0.000000000              -0.001734433               0.009054385               0.000615081              -0.001782206               0.003612167               0.001829961               0.000000000               0.000000000               0.000000000               0.000000000              -0.001620635               0.008690570               0.000401584              -0.001694055               0.003461513               0.001767458               0.000000000               0.000000000               0.000000000               0.000000000              -0.001409558               0.008305490               0.000289813              -0.001566766               0.003290725               0.001723958               0.000000000               0.000000000               0.000000000               0.000000000              -0.001174333               0.007941802               0.000224398              -0.001433097               0.003124940               0.001691843               0.000000000               0.000000000               0.000000000               0.000000000              -0.000948824               0.007585742               0.000180474              -0.001304024               0.002963230               0.001659206               0.000000000               0.000000000               0.000000000               0.000000000              -0.000749993               0.007225950               0.000154986              -0.001184488               0.002803455               0.001618967               0.000000000               0.000000000               0.000000000               0.000000000              -0.000577252               0.006875245               0.000136609              -0.001075872               0.002650349               0.001574477               0.000000000               0.000000000               0.000000000               0.000000000              -0.000432609               0.006550142               0.000112219              -0.000980994               0.002510357               0.001529363               0.000000000               0.000000000               0.000000000               0.000000000              -0.000318163               0.006268542               0.000079732              -0.000902877               0.002390452               0.001487575               0.000000000               0.000000000               0.000000000               0.000000000              -0.000229249               0.006035374               0.000038854              -0.000840388               0.002291900               0.001451512               0.000000000               0.000000000               0.000000000               0.000000000              -0.000160629               0.005840904              -0.000001288              -0.000790347               0.002210398               0.001420051               0.000000000               0.000000000               0.000000000               0.000000000              -0.000102568               0.005675559              -0.000025241              -0.000747906               0.002141136               0.001393230               0.000000000               0.000000000               0.000000000               0.000000000              -0.000051167               0.005534886              -0.000025683              -0.000711046               0.002081959               0.001370913               0.000000000               0.000000000               0.000000000               0.000000000              -0.000041431               0.005448786              -0.000028183              -0.000696633               0.002048455               0.001351822               0.000000000               0.000000000               0.000000000               0.000000000               0.000577625               0.006243493               0.002625068              -0.000563828               0.002269085               0.001705257               0.000000000               0.000000000               0.000000000               0.000000000              -0.000873423               0.007325498               0.002076143              -0.001243219               0.002856214               0.001612995               0.000000000               0.000000000               0.000000000               0.000000000              -0.001996365               0.008523416               0.001417752              -0.001814060               0.003445797               0.001631737               0.000000000               0.000000000               0.000000000               0.000000000              -0.002029364               0.008581543               0.001030731              -0.001833700               0.003471719               0.001638019               0.000000000               0.000000000               0.000000000               0.000000000              -0.001792835               0.008352291               0.000787737              -0.001716345               0.003356184               0.001639839               0.000000000               0.000000000               0.000000000               0.000000000              -0.001488061               0.008056699               0.000628949              -0.001565107               0.003207242               0.001642135               0.000000000               0.000000000               0.000000000               0.000000000              -0.001188053               0.007737686               0.000524102              -0.001412727               0.003050112               0.001637385               0.000000000               0.000000000               0.000000000               0.000000000              -0.000921502               0.007391249               0.000449626              -0.001269466               0.002886881               0.001617414               0.000000000               0.000000000               0.000000000               0.000000000              -0.000693385               0.007029378               0.000392567              -0.001138689               0.002722666               0.001583977               0.000000000               0.000000000               0.000000000               0.000000000              -0.000501520               0.006672611               0.000338010              -0.001022144               0.002564896               0.001542752               0.000000000               0.000000000               0.000000000               0.000000000              -0.000349988               0.006348297               0.000271845              -0.000924780               0.002424338               0.001499558               0.000000000               0.000000000               0.000000000               0.000000000              -0.000246107               0.006069320               0.000194424              -0.000850953               0.002306738               0.001455784               0.000000000               0.000000000               0.000000000               0.000000000              -0.000184459               0.005831406               0.000116082              -0.000798096               0.002209815               0.001411719               0.000000000               0.000000000               0.000000000               0.000000000              -0.000147861               0.005621075               0.000047401              -0.000758081               0.002126367               0.001368286               0.000000000               0.000000000               0.000000000               0.000000000              -0.000119718               0.005434049              -0.000000842              -0.000724148               0.002052714               0.001328566               0.000000000               0.000000000               0.000000000               0.000000000              -0.000101385               0.005272116              -0.000021448              -0.000697032               0.001989698               0.001292666               0.000000000               0.000000000               0.000000000               0.000000000              -0.000091678               0.005192154              -0.000024806              -0.000683397               0.001958499               0.001275103               0.000000000               0.000000000               0.000000000               0.000000000              -0.000335892               0.004473554               0.001888498              -0.000685153               0.001719554               0.001034400               0.000000000               0.000000000               0.000000000               0.000000000              -0.001336263               0.005932566               0.001943428              -0.001242667               0.002391724               0.001149057               0.000000000               0.000000000               0.000000000               0.000000000              -0.002233930               0.007493094               0.001798577              -0.001774357               0.003089125               0.001314768               0.000000000               0.000000000               0.000000000               0.000000000              -0.002186991               0.007876512               0.001481638              -0.001804682               0.003227038               0.001422356               0.000000000               0.000000000               0.000000000               0.000000000              -0.001903315               0.007875871               0.001211304              -0.001698223               0.003191338               0.001493115               0.000000000               0.000000000               0.000000000               0.000000000              -0.001569097               0.007739528               0.001004855              -0.001555849               0.003098433               0.001542584               0.000000000               0.000000000               0.000000000               0.000000000              -0.001247665               0.007521818               0.000852351              -0.001408098               0.002976614               0.001568515               0.000000000               0.000000000               0.000000000               0.000000000              -0.000962797               0.007250140               0.000734509              -0.001267313               0.002839127               0.001571813               0.000000000               0.000000000               0.000000000               0.000000000              -0.000723096               0.006939291               0.000640320              -0.001138570               0.002692597               0.001554027               0.000000000               0.000000000               0.000000000               0.000000000              -0.000526676               0.006610114               0.000550568              -0.001023765               0.002544604               0.001520839               0.000000000               0.000000000               0.000000000               0.000000000              -0.000370759               0.006293337               0.000450647              -0.000925700               0.002406324               0.001480625               0.000000000               0.000000000               0.000000000               0.000000000              -0.000262277               0.006004323               0.000342905              -0.000848892               0.002284385               0.001435493               0.000000000               0.000000000               0.000000000               0.000000000              -0.000200580               0.005750351               0.000236296              -0.000794009               0.002181434               0.001387425               0.000000000               0.000000000               0.000000000               0.000000000              -0.000178957               0.005529795               0.000141149              -0.000758331               0.002096024               0.001337692               0.000000000               0.000000000               0.000000000               0.000000000              -0.000179605               0.005339254               0.000061223              -0.000734757               0.002024653               0.001289896               0.000000000               0.000000000               0.000000000               0.000000000              -0.000195342               0.005164443               0.000007439              -0.000718807               0.001961066               0.001242259               0.000000000               0.000000000               0.000000000               0.000000000              -0.000203752               0.005078724              -0.000009284              -0.000711246               0.001929973               0.001218727               0.000000000               0.000000000               0.000000000               0.000000000              -0.001537429               0.002872986               0.001146912              -0.000935657               0.001269538               0.000333880               0.000000000               0.000000000               0.000000000               0.000000000              -0.001868138               0.004542988               0.001742857              -0.001268423               0.001937121               0.000668698               0.000000000               0.000000000               0.000000000               0.000000000              -0.002386362               0.006303966               0.002092731              -0.001682878               0.002662260               0.000979382               0.000000000               0.000000000               0.000000000               0.000000000              -0.002267580               0.006993317               0.001905033              -0.001724504               0.002905917               0.001181413               0.000000000               0.000000000               0.000000000               0.000000000              -0.001965226               0.007248374               0.001642300              -0.001643003               0.002963768               0.001320765               0.000000000               0.000000000               0.000000000               0.000000000              -0.001625670               0.007300969               0.001405648              -0.001522244               0.002941046               0.001418802               0.000000000               0.000000000               0.000000000               0.000000000              -0.001306289               0.007220657               0.001213322              -0.001392437               0.002871007               0.001478570               0.000000000               0.000000000               0.000000000               0.000000000              -0.001016222               0.007059070               0.001057213              -0.001263464               0.002774154               0.001510690               0.000000000               0.000000000               0.000000000               0.000000000              -0.000762062               0.006840379               0.000924530              -0.001140818               0.002660376               0.001519558               0.000000000               0.000000000               0.000000000               0.000000000              -0.000550814               0.006583321               0.000802895              -0.001029468               0.002537574               0.001508106               0.000000000               0.000000000               0.000000000               0.000000000              -0.000375830               0.006305597               0.000681310              -0.000929134               0.002411556               0.001482422               0.000000000               0.000000000               0.000000000               0.000000000              -0.000242184               0.006024196               0.000556209              -0.000843841               0.002289326               0.001445484               0.000000000               0.000000000               0.000000000               0.000000000              -0.000156459               0.005763071               0.000427629              -0.000779054               0.002180689               0.001401635               0.000000000               0.000000000               0.000000000               0.000000000              -0.000123869               0.005534439               0.000300746              -0.000738254               0.002090879               0.001352625               0.000000000               0.000000000               0.000000000               0.000000000              -0.000145797               0.005333629               0.000180417              -0.000721376               0.002018317               0.001296941               0.000000000               0.000000000               0.000000000               0.000000000              -0.000210130               0.005156657               0.000075208              -0.000723379               0.001959995               0.001236616               0.000000000               0.000000000               0.000000000               0.000000000              -0.000266998               0.005064041               0.000022222              -0.000733127               0.001932373               0.001199245               0.000000000               0.000000000               0.000000000               0.000000000              -0.002948387               0.001554758               0.000455500              -0.001299988               0.000951575              -0.000348412               0.000000000               0.000000000               0.000000000               0.000000000              -0.002516157               0.003237205               0.001453610              -0.001348207               0.001528459               0.000180252               0.000000000               0.000000000               0.000000000               0.000000000              -0.002495309               0.004975783               0.002203206              -0.001557711               0.002177814               0.000620103               0.000000000               0.000000000               0.000000000               0.000000000              -0.002234541               0.005881786               0.002178746              -0.001573173               0.002484966               0.000911793               0.000000000               0.000000000               0.000000000               0.000000000              -0.001903652               0.006371856               0.001968947              -0.001510349               0.002627380               0.001117031               0.000000000               0.000000000               0.000000000               0.000000000              -0.001566309               0.006622263               0.001737075              -0.001415146               0.002679114               0.001263968               0.000000000               0.000000000               0.000000000               0.000000000              -0.001257694               0.006706512               0.001527198              -0.001309946               0.002672130               0.001362184               0.000000000               0.000000000               0.000000000               0.000000000              -0.000979074               0.006679485               0.001349479              -0.001202086               0.002627168               0.001425082               0.000000000               0.000000000               0.000000000               0.000000000              -0.000729702               0.006573329               0.001192155              -0.001095302               0.002556188               0.001460886               0.000000000               0.000000000               0.000000000               0.000000000              -0.000509115               0.006418322               0.001046320              -0.000993206               0.002470488               0.001477282               0.000000000               0.000000000               0.000000000               0.000000000              -0.000318385               0.006219679               0.000906749              -0.000896852               0.002372156               0.001475304               0.000000000               0.000000000               0.000000000               0.000000000              -0.000158716               0.005991717               0.000768092              -0.000808481               0.002266713               0.001458231               0.000000000               0.000000000               0.000000000               0.000000000              -0.000036507               0.005759731               0.000626231              -0.000733655               0.002164443               0.001430788               0.000000000               0.000000000               0.000000000               0.000000000               0.000036501               0.005540094               0.000476647              -0.000678822               0.002072954               0.001394131               0.000000000               0.000000000               0.000000000               0.000000000               0.000040969               0.005335808               0.000317847              -0.000651611               0.001995789               0.001344177               0.000000000               0.000000000               0.000000000               0.000000000              -0.000029710               0.005156574               0.000155924              -0.000655711               0.001937411               0.001281700               0.000000000               0.000000000               0.000000000               0.000000000              -0.000111579               0.005058460               0.000065811              -0.000674148               0.001910852               0.001236704               0.000000000               0.000000000               0.000000000               0.000000000              -0.004468432               0.000579161              -0.000092057              -0.001748055               0.000775734              -0.000972322               0.000000000               0.000000000               0.000000000               0.000000000              -0.003237446               0.002083770               0.001112978              -0.001474511               0.001186085              -0.000288426               0.000000000               0.000000000               0.000000000               0.000000000              -0.002580763               0.003618046               0.002106394              -0.001420039               0.001679349               0.000259309               0.000000000               0.000000000               0.000000000               0.000000000              -0.002109418               0.004631481               0.002233311              -0.001369965               0.002000465               0.000630501               0.000000000               0.000000000               0.000000000               0.000000000              -0.001721493               0.005309898               0.002100724              -0.001309295               0.002206379               0.000897084               0.000000000               0.000000000               0.000000000               0.000000000              -0.001384855               0.005740907               0.001903570              -0.001236932               0.002325927               0.001088995               0.000000000               0.000000000               0.000000000               0.000000000              -0.001090404               0.005987849               0.001706606              -0.001157381               0.002381723               0.001224342               0.000000000               0.000000000               0.000000000               0.000000000              -0.000828466               0.006110209               0.001527817              -0.001074449               0.002394865               0.001320416               0.000000000               0.000000000               0.000000000               0.000000000              -0.000592360               0.006134939               0.001364788              -0.000989001               0.002374626               0.001385625               0.000000000               0.000000000               0.000000000               0.000000000              -0.000375197               0.006092281               0.001213337              -0.000902232               0.002331484               0.001429252               0.000000000               0.000000000               0.000000000               0.000000000              -0.000176203               0.005998413               0.001068758              -0.000815876               0.002271409               0.001455533               0.000000000               0.000000000               0.000000000               0.000000000               0.000006464               0.005861419               0.000927899              -0.000730252               0.002197204               0.001466952               0.000000000               0.000000000               0.000000000               0.000000000               0.000171367               0.005694182               0.000784403              -0.000647509               0.002113878               0.001466369               0.000000000               0.000000000               0.000000000               0.000000000               0.000304933               0.005513765               0.000623610              -0.000574870               0.002029526               0.001454657               0.000000000               0.000000000               0.000000000               0.000000000               0.000383116               0.005331367               0.000437840              -0.000522751               0.001951355               0.001428604               0.000000000               0.000000000               0.000000000               0.000000000               0.000388280               0.005161422               0.000228078              -0.000499572               0.001886981               0.001387409               0.000000000               0.000000000               0.000000000               0.000000000               0.000352427               0.005071410               0.000111903              -0.000501765               0.001857708               0.001355943               0.000000000               0.000000000               0.000000000               0.000000000              -0.005941287              -0.000064141              -0.000413269              -0.002219963               0.000718602              -0.001501361               0.000000000               0.000000000               0.000000000               0.000000000              -0.003968014               0.001144447               0.000768854              -0.001631059               0.000925162              -0.000705897               0.000000000               0.000000000               0.000000000               0.000000000              -0.002662551               0.002360667               0.001799225              -0.001293538               0.001218059              -0.000075479               0.000000000               0.000000000               0.000000000               0.000000000              -0.001939055               0.003382541               0.002021725              -0.001149961               0.001510822               0.000360860               0.000000000               0.000000000               0.000000000               0.000000000              -0.001462534               0.004178477               0.001965733              -0.001070758               0.001749730               0.000678972               0.000000000               0.000000000               0.000000000               0.000000000              -0.001109365               0.004754202               0.001820828              -0.001010286               0.001921480               0.000911194               0.000000000               0.000000000               0.000000000               0.000000000              -0.000824240               0.005145927               0.001658772              -0.000952329               0.002032734               0.001080405               0.000000000               0.000000000               0.000000000               0.000000000              -0.000579350               0.005401370               0.001503047              -0.000892426               0.002097914               0.001205488               0.000000000               0.000000000               0.000000000               0.000000000              -0.000356377               0.005556222               0.001355694              -0.000828168               0.002128111               0.001299943               0.000000000               0.000000000               0.000000000               0.000000000              -0.000145437               0.005632439               0.001216892              -0.000758592               0.002130325               0.001371732               0.000000000               0.000000000               0.000000000               0.000000000               0.000058636               0.005647043               0.001085219              -0.000683891               0.002110292               0.001426402               0.000000000               0.000000000               0.000000000               0.000000000               0.000262436               0.005613576               0.000960032              -0.000603282               0.002072267               0.001468985               0.000000000               0.000000000               0.000000000               0.000000000               0.000465536               0.005535358               0.000831349              -0.000517343               0.002017548               0.001500206               0.000000000               0.000000000               0.000000000               0.000000000               0.000661620               0.005426848               0.000676909              -0.000430248               0.001952347               0.001522099               0.000000000               0.000000000               0.000000000               0.000000000               0.000837851               0.005296308               0.000488856              -0.000347844               0.001881366               0.001533523               0.000000000               0.000000000               0.000000000               0.000000000               0.000978644               0.005152908               0.000263239              -0.000277121               0.001809993               0.001532871               0.000000000               0.000000000               0.000000000               0.000000000               0.001057803               0.005087158               0.000142767              -0.000239218               0.001775442               0.001536224               0.000000000               0.000000000               0.000000000               0.000000000              -0.007183016              -0.000433181              -0.000472494              -0.002639482               0.000735428              -0.001904053               0.000000000               0.000000000               0.000000000               0.000000000              -0.004611512               0.000460576               0.000462507              -0.001786887               0.000749149              -0.001037738               0.000000000               0.000000000               0.000000000               0.000000000              -0.002744516               0.001342685               0.001307676              -0.001197027               0.000846564              -0.000350463               0.000000000               0.000000000               0.000000000               0.000000000              -0.001776880               0.002306041               0.001537397              -0.000954583               0.001086866               0.000132283               0.000000000               0.000000000               0.000000000               0.000000000              -0.001198397               0.003152888               0.001534653              -0.000843509               0.001332121               0.000488612               0.000000000               0.000000000               0.000000000               0.000000000              -0.000811254               0.003824332               0.001447185              -0.000782261               0.001535518               0.000753257               0.000000000               0.000000000               0.000000000               0.000000000              -0.000524805               0.004326404               0.001334085              -0.000737601               0.001687987               0.000950386               0.000000000               0.000000000               0.000000000               0.000000000              -0.000289967               0.004689719               0.001220014              -0.000694951               0.001794874               0.001099923               0.000000000               0.000000000               0.000000000               0.000000000              -0.000079653               0.004951310               0.001107854              -0.000648783               0.001866681               0.001217898               0.000000000               0.000000000               0.000000000               0.000000000               0.000123814               0.005132707               0.000999879              -0.000595157               0.001909271               0.001314114               0.000000000               0.000000000               0.000000000               0.000000000               0.000330799               0.005244925               0.000900489              -0.000531565               0.001925479               0.001393914               0.000000000               0.000000000               0.000000000               0.000000000               0.000552191               0.005305200               0.000808016              -0.000456078               0.001920408               0.001464331               0.000000000               0.000000000               0.000000000               0.000000000               0.000784982               0.005317612               0.000708696              -0.000370333               0.001895964               0.001525631               0.000000000               0.000000000               0.000000000               0.000000000               0.001034218               0.005290775               0.000585657              -0.000273515               0.001854746               0.001581231               0.000000000               0.000000000               0.000000000               0.000000000               0.001306538               0.005227836               0.000430452              -0.000163528               0.001797104               0.001633576               0.000000000               0.000000000               0.000000000               0.000000000               0.001594303               0.005126052               0.000235727              -0.000042893               0.001722964               0.001680071               0.000000000               0.000000000               0.000000000               0.000000000               0.001807400               0.005090548               0.000136001               0.000041456               0.001683014               0.001724470               0.000000000               0.000000000               0.000000000               0.000000000              -0.008015414              -0.000609083              -0.000302901              -0.002929643               0.000773515              -0.002156128               0.000000000               0.000000000               0.000000000               0.000000000              -0.005056911               0.000047033               0.000211686              -0.001902219               0.000649746              -0.001252473               0.000000000               0.000000000               0.000000000               0.000000000              -0.002805519               0.000680016               0.000686182              -0.001137070               0.000605691              -0.000531379               0.000000000               0.000000000               0.000000000               0.000000000              -0.001659308               0.001577443               0.000829752              -0.000819419               0.000798948              -0.000020471               0.000000000               0.000000000               0.000000000               0.000000000              -0.000997889               0.002436684               0.000843669              -0.000678792               0.001038484               0.000359691               0.000000000               0.000000000               0.000000000               0.000000000              -0.000579400               0.003153163               0.000806433              -0.000611419               0.001254850               0.000643431               0.000000000               0.000000000               0.000000000               0.000000000              -0.000287078               0.003717059               0.000749143              -0.000572286               0.001429769               0.000857483               0.000000000               0.000000000               0.000000000               0.000000000              -0.000059063               0.004151656               0.000687628              -0.000541105               0.001564240               0.001023135               0.000000000               0.000000000               0.000000000               0.000000000               0.000142846               0.004486314               0.000626221              -0.000507221               0.001664497               0.001157276               0.000000000               0.000000000               0.000000000               0.000000000               0.000342549               0.004739389               0.000566980              -0.000463967               0.001734436               0.001270469               0.000000000               0.000000000               0.000000000               0.000000000               0.000551571               0.004923235               0.000514721              -0.000408564               0.001777250               0.001368686               0.000000000               0.000000000               0.000000000               0.000000000               0.000777825               0.005051562               0.000466102              -0.000339760               0.001797091               0.001457330               0.000000000               0.000000000               0.000000000               0.000000000               0.001027490               0.005130475               0.000410433              -0.000256000               0.001795475               0.001539475               0.000000000               0.000000000               0.000000000               0.000000000               0.001315120               0.005165006               0.000343205              -0.000152455               0.001772470               0.001620014               0.000000000               0.000000000               0.000000000               0.000000000               0.001655502               0.005153501               0.000254923              -0.000023374               0.001725608               0.001702233               0.000000000               0.000000000               0.000000000               0.000000000               0.002060639               0.005092104               0.000139156               0.000136225               0.001651943               0.001788168               0.000000000               0.000000000               0.000000000               0.000000000               0.002384578               0.005085676               0.000081723               0.000258505               0.001609040               0.001867545               0.000000000               0.000000000               0.000000000               0.000000000              -0.008307886              -0.000657543               0.000000000              -0.003033263               0.000791901              -0.002241361               0.000000000               0.000000000               0.000000000               0.000000000              -0.005215828              -0.000090082               0.000000000              -0.001944674               0.000618193              -0.001326481               0.000000000               0.000000000               0.000000000               0.000000000              -0.002827687               0.000449452              -0.000000000              -0.001116563               0.000522001              -0.000594562               0.000000000               0.000000000               0.000000000               0.000000000              -0.001616205               0.001320233               0.000000000              -0.000771105               0.000697107              -0.000073997               0.000000000               0.000000000               0.000000000               0.000000000              -0.000921431               0.002182532              -0.000000000              -0.000618352               0.000933621               0.000315269               0.000000000               0.000000000               0.000000000               0.000000000              -0.000491667               0.002907675               0.000000000              -0.000547833               0.001151826               0.000603993               0.000000000               0.000000000               0.000000000               0.000000000              -0.000198017               0.003487227               0.000000000              -0.000510159               0.001332450               0.000822291               0.000000000               0.000000000               0.000000000               0.000000000               0.000027515               0.003946830               0.000000000              -0.000483035               0.001476608               0.000993574               0.000000000               0.000000000               0.000000000               0.000000000               0.000227547               0.004310114              -0.000000000              -0.000453433               0.001587835               0.001134402               0.000000000               0.000000000               0.000000000               0.000000000               0.000426369               0.004589925               0.000000000              -0.000413851               0.001667910               0.001254059               0.000000000               0.000000000               0.000000000               0.000000000               0.000636451               0.004799669               0.000000000              -0.000361289               0.001720303               0.001359015               0.000000000               0.000000000               0.000000000               0.000000000               0.000861130               0.004952799               0.000000000              -0.000296175               0.001749641               0.001453466               0.000000000               0.000000000               0.000000000               0.000000000               0.001116684               0.005057557               0.000000000              -0.000213437               0.001756981               0.001543544               0.000000000               0.000000000               0.000000000               0.000000000               0.001419785               0.005116415              -0.000000000              -0.000107132               0.001741165               0.001634033               0.000000000               0.000000000               0.000000000               0.000000000               0.001784866               0.005122761               0.000000000               0.000028979               0.001697910               0.001726889               0.000000000               0.000000000               0.000000000               0.000000000               0.002237292               0.005076815               0.000000000               0.000204380               0.001624128               0.001828508               0.000000000               0.000000000               0.000000000               0.000000000               0.002607400               0.005083148               0.000000000               0.000342378               0.001580240               0.001922618               0.000000000               0.000000000               0.000000000               0.000000000               0.001900371               0.020931430              -0.000000000              -0.001903785               0.007611668               0.005707884               0.000000000               0.000000000               0.000000000               0.000000000               0.001905142               0.016519270              -0.000000000              -0.001350477               0.005956527               0.004606050               0.000000000               0.000000000               0.000000000               0.000000000               0.002522676               0.012960203               0.000000000              -0.000674020               0.004544698               0.003870677               0.000000000               0.000000000               0.000000000               0.000000000               0.002448207               0.010966199               0.000000000              -0.000452696               0.003806262               0.003353566               0.000000000               0.000000000               0.000000000               0.000000000               0.002159474               0.009727314               0.000000000              -0.000406111               0.003377776               0.002971665               0.000000000               0.000000000               0.000000000               0.000000000               0.001826431               0.008893538              -0.000000000              -0.000426780               0.003106743               0.002679963               0.000000000               0.000000000               0.000000000               0.000000000               0.001511265               0.008287018               0.000000000              -0.000469152               0.002918695               0.002449544               0.000000000               0.000000000               0.000000000               0.000000000               0.001222323               0.007805620               0.000000000              -0.000517330               0.002774291               0.002256961               0.000000000               0.000000000               0.000000000               0.000000000               0.000968178               0.007401272               0.000000000              -0.000562091               0.002654429               0.002092339               0.000000000               0.000000000               0.000000000               0.000000000               0.000749771               0.007038100               0.000000000              -0.000598597               0.002545542               0.001946945               0.000000000               0.000000000               0.000000000               0.000000000               0.000564902               0.006693748               0.000000000              -0.000624879               0.002439520               0.001814641               0.000000000               0.000000000               0.000000000               0.000000000               0.000412821               0.006351141              -0.000000000              -0.000639083               0.002330053               0.001690970               0.000000000               0.000000000               0.000000000               0.000000000               0.000286091               0.005999011               0.000000000              -0.000642591               0.002213847               0.001571257               0.000000000               0.000000000               0.000000000               0.000000000               0.000176960               0.005628788              -0.000000000              -0.000637237               0.002088656               0.001451419               0.000000000               0.000000000               0.000000000               0.000000000               0.000084321               0.005221637              -0.000000000              -0.000621083               0.001947556               0.001326473               0.000000000               0.000000000               0.000000000               0.000000000               0.000026511               0.004751456               0.000000000              -0.000583989               0.001778466               0.001194477               0.000000000               0.000000000               0.000000000               0.000000000              -0.000028468               0.004386844               0.000000000              -0.000559030               0.001648610               0.001089580               0.000000000               0.000000000               0.000000000               0.000000000               0.001976139               0.020510941              -0.001446202              -0.001822811               0.007444516               0.005621704               0.000000000               0.000000000               0.000000000               0.000000000               0.001879360               0.016244310              -0.000748333              -0.001325776               0.005856641               0.004530866               0.000000000               0.000000000               0.000000000               0.000000000               0.002384255               0.012837824              -0.000055080              -0.000710631               0.004516109               0.003805478               0.000000000               0.000000000               0.000000000               0.000000000               0.002265287               0.010927751               0.000234103              -0.000516485               0.003814709               0.003298224               0.000000000               0.000000000               0.000000000               0.000000000               0.001971749               0.009734424               0.000354082              -0.000477396               0.003403907               0.002926511               0.000000000               0.000000000               0.000000000               0.000000000               0.001646361               0.008920477               0.000399274              -0.000497673               0.003139354               0.002641681               0.000000000               0.000000000               0.000000000               0.000000000               0.001342056               0.008319804               0.000406615              -0.000536703               0.002952141               0.002415438               0.000000000               0.000000000               0.000000000               0.000000000               0.001072111               0.007843280               0.000398639              -0.000578367               0.002807189               0.002228823               0.000000000               0.000000000               0.000000000               0.000000000               0.000838322               0.007439646               0.000383591              -0.000615584               0.002685052               0.002069468               0.000000000               0.000000000               0.000000000               0.000000000               0.000640869               0.007075670               0.000364093              -0.000644132               0.002573244               0.001929112               0.000000000               0.000000000               0.000000000               0.000000000               0.000477401               0.006733547               0.000341832              -0.000662667               0.002465382               0.001802716               0.000000000               0.000000000               0.000000000               0.000000000               0.000344513               0.006397122               0.000315956              -0.000670446               0.002355835               0.001685388               0.000000000               0.000000000               0.000000000               0.000000000               0.000236980               0.006054313               0.000289302              -0.000667920               0.002240724               0.001572804               0.000000000               0.000000000               0.000000000               0.000000000               0.000145782               0.005696600               0.000256652              -0.000657405               0.002117983               0.001460578               0.000000000               0.000000000               0.000000000               0.000000000               0.000069616               0.005311784               0.000202241              -0.000637865               0.001983199               0.001345333               0.000000000               0.000000000               0.000000000               0.000000000               0.000023526               0.004887521               0.000115928              -0.000602116               0.001829863               0.001227747               0.000000000               0.000000000               0.000000000               0.000000000              -0.000022044               0.004572328               0.000070604              -0.000579806               0.001717363               0.001137557               0.000000000               0.000000000               0.000000000               0.000000000               0.002161803               0.019305747              -0.002694154              -0.001602540               0.006969364               0.005366825               0.000000000               0.000000000               0.000000000               0.000000000               0.001784738               0.015464821              -0.001397413              -0.001263823               0.005576163               0.004312340               0.000000000               0.000000000               0.000000000               0.000000000               0.001989289               0.012498191              -0.000118304              -0.000816289               0.004438118               0.003621830               0.000000000               0.000000000               0.000000000               0.000000000               0.001761018               0.010814310               0.000400993              -0.000691405               0.003835202               0.003143797               0.000000000               0.000000000               0.000000000               0.000000000               0.001450292               0.009737560               0.000608091              -0.000673334               0.003470266               0.002796932               0.000000000               0.000000000               0.000000000               0.000000000               0.001152107               0.008978477               0.000680654              -0.000690268               0.003222885               0.002532617               0.000000000               0.000000000               0.000000000               0.000000000               0.000895586               0.008401336               0.000692382              -0.000714320               0.003038524               0.002324204               0.000000000               0.000000000               0.000000000               0.000000000               0.000679343               0.007934025               0.000678142              -0.000736998               0.002890314               0.002153317               0.000000000               0.000000000               0.000000000               0.000000000               0.000497889               0.007530953               0.000647777              -0.000754659               0.002761845               0.002007186               0.000000000               0.000000000               0.000000000               0.000000000               0.000352764               0.007165153               0.000609901              -0.000763356               0.002642812               0.001879457               0.000000000               0.000000000               0.000000000               0.000000000               0.000239703               0.006820935               0.000569604              -0.000762726               0.002527864               0.001765138               0.000000000               0.000000000               0.000000000               0.000000000               0.000154171               0.006492953               0.000522627              -0.000753803               0.002415564               0.001661760               0.000000000               0.000000000               0.000000000               0.000000000               0.000090587               0.006176288               0.000470501              -0.000738064               0.002304763               0.001566699               0.000000000               0.000000000               0.000000000               0.000000000               0.000046738               0.005863752               0.000406048              -0.000715441               0.002193045               0.001477604               0.000000000               0.000000000               0.000000000               0.000000000               0.000018598               0.005550624               0.000310281              -0.000686852               0.002079140               0.001392288               0.000000000               0.000000000               0.000000000               0.000000000               0.000004580               0.005243950               0.000173020              -0.000653775               0.001965891               0.001312116               0.000000000               0.000000000               0.000000000               0.000000000              -0.000016922               0.005042559               0.000100604              -0.000636664               0.001893058               0.001256394               0.000000000               0.000000000               0.000000000               0.000000000               0.002362236               0.017474478              -0.003595507              -0.001298470               0.006257591               0.004959121               0.000000000               0.000000000               0.000000000               0.000000000               0.001592949               0.014296888              -0.001876099              -0.001189753               0.005162166               0.003972413               0.000000000               0.000000000               0.000000000               0.000000000               0.001381870               0.011993010              -0.000199938              -0.000980922               0.004324604               0.003343682               0.000000000               0.000000000               0.000000000               0.000000000               0.001029197               0.010625608               0.000449406              -0.000942250               0.003855917               0.002913667               0.000000000               0.000000000               0.000000000               0.000000000               0.000717231               0.009704683               0.000695997              -0.000944121               0.003549569               0.002605448               0.000000000               0.000000000               0.000000000               0.000000000               0.000472972               0.009018806               0.000777077              -0.000949984               0.003322900               0.002372916               0.000000000               0.000000000               0.000000000               0.000000000               0.000294032               0.008472243               0.000786185              -0.000948766               0.003140308               0.002191542               0.000000000               0.000000000               0.000000000               0.000000000               0.000159336               0.008013984               0.000763681              -0.000941995               0.002985299               0.002043305               0.000000000               0.000000000               0.000000000               0.000000000               0.000056047               0.007610519               0.000723583              -0.000930295               0.002846912               0.001916617               0.000000000               0.000000000               0.000000000               0.000000000              -0.000009298               0.007246166               0.000672981              -0.000909255               0.002718449               0.001809194               0.000000000               0.000000000               0.000000000               0.000000000              -0.000046336               0.006910863               0.000619626              -0.000881232               0.002597342               0.001716110               0.000000000               0.000000000               0.000000000               0.000000000              -0.000063596               0.006604073               0.000562553              -0.000849356               0.002484454               0.001635098               0.000000000               0.000000000               0.000000000               0.000000000              -0.000063851               0.006326505               0.000498559              -0.000814755               0.002380399               0.001565644               0.000000000               0.000000000               0.000000000               0.000000000              -0.000054183               0.006074585               0.000416486              -0.000779640               0.002284721               0.001505081               0.000000000               0.000000000               0.000000000               0.000000000              -0.000039849               0.005851889               0.000304519              -0.000746428               0.002199419               0.001452992               0.000000000               0.000000000               0.000000000               0.000000000              -0.000021625               0.005674650               0.000162882              -0.000717439               0.002130678               0.001413238               0.000000000               0.000000000               0.000000000               0.000000000              -0.000016621               0.005584823               0.000088392              -0.000704334               0.002096367               0.001392033               0.000000000               0.000000000               0.000000000               0.000000000               0.002456794               0.015234639              -0.004073911              -0.000983033               0.005405839               0.004422806               0.000000000               0.000000000               0.000000000               0.000000000               0.001278007               0.012889393              -0.002160478              -0.001131920               0.004673727               0.003541808               0.000000000               0.000000000               0.000000000               0.000000000               0.000633113               0.011373539              -0.000319145              -0.001184272               0.004185899               0.003001627               0.000000000               0.000000000               0.000000000               0.000000000               0.000195916               0.010354579               0.000356634              -0.001220851               0.003858442               0.002637591               0.000000000               0.000000000               0.000000000               0.000000000              -0.000072534               0.009595772               0.000600119              -0.001226669               0.003607448               0.002380779               0.000000000               0.000000000               0.000000000               0.000000000              -0.000230414               0.008987472               0.000672579              -0.001209836               0.003399073               0.002189236               0.000000000               0.000000000               0.000000000               0.000000000              -0.000315168               0.008475366               0.000677578              -0.001177606               0.003217629               0.002040023               0.000000000               0.000000000               0.000000000               0.000000000              -0.000348781               0.008032244               0.000655778              -0.001134821               0.003055662               0.001920841               0.000000000               0.000000000               0.000000000               0.000000000              -0.000350123               0.007636549               0.000616177              -0.001085862               0.002907445               0.001821583               0.000000000               0.000000000               0.000000000               0.000000000              -0.000327141               0.007283001               0.000564982              -0.001033051               0.002771993               0.001738942               0.000000000               0.000000000               0.000000000               0.000000000              -0.000288199               0.006970005               0.000510029              -0.000979323               0.002649753               0.001670430               0.000000000               0.000000000               0.000000000               0.000000000              -0.000236065               0.006692318               0.000451390              -0.000925062               0.002539104               0.001614043               0.000000000               0.000000000               0.000000000               0.000000000              -0.000175663               0.006447340               0.000388382              -0.000871789               0.002439688               0.001567899               0.000000000               0.000000000               0.000000000               0.000000000              -0.000120213               0.006240717               0.000312592              -0.000825167               0.002355274               0.001530107               0.000000000               0.000000000               0.000000000               0.000000000              -0.000072125               0.006082797               0.000216933              -0.000787394               0.002290043               0.001502649               0.000000000               0.000000000               0.000000000               0.000000000              -0.000031699               0.005981171               0.000109472              -0.000759532               0.002246881               0.001487349               0.000000000               0.000000000               0.000000000               0.000000000              -0.000016387               0.005940263               0.000056846              -0.000748676               0.002229626               0.001480951               0.000000000               0.000000000               0.000000000               0.000000000               0.002340425               0.012808766              -0.004137204              -0.000723438               0.004510691               0.003787253               0.000000000               0.000000000               0.000000000               0.000000000               0.000836821               0.011387716              -0.002276847              -0.001109655               0.004165752               0.003056097               0.000000000               0.000000000               0.000000000               0.000000000              -0.000162332               0.010686214              -0.000499629              -0.001396648               0.004027585               0.002630937               0.000000000               0.000000000               0.000000000               0.000000000              -0.000605223               0.009994402               0.000123328              -0.001476255               0.003823519               0.002347264               0.000000000               0.000000000               0.000000000               0.000000000              -0.000780796               0.009385120               0.000342062              -0.001465935               0.003616987               0.002151052               0.000000000               0.000000000               0.000000000               0.000000000              -0.000821778               0.008854394               0.000408699              -0.001414963               0.003423089               0.002008127               0.000000000               0.000000000               0.000000000               0.000000000              -0.000790742               0.008384213               0.000420741              -0.001344552               0.003242894               0.001898342               0.000000000               0.000000000               0.000000000               0.000000000              -0.000720814               0.007966092               0.000410532              -0.001266064               0.003077359               0.001811295               0.000000000               0.000000000               0.000000000               0.000000000              -0.000632396               0.007592189               0.000382860              -0.001186169               0.002926094               0.001739925               0.000000000               0.000000000               0.000000000               0.000000000              -0.000533190               0.007258519               0.000345989              -0.001107258               0.002788568               0.001681310               0.000000000               0.000000000               0.000000000               0.000000000              -0.000431170               0.006958785               0.000305312              -0.001031534               0.002663417               0.001631882               0.000000000               0.000000000               0.000000000               0.000000000              -0.000331278               0.006689572               0.000261103              -0.000960423               0.002549976               0.001589553               0.000000000               0.000000000               0.000000000               0.000000000              -0.000235329               0.006457632               0.000217376              -0.000895450               0.002451006               0.001555556               0.000000000               0.000000000               0.000000000               0.000000000              -0.000156185               0.006268120               0.000171262              -0.000842082               0.002370047               0.001527964               0.000000000               0.000000000               0.000000000               0.000000000              -0.000093746               0.006124863               0.000116152              -0.000800761               0.002308521               0.001507760               0.000000000               0.000000000               0.000000000               0.000000000              -0.000041461               0.006024620               0.000056153              -0.000768624               0.002264395               0.001495771               0.000000000               0.000000000               0.000000000               0.000000000              -0.000028576               0.005967283               0.000032616              -0.000756625               0.002241283               0.001484658               0.000000000               0.000000000               0.000000000               0.000000000               0.001958056               0.010395146              -0.003854714              -0.000565125               0.003653388               0.003088263               0.000000000               0.000000000               0.000000000               0.000000000               0.000297862               0.009909481              -0.002272542              -0.001126986               0.003678788               0.002551803               0.000000000               0.000000000               0.000000000               0.000000000              -0.000910764               0.009965378              -0.000749849              -0.001587205               0.003850828               0.002263623               0.000000000               0.000000000               0.000000000               0.000000000              -0.001268833               0.009555672              -0.000218931              -0.001670267               0.003741948               0.002071681               0.000000000               0.000000000               0.000000000               0.000000000              -0.001307774               0.009076767              -0.000015442              -0.001625007               0.003567228               0.001942221               0.000000000               0.000000000               0.000000000               0.000000000              -0.001218208               0.008617346               0.000063602              -0.001533993               0.003383751               0.001849758               0.000000000               0.000000000               0.000000000               0.000000000              -0.001078218               0.008195325               0.000095668              -0.001428744               0.003207996               0.001779252               0.000000000               0.000000000               0.000000000               0.000000000              -0.000918874               0.007815613               0.000108752              -0.001321526               0.003045687               0.001724161               0.000000000               0.000000000               0.000000000               0.000000000              -0.000754926               0.007463435               0.000106254              -0.001216024               0.002893128               0.001677104               0.000000000               0.000000000               0.000000000               0.000000000              -0.000603557               0.007129827               0.000093794              -0.001117559               0.002749105               0.001631546               0.000000000               0.000000000               0.000000000               0.000000000              -0.000469966               0.006817695               0.000079007              -0.001028447               0.002615358               0.001586911               0.000000000               0.000000000               0.000000000               0.000000000              -0.000351186               0.006539522               0.000065682              -0.000949133               0.002496196               0.001547064               0.000000000               0.000000000               0.000000000               0.000000000              -0.000250918               0.006305801               0.000059121              -0.000882317               0.002396019               0.001513701               0.000000000               0.000000000               0.000000000               0.000000000              -0.000172324               0.006116086               0.000055867              -0.000829130               0.002315052               0.001485921               0.000000000               0.000000000               0.000000000               0.000000000              -0.000107635               0.005963625               0.000047092              -0.000785814               0.002249793               0.001463979               0.000000000               0.000000000               0.000000000               0.000000000              -0.000051044               0.005835977               0.000028700              -0.000748637               0.002194852               0.001446215               0.000000000               0.000000000               0.000000000               0.000000000              -0.000043716               0.005750121               0.000027299              -0.000735157               0.002161740               0.001426583               0.000000000               0.000000000               0.000000000               0.000000000               0.001336121               0.008148976              -0.003314677              -0.000517579               0.002888823               0.002371245               0.000000000               0.000000000               0.000000000               0.000000000              -0.000302147               0.008543343              -0.002189796              -0.001181222               0.003241493               0.002060271               0.000000000               0.000000000               0.000000000               0.000000000              -0.001535543               0.009232056              -0.001058861              -0.001729831               0.003653932               0.001924100               0.000000000               0.000000000               0.000000000               0.000000000              -0.001734433               0.009054385              -0.000615081              -0.001782206               0.003612167               0.001829961               0.000000000               0.000000000               0.000000000               0.000000000              -0.001620635               0.008690570              -0.000401584              -0.001694055               0.003461513               0.001767458               0.000000000               0.000000000               0.000000000               0.000000000              -0.001409558               0.008305490              -0.000289813              -0.001566766               0.003290725               0.001723958               0.000000000               0.000000000               0.000000000               0.000000000              -0.001174333               0.007941802              -0.000224398              -0.001433097               0.003124940               0.001691843               0.000000000               0.000000000               0.000000000               0.000000000              -0.000948824               0.007585742              -0.000180474              -0.001304024               0.002963230               0.001659206               0.000000000               0.000000000               0.000000000               0.000000000              -0.000749993               0.007225950              -0.000154986              -0.001184488               0.002803455               0.001618967               0.000000000               0.000000000               0.000000000               0.000000000              -0.000577252               0.006875245              -0.000136609              -0.001075872               0.002650349               0.001574477               0.000000000               0.000000000               0.000000000               0.000000000              -0.000432609               0.006550142              -0.000112219              -0.000980994               0.002510357               0.001529363               0.000000000               0.000000000               0.000000000               0.000000000              -0.000318163               0.006268542              -0.000079732              -0.000902877               0.002390452               0.001487575               0.000000000               0.000000000               0.000000000               0.000000000              -0.000229249               0.006035374              -0.000038854              -0.000840388               0.002291900               0.001451512               0.000000000               0.000000000               0.000000000               0.000000000              -0.000160629               0.005840904               0.000001288              -0.000790347               0.002210398               0.001420051               0.000000000               0.000000000               0.000000000               0.000000000              -0.000102568               0.005675559               0.000025241              -0.000747906               0.002141136               0.001393230               0.000000000               0.000000000               0.000000000               0.000000000              -0.000051167               0.005534886               0.000025683              -0.000711046               0.002081959               0.001370913               0.000000000               0.000000000               0.000000000               0.000000000              -0.000041431               0.005448786               0.000028183              -0.000696633               0.002048455               0.001351822               0.000000000               0.000000000               0.000000000               0.000000000               0.000577625               0.006243493              -0.002625068              -0.000563828               0.002269085               0.001705257               0.000000000               0.000000000               0.000000000               0.000000000              -0.000873423               0.007325498              -0.002076143              -0.001243219               0.002856214               0.001612995               0.000000000               0.000000000               0.000000000               0.000000000              -0.001996365               0.008523416              -0.001417752              -0.001814060               0.003445797               0.001631737               0.000000000               0.000000000               0.000000000               0.000000000              -0.002029364               0.008581543              -0.001030731              -0.001833700               0.003471719               0.001638019               0.000000000               0.000000000               0.000000000               0.000000000              -0.001792835               0.008352291              -0.000787737              -0.001716345               0.003356184               0.001639839               0.000000000               0.000000000               0.000000000               0.000000000              -0.001488061               0.008056699              -0.000628949              -0.001565107               0.003207242               0.001642135               0.000000000               0.000000000               0.000000000               0.000000000              -0.001188053               0.007737686              -0.000524102              -0.001412727               0.003050112               0.001637385               0.000000000               0.000000000               0.000000000               0.000000000              -0.000921502               0.007391249              -0.000449626              -0.001269466               0.002886881               0.001617414               0.000000000               0.000000000               0.000000000               0.000000000              -0.000693385               0.007029378              -0.000392567              -0.001138689               0.002722666               0.001583977               0.000000000               0.000000000               0.000000000               0.000000000              -0.000501520               0.006672611              -0.000338010              -0.001022144               0.002564896               0.001542752               0.000000000               0.000000000               0.000000000               0.000000000              -0.000349988               0.006348297              -0.000271845              -0.000924780               0.002424338               0.001499558               0.000000000               0.000000000               0.000000000               0.000000000              -0.000246107               0.006069320              -0.000194424              -0.000850953               0.002306738               0.001455784               0.000000000               0.000000000               0.000000000               0.000000000              -0.000184459               0.005831406              -0.000116082              -0.000798096               0.002209815               0.001411719               0.000000000               0.000000000               0.000000000               0.000000000              -0.000147861               0.005621075              -0.000047401              -0.000758081               0.002126367               0.001368286               0.000000000               0.000000000               0.000000000               0.000000000              -0.000119718               0.005434049               0.000000842              -0.000724148               0.002052714               0.001328566               0.000000000               0.000000000               0.000000000               0.000000000              -0.000101385               0.005272116               0.000021448              -0.000697032               0.001989698               0.001292666               0.000000000               0.000000000               0.000000000               0.000000000              -0.000091678               0.005192154               0.000024806              -0.000683397               0.001958499               0.001275103               0.000000000               0.000000000               0.000000000               0.000000000              -0.000335892               0.004473554              -0.001888498              -0.000685153               0.001719554               0.001034400               0.000000000               0.000000000               0.000000000               0.000000000              -0.001336263               0.005932566              -0.001943428              -0.001242667               0.002391724               0.001149057               0.000000000               0.000000000               0.000000000               0.000000000              -0.002233930               0.007493094              -0.001798577              -0.001774357               0.003089125               0.001314768               0.000000000               0.000000000               0.000000000               0.000000000              -0.002186991               0.007876512              -0.001481638              -0.001804682               0.003227038               0.001422356               0.000000000               0.000000000               0.000000000               0.000000000              -0.001903315               0.007875871              -0.001211304              -0.001698223               0.003191338               0.001493115               0.000000000               0.000000000               0.000000000               0.000000000              -0.001569097               0.007739528              -0.001004855              -0.001555849               0.003098433               0.001542584               0.000000000               0.000000000               0.000000000               0.000000000              -0.001247665               0.007521818              -0.000852351              -0.001408098               0.002976614               0.001568515               0.000000000               0.000000000               0.000000000               0.000000000              -0.000962797               0.007250140              -0.000734509              -0.001267313               0.002839127               0.001571813               0.000000000               0.000000000               0.000000000               0.000000000              -0.000723096               0.006939291              -0.000640320              -0.001138570               0.002692597               0.001554027               0.000000000               0.000000000               0.000000000               0.000000000              -0.000526676               0.006610114              -0.000550568              -0.001023765               0.002544604               0.001520839               0.000000000               0.000000000               0.000000000               0.000000000              -0.000370759               0.006293337              -0.000450647              -0.000925700               0.002406324               0.001480625               0.000000000               0.000000000               0.000000000               0.000000000              -0.000262277               0.006004323              -0.000342905              -0.000848892               0.002284385               0.001435493               0.000000000               0.000000000               0.000000000               0.000000000              -0.000200580               0.005750351              -0.000236296              -0.000794009               0.002181434               0.001387425               0.000000000               0.000000000               0.000000000               0.000000000              -0.000178957               0.005529795              -0.000141149              -0.000758331               0.002096024               0.001337692               0.000000000               0.000000000               0.000000000               0.000000000              -0.000179605               0.005339254              -0.000061223              -0.000734757               0.002024653               0.001289896               0.000000000               0.000000000               0.000000000               0.000000000              -0.000195342               0.005164443              -0.000007439              -0.000718807               0.001961066               0.001242259               0.000000000               0.000000000               0.000000000               0.000000000              -0.000203752               0.005078724               0.000009284              -0.000711246               0.001929973               0.001218727               0.000000000               0.000000000               0.000000000               0.000000000              -0.001537429               0.002872986              -0.001146912              -0.000935657               0.001269538               0.000333880               0.000000000               0.000000000               0.000000000               0.000000000              -0.001868138               0.004542988              -0.001742857              -0.001268423               0.001937121               0.000668698               0.000000000               0.000000000               0.000000000               0.000000000              -0.002386362               0.006303966              -0.002092731              -0.001682878               0.002662260               0.000979382               0.000000000               0.000000000               0.000000000               0.000000000              -0.002267580               0.006993317              -0.001905033              -0.001724504               0.002905917               0.001181413               0.000000000               0.000000000               0.000000000               0.000000000              -0.001965226               0.007248374              -0.001642300              -0.001643003               0.002963768               0.001320765               0.000000000               0.000000000               0.000000000               0.000000000              -0.001625670               0.007300969              -0.001405648              -0.001522244               0.002941046               0.001418802               0.000000000               0.000000000               0.000000000               0.000000000              -0.001306289               0.007220657              -0.001213322              -0.001392437               0.002871007               0.001478570               0.000000000               0.000000000               0.000000000               0.000000000              -0.001016222               0.007059070              -0.001057213              -0.001263464               0.002774154               0.001510690               0.000000000               0.000000000               0.000000000               0.000000000              -0.000762062               0.006840379              -0.000924530              -0.001140818               0.002660376               0.001519558               0.000000000               0.000000000               0.000000000               0.000000000              -0.000550814               0.006583321              -0.000802895              -0.001029468               0.002537574               0.001508106               0.000000000               0.000000000               0.000000000               0.000000000              -0.000375830               0.006305597              -0.000681310              -0.000929134               0.002411556               0.001482422               0.000000000               0.000000000               0.000000000               0.000000000              -0.000242184               0.006024196              -0.000556209              -0.000843841               0.002289326               0.001445484               0.000000000               0.000000000               0.000000000               0.000000000              -0.000156459               0.005763071              -0.000427629              -0.000779054               0.002180689               0.001401635               0.000000000               0.000000000               0.000000000               0.000000000              -0.000123869               0.005534439              -0.000300746              -0.000738254               0.002090879               0.001352625               0.000000000               0.000000000               0.000000000               0.000000000              -0.000145797               0.005333629              -0.000180417              -0.000721376               0.002018317               0.001296941               0.000000000               0.000000000               0.000000000               0.000000000              -0.000210130               0.005156657              -0.000075208              -0.000723379               0.001959995               0.001236616               0.000000000               0.000000000               0.000000000               0.000000000              -0.000266998               0.005064041              -0.000022222              -0.000733127               0.001932373               0.001199245               0.000000000               0.000000000               0.000000000               0.000000000              -0.002948387               0.001554758              -0.000455500              -0.001299988               0.000951575              -0.000348412               0.000000000               0.000000000               0.000000000               0.000000000              -0.002516157               0.003237205              -0.001453610              -0.001348207               0.001528459               0.000180252               0.000000000               0.000000000               0.000000000               0.000000000              -0.002495309               0.004975783              -0.002203206              -0.001557711               0.002177814               0.000620103               0.000000000               0.000000000               0.000000000               0.000000000              -0.002234541               0.005881786              -0.002178746              -0.001573173               0.002484966               0.000911793               0.000000000               0.000000000               0.000000000               0.000000000              -0.001903652               0.006371856              -0.001968947              -0.001510349               0.002627380               0.001117031               0.000000000               0.000000000               0.000000000               0.000000000              -0.001566309               0.006622263              -0.001737075              -0.001415146               0.002679114               0.001263968               0.000000000               0.000000000               0.000000000               0.000000000              -0.001257694               0.006706512              -0.001527198              -0.001309946               0.002672130               0.001362184               0.000000000               0.000000000               0.000000000               0.000000000              -0.000979074               0.006679485              -0.001349479              -0.001202086               0.002627168               0.001425082               0.000000000               0.000000000               0.000000000               0.000000000              -0.000729702               0.006573329              -0.001192155              -0.001095302               0.002556188               0.001460886               0.000000000               0.000000000               0.000000000               0.000000000              -0.000509115               0.006418322              -0.001046320              -0.000993206               0.002470488               0.001477282               0.000000000               0.000000000               0.000000000               0.000000000              -0.000318385               0.006219679              -0.000906749              -0.000896852               0.002372156               0.001475304               0.000000000               0.000000000               0.000000000               0.000000000              -0.000158716               0.005991717              -0.000768092              -0.000808481               0.002266713               0.001458231               0.000000000               0.000000000               0.000000000               0.000000000              -0.000036507               0.005759731              -0.000626231              -0.000733655               0.002164443               0.001430788               0.000000000               0.000000000               0.000000000               0.000000000               0.000036501               0.005540094              -0.000476647              -0.000678822               0.002072954               0.001394131               0.000000000               0.000000000               0.000000000               0.000000000               0.000040969               0.005335808              -0.000317847              -0.000651611               0.001995789               0.001344177               0.000000000               0.000000000               0.000000000               0.000000000              -0.000029710               0.005156574              -0.000155924              -0.000655711               0.001937411               0.001281700               0.000000000               0.000000000               0.000000000               0.000000000              -0.000111579               0.005058460              -0.000065811              -0.000674148               0.001910852               0.001236704               0.000000000               0.000000000               0.000000000               0.000000000              -0.004468432               0.000579161               0.000092057              -0.001748055               0.000775734              -0.000972322               0.000000000               0.000000000               0.000000000               0.000000000              -0.003237446               0.002083770              -0.001112978              -0.001474511               0.001186085              -0.000288426               0.000000000               0.000000000               0.000000000               0.000000000              -0.002580763               0.003618046              -0.002106394              -0.001420039               0.001679349               0.000259309               0.000000000               0.000000000               0.000000000               0.000000000              -0.002109418               0.004631481              -0.002233311              -0.001369965               0.002000465               0.000630501               0.000000000               0.000000000               0.000000000               0.000000000              -0.001721493               0.005309898              -0.002100724              -0.001309295               0.002206379               0.000897084               0.000000000               0.000000000               0.000000000               0.000000000              -0.001384855               0.005740907              -0.001903570              -0.001236932               0.002325927               0.001088995               0.000000000               0.000000000               0.000000000               0.000000000              -0.001090404               0.005987849              -0.001706606              -0.001157381               0.002381723               0.001224342               0.000000000               0.000000000               0.000000000               0.000000000              -0.000828466               0.006110209              -0.001527817              -0.001074449               0.002394865               0.001320416               0.000000000               0.000000000               0.000000000               0.000000000              -0.000592360               0.006134939              -0.001364788              -0.000989001               0.002374626               0.001385625               0.000000000               0.000000000               0.000000000               0.000000000              -0.000375197               0.006092281              -0.001213337              -0.000902232               0.002331484               0.001429252               0.000000000               0.000000000               0.000000000               0.000000000              -0.000176203               0.005998413              -0.001068758              -0.000815876               0.002271409               0.001455533               0.000000000               0.000000000               0.000000000               0.000000000               0.000006464               0.005861419              -0.000927899              -0.000730252               0.002197204               0.001466952               0.000000000               0.000000000               0.000000000               0.000000000               0.000171367               0.005694182              -0.000784403              -0.000647509               0.002113878               0.001466369               0.000000000               0.000000000               0.000000000               0.000000000               0.000304933               0.005513765              -0.000623610              -0.000574870               0.002029526               0.001454657               0.000000000               0.000000000               0.000000000               0.000000000               0.000383116               0.005331367              -0.000437840              -0.000522751               0.001951355               0.001428604               0.000000000               0.000000000               0.000000000               0.000000000               0.000388280               0.005161422              -0.000228078              -0.000499572               0.001886981               0.001387409               0.000000000               0.000000000               0.000000000               0.000000000               0.000352427               0.005071410              -0.000111903              -0.000501765               0.001857708               0.001355943               0.000000000               0.000000000               0.000000000               0.000000000              -0.005941287              -0.000064141               0.000413269              -0.002219963               0.000718602              -0.001501361               0.000000000               0.000000000               0.000000000               0.000000000              -0.003968014               0.001144447              -0.000768854              -0.001631059               0.000925162              -0.000705897               0.000000000               0.000000000               0.000000000               0.000000000              -0.002662551               0.002360667              -0.001799225              -0.001293538               0.001218059              -0.000075479               0.000000000               0.000000000               0.000000000               0.000000000              -0.001939055               0.003382541              -0.002021725              -0.001149961               0.001510822               0.000360860               0.000000000               0.000000000               0.000000000               0.000000000              -0.001462534               0.004178477              -0.001965733              -0.001070758               0.001749730               0.000678972               0.000000000               0.000000000               0.000000000               0.000000000              -0.001109365               0.004754202              -0.001820828              -0.001010286               0.001921480               0.000911194               0.000000000               0.000000000               0.000000000               0.000000000              -0.000824240               0.005145927              -0.001658772              -0.000952329               0.002032734               0.001080405               0.000000000               0.000000000               0.000000000               0.000000000              -0.000579350               0.005401370              -0.001503047              -0.000892426               0.002097914               0.001205488               0.000000000               0.000000000               0.000000000               0.000000000              -0.000356377               0.005556222              -0.001355694              -0.000828168               0.002128111               0.001299943               0.000000000               0.000000000               0.000000000               0.000000000              -0.000145437               0.005632439              -0.001216892              -0.000758592               0.002130325               0.001371732               0.000000000               0.000000000               0.000000000               0.000000000               0.000058636               0.005647043              -0.001085219              -0.000683891               0.002110292               0.001426402               0.000000000               0.000000000               0.000000000               0.000000000               0.000262436               0.005613576              -0.000960032              -0.000603282               0.002072267               0.001468985               0.000000000               0.000000000               0.000000000               0.000000000               0.000465536               0.005535358              -0.000831349              -0.000517343               0.002017548               0.001500206               0.000000000               0.000000000               0.000000000               0.000000000               0.000661620               0.005426848              -0.000676909              -0.000430248               0.001952347               0.001522099               0.000000000               0.000000000               0.000000000               0.000000000               0.000837851               0.005296308              -0.000488856              -0.000347844               0.001881366               0.001533523               0.000000000               0.000000000               0.000000000               0.000000000               0.000978644               0.005152908              -0.000263239              -0.000277121               0.001809993               0.001532871               0.000000000               0.000000000               0.000000000               0.000000000               0.001057803               0.005087158              -0.000142767              -0.000239218               0.001775442               0.001536224               0.000000000               0.000000000               0.000000000               0.000000000              -0.007183016              -0.000433181               0.000472494              -0.002639482               0.000735428              -0.001904053               0.000000000               0.000000000               0.000000000               0.000000000              -0.004611512               0.000460576              -0.000462507              -0.001786887               0.000749149              -0.001037738               0.000000000               0.000000000               0.000000000               0.000000000              -0.002744516               0.001342685              -0.001307676              -0.001197027               0.000846564              -0.000350463               0.000000000               0.000000000               0.000000000               0.000000000              -0.001776880               0.002306041              -0.001537397              -0.000954583               0.001086866               0.000132283               0.000000000               0.000000000               0.000000000               0.000000000              -0.001198397               0.003152888              -0.001534653              -0.000843509               0.001332121               0.000488612               0.000000000               0.000000000               0.000000000               0.000000000              -0.000811254               0.003824332              -0.001447185              -0.000782261               0.001535518               0.000753257               0.000000000               0.000000000               0.000000000               0.000000000              -0.000524805               0.004326404              -0.001334085              -0.000737601               0.001687987               0.000950386               0.000000000               0.000000000               0.000000000               0.000000000              -0.000289967               0.004689719              -0.001220014              -0.000694951               0.001794874               0.001099923               0.000000000               0.000000000               0.000000000               0.000000000              -0.000079653               0.004951310              -0.001107854              -0.000648783               0.001866681               0.001217898               0.000000000               0.000000000               0.000000000               0.000000000               0.000123814               0.005132707              -0.000999879              -0.000595157               0.001909271               0.001314114               0.000000000               0.000000000               0.000000000               0.000000000               0.000330799               0.005244925              -0.000900489              -0.000531565               0.001925479               0.001393914               0.000000000               0.000000000               0.000000000               0.000000000               0.000552191               0.005305200              -0.000808016              -0.000456078               0.001920408               0.001464331               0.000000000               0.000000000               0.000000000               0.000000000               0.000784982               0.005317612              -0.000708696              -0.000370333               0.001895964               0.001525631               0.000000000               0.000000000               0.000000000               0.000000000               0.001034218               0.005290775              -0.000585657              -0.000273515               0.001854746               0.001581231               0.000000000               0.000000000               0.000000000               0.000000000               0.001306538               0.005227836              -0.000430452              -0.000163528               0.001797104               0.001633576               0.000000000               0.000000000               0.000000000               0.000000000               0.001594303               0.005126052              -0.000235727              -0.000042893               0.001722964               0.001680071               0.000000000               0.000000000               0.000000000               0.000000000               0.001807400               0.005090548              -0.000136001               0.000041456               0.001683014               0.001724470               0.000000000               0.000000000               0.000000000               0.000000000              -0.008015414              -0.000609083               0.000302901              -0.002929643               0.000773515              -0.002156128               0.000000000               0.000000000               0.000000000               0.000000000              -0.005056911               0.000047033              -0.000211686              -0.001902219               0.000649746              -0.001252473               0.000000000               0.000000000               0.000000000               0.000000000              -0.002805519               0.000680016              -0.000686182              -0.001137070               0.000605691              -0.000531379               0.000000000               0.000000000               0.000000000               0.000000000              -0.001659308               0.001577443              -0.000829752              -0.000819419               0.000798948              -0.000020471               0.000000000               0.000000000               0.000000000               0.000000000              -0.000997889               0.002436684              -0.000843669              -0.000678792               0.001038484               0.000359691               0.000000000               0.000000000               0.000000000               0.000000000              -0.000579400               0.003153163              -0.000806433              -0.000611419               0.001254850               0.000643431               0.000000000               0.000000000               0.000000000               0.000000000              -0.000287078               0.003717059              -0.000749143              -0.000572286               0.001429769               0.000857483               0.000000000               0.000000000               0.000000000               0.000000000              -0.000059063               0.004151656              -0.000687628              -0.000541105               0.001564240               0.001023135               0.000000000               0.000000000               0.000000000               0.000000000               0.000142846               0.004486314              -0.000626221              -0.000507221               0.001664497               0.001157276               0.000000000               0.000000000               0.000000000               0.000000000               0.000342549               0.004739389              -0.000566980              -0.000463967               0.001734436               0.001270469               0.000000000               0.000000000               0.000000000               0.000000000               0.000551571               0.004923235              -0.000514721              -0.000408564               0.001777250               0.001368686               0.000000000               0.000000000               0.000000000               0.000000000               0.000777825               0.005051562              -0.000466102              -0.000339760               0.001797091               0.001457330               0.000000000               0.000000000               0.000000000               0.000000000               0.001027490               0.005130475              -0.000410433              -0.000256000               0.001795475               0.001539475               0.000000000               0.000000000               0.000000000               0.000000000               0.001315120               0.005165006              -0.000343205              -0.000152455               0.001772470               0.001620014               0.000000000               0.000000000               0.000000000               0.000000000               0.001655502               0.005153501              -0.000254923              -0.000023374               0.001725608               0.001702233               0.000000000               0.000000000               0.000000000               0.000000000               0.002060639               0.005092104              -0.000139156               0.000136225               0.001651943               0.001788168               0.000000000               0.000000000               0.000000000               0.000000000               0.002384578               0.005085676              -0.000081723               0.000258505               0.001609040               0.001867545               0.000000000               0.000000000               0.000000000               0.000000000               0.000000000               0.000000000               0.000000000               0.000000000               0.000000000               0.000000000               0.000000000               0.000000000               0.000000000               0.000000000               0.000000000               0.000000000               0.000000000               0.000000000               0.000000000               0.000000000               0.000000000               0.000000000               0.000000000               0.000000000               0.000000000               0.000000000               0.000000000               0.000000000               0.000000000               0.000000000               0.000000000               0.000000000               0.000000000               0.000000000               0.000000000               0.000000000               0.000000000               0.000000000               0.000000000               0.000000000               0.000000000               0.000000000               0.000000000               0.000000000               0.000000000               0.000000000               0.000000000               0.000000000               0.000000000               0.000000000               0.000000000               0.000000000               0.000000000               0.000000000               0.000000000               0.000000000               0.000000000               0.000000000               0.000000000               0.000000000               0.000000000               0.000000000               0.000000000               0.000000000               0.000000000               0.000000000               0.000000000               0.000000000               0.000000000               0.000000000               0.000000000               0.000000000               0.000000000               0.000000000               0.000000000               0.000000000               0.000000000               0.000000000               0.000000000               0.000000000               0.000000000               0.000000000               0.000000000               0.000000000               0.000000000               0.000000000               0.000000000               0.000000000               0.000000000               0.000000000               0.000000000               0.000000000               0.000000000               0.000000000               0.000000000               0.000000000               0.000000000               0.000000000               0.000000000               0.000000000               0.000000000               0.000000000               0.000000000               0.000000000               0.000000000               0.000000000               0.000000000               0.000000000               0.000000000               0.000000000               0.000000000               0.000000000               0.000000000               0.000000000               0.000000000               0.000000000               0.000000000               0.000000000               0.000000000               0.000000000               0.000000000               0.000000000               0.000000000               0.000000000               0.000000000               0.000000000               0.000000000               0.000000000               0.000000000               0.000000000               0.000000000               0.000000000               0.000000000               0.000000000               0.000000000               0.000000000               0.000000000               0.000000000               0.000000000               0.000000000               0.000000000               0.000000000               0.000000000               0.000000000               0.000000000               0.000000000               0.000000000               0.000000000               0.000000000               0.000000000               0.000000000               0.000000000               0.000000000               0.000000000               0.000000000               0.000000000               0.000000000               0.000000000               0.000000000               0.000000000               0.000000000               0.000000000               0.000000000               0.000000000               0.000000000               0.000000000               0.000000000               0.000000000               0.000000000               0.000000000               0.000000000               0.000000000               0.000000000               0.000000000               0.000000000               0.000000000               0.000000000               0.000000000               0.000000000               0.000000000               0.000000000               0.000000000               0.000000000               0.000000000               0.000000000               0.000000000               0.000000000               0.000000000               0.000000000               0.000000000               0.000000000               0.000000000               0.000000000               0.000000000               0.000000000               0.000000000               0.000000000               0.000000000               0.000000000               0.000000000               0.000000000               0.000000000               0.000000000               0.000000000               0.000000000               0.000000000               0.000000000               0.000000000               0.000000000               0.000000000               0.000000000               0.000000000               0.000000000               0.000000000               0.000000000               0.000000000               0.000000000               0.000000000               0.000000000               0.000000000               0.000000000               0.000000000               0.000000000               0.000000000               0.000000000               0.000000000               0.000000000               0.000000000               0.000000000               0.000000000               0.000000000               0.000000000               0.000000000               0.000000000               0.000000000               0.000000000               0.000000000               0.000000000               0.000000000               0.000000000               0.000000000               0.000000000               0.000000000               0.000000000               0.000000000               0.000000000               0.000000000               0.000000000               0.000000000               0.000000000               0.000000000               0.000000000               0.000000000               0.000000000               0.000000000               0.000000000               0.000000000               0.000000000               0.000000000               0.000000000               0.000000000               0.000000000               0.000000000               0.000000000               0.000000000               0.000000000               0.000000000               0.000000000               0.000000000               0.000000000               0.000000000               0.000000000               0.000000000               0.000000000               0.000000000               0.000000000               0.000000000               0.000000000               0.000000000               0.000000000               0.000000000               0.000000000               0.000000000               0.000000000               0.000000000               0.000000000               0.000000000               0.000000000               0.000000000               0.000000000               0.000000000               0.000000000               0.000000000               0.000000000               0.000000000               0.000000000               0.000000000               0.000000000               0.000000000               0.000000000               0.000000000               0.000000000               0.000000000               0.000000000               0.000000000               0.000000000               0.000000000               0.000000000               0.000000000               0.000000000               0.000000000               0.000000000               0.000000000               0.000000000               0.000000000               0.000000000               0.000000000               0.000000000               0.000000000               0.000000000               0.000000000               0.000000000               0.000000000               0.000000000               0.000000000               0.000000000               0.000000000               0.000000000               0.000000000               0.000000000               0.000000000               0.000000000               0.000000000               0.000000000               0.000000000               0.000000000               0.000000000               0.000000000               0.000000000               0.000000000               0.000000000               0.000000000               0.000000000               0.000000000               0.001976139               0.020510941               0.001446202              -0.001822811               0.007444516               0.005621704               0.000000000               0.000000000               0.000000000               0.000000000               0.001879360               0.016244310               0.000748333              -0.001325776               0.005856641               0.004530866               0.000000000               0.000000000               0.000000000               0.000000000               0.002384255               0.012837824               0.000055080              -0.000710631               0.004516109               0.003805478               0.000000000               0.000000000               0.000000000               0.000000000               0.002265287               0.010927751              -0.000234103              -0.000516485               0.003814709               0.003298224               0.000000000               0.000000000               0.000000000               0.000000000               0.001971749               0.009734424              -0.000354082              -0.000477396               0.003403907               0.002926511               0.000000000               0.000000000               0.000000000               0.000000000               0.001646361               0.008920477              -0.000399274              -0.000497673               0.003139354               0.002641681               0.000000000               0.000000000               0.000000000               0.000000000               0.001342056               0.008319804              -0.000406615              -0.000536703               0.002952141               0.002415438               0.000000000               0.000000000               0.000000000               0.000000000               0.001072111               0.007843280              -0.000398639              -0.000578367               0.002807189               0.002228823               0.000000000               0.000000000               0.000000000               0.000000000               0.000838322               0.007439646              -0.000383591              -0.000615584               0.002685052               0.002069468               0.000000000               0.000000000               0.000000000               0.000000000               0.000640869               0.007075670              -0.000364093              -0.000644132               0.002573244               0.001929112               0.000000000               0.000000000               0.000000000               0.000000000               0.000477401               0.006733547              -0.000341832              -0.000662667               0.002465382               0.001802716               0.000000000               0.000000000               0.000000000               0.000000000               0.000344513               0.006397122              -0.000315956              -0.000670446               0.002355835               0.001685388               0.000000000               0.000000000               0.000000000               0.000000000               0.000236980               0.006054313              -0.000289302              -0.000667920               0.002240724               0.001572804               0.000000000               0.000000000               0.000000000               0.000000000               0.000145782               0.005696600              -0.000256652              -0.000657405               0.002117983               0.001460578               0.000000000               0.000000000               0.000000000               0.000000000               0.000069616               0.005311784              -0.000202241              -0.000637865               0.001983199               0.001345333               0.000000000               0.000000000               0.000000000               0.000000000               0.000023526               0.004887521              -0.000115928              -0.000602116               0.001829863               0.001227747               0.000000000               0.000000000               0.000000000               0.000000000              -0.000022044               0.004572328              -0.000070604              -0.000579806               0.001717363               0.001137557               0.000000000               0.000000000               0.000000000               0.000000000               0.002161803               0.019305747               0.002694154              -0.001602540               0.006969364               0.005366825               0.000000000               0.000000000               0.000000000               0.000000000               0.001784738               0.015464821               0.001397413              -0.001263823               0.005576163               0.004312340               0.000000000               0.000000000               0.000000000               0.000000000               0.001989289               0.012498191               0.000118304              -0.000816289               0.004438118               0.003621830               0.000000000               0.000000000               0.000000000               0.000000000               0.001761018               0.010814310              -0.000400993              -0.000691405               0.003835202               0.003143797               0.000000000               0.000000000               0.000000000               0.000000000               0.001450292               0.009737560              -0.000608091              -0.000673334               0.003470266               0.002796932               0.000000000               0.000000000               0.000000000               0.000000000               0.001152107               0.008978477              -0.000680654              -0.000690268               0.003222885               0.002532617               0.000000000               0.000000000               0.000000000               0.000000000               0.000895586               0.008401336              -0.000692382              -0.000714320               0.003038524               0.002324204               0.000000000               0.000000000               0.000000000               0.000000000               0.000679343               0.007934025              -0.000678142              -0.000736998               0.002890314               0.002153317               0.000000000               0.000000000               0.000000000               0.000000000               0.000497889               0.007530953              -0.000647777              -0.000754659               0.002761845               0.002007186               0.000000000               0.000000000               0.000000000               0.000000000               0.000352764               0.007165153              -0.000609901              -0.000763356               0.002642812               0.001879457               0.000000000               0.000000000               0.000000000               0.000000000               0.000239703               0.006820935              -0.000569604              -0.000762726               0.002527864               0.001765138               0.000000000               0.000000000               0.000000000               0.000000000               0.000154171               0.006492953              -0.000522627              -0.000753803               0.002415564               0.001661760               0.000000000               0.000000000               0.000000000               0.000000000               0.000090587               0.006176288              -0.000470501              -0.000738064               0.002304763               0.001566699               0.000000000               0.000000000               0.000000000               0.000000000               0.000046738               0.005863752              -0.000406048              -0.000715441               0.002193045               0.001477604               0.000000000               0.000000000               0.000000000               0.000000000               0.000018598               0.005550624              -0.000310281              -0.000686852               0.002079140               0.001392288               0.000000000               0.000000000               0.000000000               0.000000000               0.000004580               0.005243950              -0.000173020              -0.000653775               0.001965891               0.001312116               0.000000000               0.000000000               0.000000000               0.000000000              -0.000016922               0.005042559              -0.000100604              -0.000636664               0.001893058               0.001256394               0.000000000               0.000000000               0.000000000               0.000000000               0.002362236               0.017474478               0.003595507              -0.001298470               0.006257591               0.004959121               0.000000000               0.000000000               0.000000000               0.000000000               0.001592949               0.014296888               0.001876099              -0.001189753               0.005162166               0.003972413               0.000000000               0.000000000               0.000000000               0.000000000               0.001381870               0.011993010               0.000199938              -0.000980922               0.004324604               0.003343682               0.000000000               0.000000000               0.000000000               0.000000000               0.001029197               0.010625608              -0.000449406              -0.000942250               0.003855917               0.002913667               0.000000000               0.000000000               0.000000000               0.000000000               0.000717231               0.009704683              -0.000695997              -0.000944121               0.003549569               0.002605448               0.000000000               0.000000000               0.000000000               0.000000000               0.000472972               0.009018806              -0.000777077              -0.000949984               0.003322900               0.002372916               0.000000000               0.000000000               0.000000000               0.000000000               0.000294032               0.008472243              -0.000786185              -0.000948766               0.003140308               0.002191542               0.000000000               0.000000000               0.000000000               0.000000000               0.000159336               0.008013984              -0.000763681              -0.000941995               0.002985299               0.002043305               0.000000000               0.000000000               0.000000000               0.000000000               0.000056047               0.007610519              -0.000723583              -0.000930295               0.002846912               0.001916617               0.000000000               0.000000000               0.000000000               0.000000000              -0.000009298               0.007246166              -0.000672981              -0.000909255               0.002718449               0.001809194               0.000000000               0.000000000               0.000000000               0.000000000              -0.000046336               0.006910863              -0.000619626              -0.000881232               0.002597342               0.001716110               0.000000000               0.000000000               0.000000000               0.000000000              -0.000063596               0.006604073              -0.000562553              -0.000849356               0.002484454               0.001635098               0.000000000               0.000000000               0.000000000               0.000000000              -0.000063851               0.006326505              -0.000498559              -0.000814755               0.002380399               0.001565644               0.000000000               0.000000000               0.000000000               0.000000000              -0.000054183               0.006074585              -0.000416486              -0.000779640               0.002284721               0.001505081               0.000000000               0.000000000               0.000000000               0.000000000              -0.000039849               0.005851889              -0.000304519              -0.000746428               0.002199419               0.001452992               0.000000000               0.000000000               0.000000000               0.000000000              -0.000021625               0.005674650              -0.000162882              -0.000717439               0.002130678               0.001413238               0.000000000               0.000000000               0.000000000               0.000000000              -0.000016621               0.005584823              -0.000088392              -0.000704334               0.002096367               0.001392033               0.000000000               0.000000000               0.000000000               0.000000000               0.002456794               0.015234639               0.004073911              -0.000983033               0.005405839               0.004422806               0.000000000               0.000000000               0.000000000               0.000000000               0.001278007               0.012889393               0.002160478              -0.001131920               0.004673727               0.003541808               0.000000000               0.000000000               0.000000000               0.000000000               0.000633113               0.011373539               0.000319145              -0.001184272               0.004185899               0.003001627               0.000000000               0.000000000               0.000000000               0.000000000               0.000195916               0.010354579              -0.000356634              -0.001220851               0.003858442               0.002637591               0.000000000               0.000000000               0.000000000               0.000000000              -0.000072534               0.009595772              -0.000600119              -0.001226669               0.003607448               0.002380779               0.000000000               0.000000000               0.000000000               0.000000000              -0.000230414               0.008987472              -0.000672579              -0.001209836               0.003399073               0.002189236               0.000000000               0.000000000               0.000000000               0.000000000              -0.000315168               0.008475366              -0.000677578              -0.001177606               0.003217629               0.002040023               0.000000000               0.000000000               0.000000000               0.000000000              -0.000348781               0.008032244              -0.000655778              -0.001134821               0.003055662               0.001920841               0.000000000               0.000000000               0.000000000               0.000000000              -0.000350123               0.007636549              -0.000616177              -0.001085862               0.002907445               0.001821583               0.000000000               0.000000000               0.000000000               0.000000000              -0.000327141               0.007283001              -0.000564982              -0.001033051               0.002771993               0.001738942               0.000000000               0.000000000               0.000000000               0.000000000              -0.000288199               0.006970005              -0.000510029              -0.000979323               0.002649753               0.001670430               0.000000000               0.000000000               0.000000000               0.000000000              -0.000236065               0.006692318              -0.000451390              -0.000925062               0.002539104               0.001614043               0.000000000               0.000000000               0.000000000               0.000000000              -0.000175663               0.006447340              -0.000388382              -0.000871789               0.002439688               0.001567899               0.000000000               0.000000000               0.000000000               0.000000000              -0.000120213               0.006240717              -0.000312592              -0.000825167               0.002355274               0.001530107               0.000000000               0.000000000               0.000000000               0.000000000              -0.000072125               0.006082797              -0.000216933              -0.000787394               0.002290043               0.001502649               0.000000000               0.000000000               0.000000000               0.000000000              -0.000031699               0.005981171              -0.000109472              -0.000759532               0.002246881               0.001487349               0.000000000               0.000000000               0.000000000               0.000000000              -0.000016387               0.005940263              -0.000056846              -0.000748676               0.002229626               0.001480951               0.000000000               0.000000000               0.000000000               0.000000000               0.002340425               0.012808766               0.004137204              -0.000723438               0.004510691               0.003787253               0.000000000               0.000000000               0.000000000               0.000000000               0.000836821               0.011387716               0.002276847              -0.001109655               0.004165752               0.003056097               0.000000000               0.000000000               0.000000000               0.000000000              -0.000162332               0.010686214               0.000499629              -0.001396648               0.004027585               0.002630937               0.000000000               0.000000000               0.000000000               0.000000000              -0.000605223               0.009994402              -0.000123328              -0.001476255               0.003823519               0.002347264               0.000000000               0.000000000               0.000000000               0.000000000              -0.000780796               0.009385120              -0.000342062              -0.001465935               0.003616987               0.002151052               0.000000000               0.000000000               0.000000000               0.000000000              -0.000821778               0.008854394              -0.000408699              -0.001414963               0.003423089               0.002008127               0.000000000               0.000000000               0.000000000               0.000000000              -0.000790742               0.008384213              -0.000420741              -0.001344552               0.003242894               0.001898342               0.000000000               0.000000000               0.000000000               0.000000000              -0.000720814               0.007966092              -0.000410532              -0.001266064               0.003077359               0.001811295               0.000000000               0.000000000               0.000000000               0.000000000              -0.000632396               0.007592189              -0.000382860              -0.001186169               0.002926094               0.001739925               0.000000000               0.000000000               0.000000000               0.000000000              -0.000533190               0.007258519              -0.000345989              -0.001107258               0.002788568               0.001681310               0.000000000               0.000000000               0.000000000               0.000000000              -0.000431170               0.006958785              -0.000305312              -0.001031534               0.002663417               0.001631882               0.000000000               0.000000000               0.000000000               0.000000000              -0.000331278               0.006689572              -0.000261103              -0.000960423               0.002549976               0.001589553               0.000000000               0.000000000               0.000000000               0.000000000              -0.000235329               0.006457632              -0.000217376              -0.000895450               0.002451006               0.001555556               0.000000000               0.000000000               0.000000000               0.000000000              -0.000156185               0.006268120              -0.000171262              -0.000842082               0.002370047               0.001527964               0.000000000               0.000000000               0.000000000               0.000000000              -0.000093746               0.006124863              -0.000116152              -0.000800761               0.002308521               0.001507760               0.000000000               0.000000000               0.000000000               0.000000000              -0.000041461               0.006024620              -0.000056153              -0.000768624               0.002264395               0.001495771               0.000000000               0.000000000               0.000000000               0.000000000              -0.000028576               0.005967283              -0.000032616              -0.000756625               0.002241283               0.001484658               0.000000000               0.000000000               0.000000000               0.000000000               0.001958056               0.010395146               0.003854714              -0.000565125               0.003653388               0.003088263               0.000000000               0.000000000               0.000000000               0.000000000               0.000297862               0.009909481               0.002272542              -0.001126986               0.003678788               0.002551803               0.000000000               0.000000000               0.000000000               0.000000000              -0.000910764               0.009965378               0.000749849              -0.001587205               0.003850828               0.002263623               0.000000000               0.000000000               0.000000000               0.000000000              -0.001268833               0.009555672               0.000218931              -0.001670267               0.003741948               0.002071681               0.000000000               0.000000000               0.000000000               0.000000000              -0.001307774               0.009076767               0.000015442              -0.001625007               0.003567228               0.001942221               0.000000000               0.000000000               0.000000000               0.000000000              -0.001218208               0.008617346              -0.000063602              -0.001533993               0.003383751               0.001849758               0.000000000               0.000000000               0.000000000               0.000000000              -0.001078218               0.008195325              -0.000095668              -0.001428744               0.003207996               0.001779252               0.000000000               0.000000000               0.000000000               0.000000000              -0.000918874               0.007815613              -0.000108752              -0.001321526               0.003045687               0.001724161               0.000000000               0.000000000               0.000000000               0.000000000              -0.000754926               0.007463435              -0.000106254              -0.001216024               0.002893128               0.001677104               0.000000000               0.000000000               0.000000000               0.000000000              -0.000603557               0.007129827              -0.000093794              -0.001117559               0.002749105               0.001631546               0.000000000               0.000000000               0.000000000               0.000000000              -0.000469966               0.006817695              -0.000079007              -0.001028447               0.002615358               0.001586911               0.000000000               0.000000000               0.000000000               0.000000000              -0.000351186               0.006539522              -0.000065682              -0.000949133               0.002496196               0.001547064               0.000000000               0.000000000               0.000000000               0.000000000              -0.000250918               0.006305801              -0.000059121              -0.000882317               0.002396019               0.001513701               0.000000000               0.000000000               0.000000000               0.000000000              -0.000172324               0.006116086              -0.000055867              -0.000829130               0.002315052               0.001485921               0.000000000               0.000000000               0.000000000               0.000000000              -0.000107635               0.005963625              -0.000047092              -0.000785814               0.002249793               0.001463979               0.000000000               0.000000000               0.000000000               0.000000000              -0.000051044               0.005835977              -0.000028700              -0.000748637               0.002194852               0.001446215               0.000000000               0.000000000               0.000000000               0.000000000              -0.000043716               0.005750121              -0.000027299              -0.000735157               0.002161740               0.001426583               0.000000000               0.000000000               0.000000000               0.000000000               0.001336121               0.008148976               0.003314677              -0.000517579               0.002888823               0.002371245               0.000000000               0.000000000               0.000000000               0.000000000              -0.000302147               0.008543343               0.002189796              -0.001181222               0.003241493               0.002060271               0.000000000               0.000000000               0.000000000               0.000000000              -0.001535543               0.009232056               0.001058861              -0.001729831               0.003653932               0.001924100               0.000000000               0.000000000               0.000000000               0.000000000              -0.001734433               0.009054385               0.000615081              -0.001782206               0.003612167               0.001829961               0.000000000               0.000000000               0.000000000               0.000000000              -0.001620635               0.008690570               0.000401584              -0.001694055               0.003461513               0.001767458               0.000000000               0.000000000               0.000000000               0.000000000              -0.001409558               0.008305490               0.000289813              -0.001566766               0.003290725               0.001723958               0.000000000               0.000000000               0.000000000               0.000000000              -0.001174333               0.007941802               0.000224398              -0.001433097               0.003124940               0.001691843               0.000000000               0.000000000               0.000000000               0.000000000              -0.000948824               0.007585742               0.000180474              -0.001304024               0.002963230               0.001659206               0.000000000               0.000000000               0.000000000               0.000000000              -0.000749993               0.007225950               0.000154986              -0.001184488               0.002803455               0.001618967               0.000000000               0.000000000               0.000000000               0.000000000              -0.000577252               0.006875245               0.000136609              -0.001075872               0.002650349               0.001574477               0.000000000               0.000000000               0.000000000               0.000000000              -0.000432609               0.006550142               0.000112219              -0.000980994               0.002510357               0.001529363               0.000000000               0.000000000               0.000000000               0.000000000              -0.000318163               0.006268542               0.000079732              -0.000902877               0.002390452               0.001487575               0.000000000               0.000000000               0.000000000               0.000000000              -0.000229249               0.006035374               0.000038854              -0.000840388               0.002291900               0.001451512               0.000000000               0.000000000               0.000000000               0.000000000              -0.000160629               0.005840904              -0.000001288              -0.000790347               0.002210398               0.001420051               0.000000000               0.000000000               0.000000000               0.000000000              -0.000102568               0.005675559              -0.000025241              -0.000747906               0.002141136               0.001393230               0.000000000               0.000000000               0.000000000               0.000000000              -0.000051167               0.005534886              -0.000025683              -0.000711046               0.002081959               0.001370913               0.000000000               0.000000000               0.000000000               0.000000000              -0.000041431               0.005448786              -0.000028183              -0.000696633               0.002048455               0.001351822               0.000000000               0.000000000               0.000000000               0.000000000               0.000577625               0.006243493               0.002625068              -0.000563828               0.002269085               0.001705257               0.000000000               0.000000000               0.000000000               0.000000000              -0.000873423               0.007325498               0.002076143              -0.001243219               0.002856214               0.001612995               0.000000000               0.000000000               0.000000000               0.000000000              -0.001996365               0.008523416               0.001417752              -0.001814060               0.003445797               0.001631737               0.000000000               0.000000000               0.000000000               0.000000000              -0.002029364               0.008581543               0.001030731              -0.001833700               0.003471719               0.001638019               0.000000000               0.000000000               0.000000000               0.000000000              -0.001792835               0.008352291               0.000787737              -0.001716345               0.003356184               0.001639839               0.000000000               0.000000000               0.000000000               0.000000000              -0.001488061               0.008056699               0.000628949              -0.001565107               0.003207242               0.001642135               0.000000000               0.000000000               0.000000000               0.000000000              -0.001188053               0.007737686               0.000524102              -0.001412727               0.003050112               0.001637385               0.000000000               0.000000000               0.000000000               0.000000000              -0.000921502               0.007391249               0.000449626              -0.001269466               0.002886881               0.001617414               0.000000000               0.000000000               0.000000000               0.000000000              -0.000693385               0.007029378               0.000392567              -0.001138689               0.002722666               0.001583977               0.000000000               0.000000000               0.000000000               0.000000000              -0.000501520               0.006672611               0.000338010              -0.001022144               0.002564896               0.001542752               0.000000000               0.000000000               0.000000000               0.000000000              -0.000349988               0.006348297               0.000271845              -0.000924780               0.002424338               0.001499558               0.000000000               0.000000000               0.000000000               0.000000000              -0.000246107               0.006069320               0.000194424              -0.000850953               0.002306738               0.001455784               0.000000000               0.000000000               0.000000000               0.000000000              -0.000184459               0.005831406               0.000116082              -0.000798096               0.002209815               0.001411719               0.000000000               0.000000000               0.000000000               0.000000000              -0.000147861               0.005621075               0.000047401              -0.000758081               0.002126367               0.001368286               0.000000000               0.000000000               0.000000000               0.000000000              -0.000119718               0.005434049              -0.000000842              -0.000724148               0.002052714               0.001328566               0.000000000               0.000000000               0.000000000               0.000000000              -0.000101385               0.005272116              -0.000021448              -0.000697032               0.001989698               0.001292666               0.000000000               0.000000000               0.000000000               0.000000000              -0.000091678               0.005192154              -0.000024806              -0.000683397               0.001958499               0.001275103               0.000000000               0.000000000               0.000000000               0.000000000              -0.000335892               0.004473554               0.001888498              -0.000685153               0.001719554               0.001034400               0.000000000               0.000000000               0.000000000               0.000000000              -0.001336263               0.005932566               0.001943428              -0.001242667               0.002391724               0.001149057               0.000000000               0.000000000               0.000000000               0.000000000              -0.002233930               0.007493094               0.001798577              -0.001774357               0.003089125               0.001314768               0.000000000               0.000000000               0.000000000               0.000000000              -0.002186991               0.007876512               0.001481638              -0.001804682               0.003227038               0.001422356               0.000000000               0.000000000               0.000000000               0.000000000              -0.001903315               0.007875871               0.001211304              -0.001698223               0.003191338               0.001493115               0.000000000               0.000000000               0.000000000               0.000000000              -0.001569097               0.007739528               0.001004855              -0.001555849               0.003098433               0.001542584               0.000000000               0.000000000               0.000000000               0.000000000              -0.001247665               0.007521818               0.000852351              -0.001408098               0.002976614               0.001568515               0.000000000               0.000000000               0.000000000               0.000000000              -0.000962797               0.007250140               0.000734509              -0.001267313               0.002839127               0.001571813               0.000000000               0.000000000               0.000000000               0.000000000              -0.000723096               0.006939291               0.000640320              -0.001138570               0.002692597               0.001554027               0.000000000               0.000000000               0.000000000               0.000000000              -0.000526676               0.006610114               0.000550568              -0.001023765               0.002544604               0.001520839               0.000000000               0.000000000               0.000000000               0.000000000              -0.000370759               0.006293337               0.000450647              -0.000925700               0.002406324               0.001480625               0.000000000               0.000000000               0.000000000               0.000000000              -0.000262277               0.006004323               0.000342905              -0.000848892               0.002284385               0.001435493               0.000000000               0.000000000               0.000000000               0.000000000              -0.000200580               0.005750351               0.000236296              -0.000794009               0.002181434               0.001387425               0.000000000               0.000000000               0.000000000               0.000000000              -0.000178957               0.005529795               0.000141149              -0.000758331               0.002096024               0.001337692               0.000000000               0.000000000               0.000000000               0.000000000              -0.000179605               0.005339254               0.000061223              -0.000734757               0.002024653               0.001289896               0.000000000               0.000000000               0.000000000               0.000000000              -0.000195342               0.005164443               0.000007439              -0.000718807               0.001961066               0.001242259               0.000000000               0.000000000               0.000000000               0.000000000              -0.000203752               0.005078724              -0.000009284              -0.000711246               0.001929973               0.001218727               0.000000000               0.000000000               0.000000000               0.000000000              -0.001537429               0.002872986               0.001146912              -0.000935657               0.001269538               0.000333880               0.000000000               0.000000000               0.000000000               0.000000000              -0.001868138               0.004542988               0.001742857              -0.001268423               0.001937121               0.000668698               0.000000000               0.000000000               0.000000000               0.000000000              -0.002386362               0.006303966               0.002092731              -0.001682878               0.002662260               0.000979382               0.000000000               0.000000000               0.000000000               0.000000000              -0.002267580               0.006993317               0.001905033              -0.001724504               0.002905917               0.001181413               0.000000000               0.000000000               0.000000000               0.000000000              -0.001965226               0.007248374               0.001642300              -0.001643003               0.002963768               0.001320765               0.000000000               0.000000000               0.000000000               0.000000000              -0.001625670               0.007300969               0.001405648              -0.001522244               0.002941046               0.001418802               0.000000000               0.000000000               0.000000000               0.000000000              -0.001306289               0.007220657               0.001213322              -0.001392437               0.002871007               0.001478570               0.000000000               0.000000000               0.000000000               0.000000000              -0.001016222               0.007059070               0.001057213              -0.001263464               0.002774154               0.001510690               0.000000000               0.000000000               0.000000000               0.000000000              -0.000762062               0.006840379               0.000924530              -0.001140818               0.002660376               0.001519558               0.000000000               0.000000000               0.000000000               0.000000000              -0.000550814               0.006583321               0.000802895              -0.001029468               0.002537574               0.001508106               0.000000000               0.000000000               0.000000000               0.000000000              -0.000375830               0.006305597               0.000681310              -0.000929134               0.002411556               0.001482422               0.000000000               0.000000000               0.000000000               0.000000000              -0.000242184               0.006024196               0.000556209              -0.000843841               0.002289326               0.001445484               0.000000000               0.000000000               0.000000000               0.000000000              -0.000156459               0.005763071               0.000427629              -0.000779054               0.002180689               0.001401635               0.000000000               0.000000000               0.000000000               0.000000000              -0.000123869               0.005534439               0.000300746              -0.000738254               0.002090879               0.001352625               0.000000000               0.000000000               0.000000000               0.000000000              -0.000145797               0.005333629               0.000180417              -0.000721376               0.002018317               0.001296941               0.000000000               0.000000000               0.000000000               0.000000000              -0.000210130               0.005156657               0.000075208              -0.000723379               0.001959995               0.001236616               0.000000000               0.000000000               0.000000000               0.000000000              -0.000266998               0.005064041               0.000022222              -0.000733127               0.001932373               0.001199245               0.000000000               0.000000000               0.000000000               0.000000000              -0.002948387               0.001554758               0.000455500              -0.001299988               0.000951575              -0.000348412               0.000000000               0.000000000               0.000000000               0.000000000              -0.002516157               0.003237205               0.001453610              -0.001348207               0.001528459               0.000180252               0.000000000               0.000000000               0.000000000               0.000000000              -0.002495309               0.004975783               0.002203206              -0.001557711               0.002177814               0.000620103               0.000000000               0.000000000               0.000000000               0.000000000              -0.002234541               0.005881786               0.002178746              -0.001573173               0.002484966               0.000911793               0.000000000               0.000000000               0.000000000               0.000000000              -0.001903652               0.006371856               0.001968947              -0.001510349               0.002627380               0.001117031               0.000000000               0.000000000               0.000000000               0.000000000              -0.001566309               0.006622263               0.001737075              -0.001415146               0.002679114               0.001263968               0.000000000               0.000000000               0.000000000               0.000000000              -0.001257694               0.006706512               0.001527198              -0.001309946               0.002672130               0.001362184               0.000000000               0.000000000               0.000000000               0.000000000              -0.000979074               0.006679485               0.001349479              -0.001202086               0.002627168               0.001425082               0.000000000               0.000000000               0.000000000               0.000000000              -0.000729702               0.006573329               0.001192155              -0.001095302               0.002556188               0.001460886               0.000000000               0.000000000               0.000000000               0.000000000              -0.000509115               0.006418322               0.001046320              -0.000993206               0.002470488               0.001477282               0.000000000               0.000000000               0.000000000               0.000000000              -0.000318385               0.006219679               0.000906749              -0.000896852               0.002372156               0.001475304               0.000000000               0.000000000               0.000000000               0.000000000              -0.000158716               0.005991717               0.000768092              -0.000808481               0.002266713               0.001458231               0.000000000               0.000000000               0.000000000               0.000000000              -0.000036507               0.005759731               0.000626231              -0.000733655               0.002164443               0.001430788               0.000000000               0.000000000               0.000000000               0.000000000               0.000036501               0.005540094               0.000476647              -0.000678822               0.002072954               0.001394131               0.000000000               0.000000000               0.000000000               0.000000000               0.000040969               0.005335808               0.000317847              -0.000651611               0.001995789               0.001344177               0.000000000               0.000000000               0.000000000               0.000000000              -0.000029710               0.005156574               0.000155924              -0.000655711               0.001937411               0.001281700               0.000000000               0.000000000               0.000000000               0.000000000              -0.000111579               0.005058460               0.000065811              -0.000674148               0.001910852               0.001236704               0.000000000               0.000000000               0.000000000               0.000000000              -0.004468432               0.000579161              -0.000092057              -0.001748055               0.000775734              -0.000972322               0.000000000               0.000000000               0.000000000               0.000000000              -0.003237446               0.002083770               0.001112978              -0.001474511               0.001186085              -0.000288426               0.000000000               0.000000000               0.000000000               0.000000000              -0.002580763               0.003618046               0.002106394              -0.001420039               0.001679349               0.000259309               0.000000000               0.000000000               0.000000000               0.000000000              -0.002109418               0.004631481               0.002233311              -0.001369965               0.002000465               0.000630501               0.000000000               0.000000000               0.000000000               0.000000000              -0.001721493               0.005309898               0.002100724              -0.001309295               0.002206379               0.000897084               0.000000000               0.000000000               0.000000000               0.000000000              -0.001384855               0.005740907               0.001903570              -0.001236932               0.002325927               0.001088995               0.000000000               0.000000000               0.000000000               0.000000000              -0.001090404               0.005987849               0.001706606              -0.001157381               0.002381723               0.001224342               0.000000000               0.000000000               0.000000000               0.000000000              -0.000828466               0.006110209               0.001527817              -0.001074449               0.002394865               0.001320416               0.000000000               0.000000000               0.000000000               0.000000000              -0.000592360               0.006134939               0.001364788              -0.000989001               0.002374626               0.001385625               0.000000000               0.000000000               0.000000000               0.000000000              -0.000375197               0.006092281               0.001213337              -0.000902232               0.002331484               0.001429252               0.000000000               0.000000000               0.000000000               0.000000000              -0.000176203               0.005998413               0.001068758              -0.000815876               0.002271409               0.001455533               0.000000000               0.000000000               0.000000000               0.000000000               0.000006464               0.005861419               0.000927899              -0.000730252               0.002197204               0.001466952               0.000000000               0.000000000               0.000000000               0.000000000               0.000171367               0.005694182               0.000784403              -0.000647509               0.002113878               0.001466369               0.000000000               0.000000000               0.000000000               0.000000000               0.000304933               0.005513765               0.000623610              -0.000574870               0.002029526               0.001454657               0.000000000               0.000000000               0.000000000               0.000000000               0.000383116               0.005331367               0.000437840              -0.000522751               0.001951355               0.001428604               0.000000000               0.000000000               0.000000000               0.000000000               0.000388280               0.005161422               0.000228078              -0.000499572               0.001886981               0.001387409               0.000000000               0.000000000               0.000000000               0.000000000               0.000352427               0.005071410               0.000111903              -0.000501765               0.001857708               0.001355943               0.000000000               0.000000000               0.000000000               0.000000000              -0.005941287              -0.000064141              -0.000413269              -0.002219963               0.000718602              -0.001501361               0.000000000               0.000000000               0.000000000               0.000000000              -0.003968014               0.001144447               0.000768854              -0.001631059               0.000925162              -0.000705897               0.000000000               0.000000000               0.000000000               0.000000000              -0.002662551               0.002360667               0.001799225              -0.001293538               0.001218059              -0.000075479               0.000000000               0.000000000               0.000000000               0.000000000              -0.001939055               0.003382541               0.002021725              -0.001149961               0.001510822               0.000360860               0.000000000               0.000000000               0.000000000               0.000000000              -0.001462534               0.004178477               0.001965733              -0.001070758               0.001749730               0.000678972               0.000000000               0.000000000               0.000000000               0.000000000              -0.001109365               0.004754202               0.001820828              -0.001010286               0.001921480               0.000911194               0.000000000               0.000000000               0.000000000               0.000000000              -0.000824240               0.005145927               0.001658772              -0.000952329               0.002032734               0.001080405               0.000000000               0.000000000               0.000000000               0.000000000              -0.000579350               0.005401370               0.001503047              -0.000892426               0.002097914               0.001205488               0.000000000               0.000000000               0.000000000               0.000000000              -0.000356377               0.005556222               0.001355694              -0.000828168               0.002128111               0.001299943               0.000000000               0.000000000               0.000000000               0.000000000              -0.000145437               0.005632439               0.001216892              -0.000758592               0.002130325               0.001371732               0.000000000               0.000000000               0.000000000               0.000000000               0.000058636               0.005647043               0.001085219              -0.000683891               0.002110292               0.001426402               0.000000000               0.000000000               0.000000000               0.000000000               0.000262436               0.005613576               0.000960032              -0.000603282               0.002072267               0.001468985               0.000000000               0.000000000               0.000000000               0.000000000               0.000465536               0.005535358               0.000831349              -0.000517343               0.002017548               0.001500206               0.000000000               0.000000000               0.000000000               0.000000000               0.000661620               0.005426848               0.000676909              -0.000430248               0.001952347               0.001522099               0.000000000               0.000000000               0.000000000               0.000000000               0.000837851               0.005296308               0.000488856              -0.000347844               0.001881366               0.001533523               0.000000000               0.000000000               0.000000000               0.000000000               0.000978644               0.005152908               0.000263239              -0.000277121               0.001809993               0.001532871               0.000000000               0.000000000               0.000000000               0.000000000               0.001057803               0.005087158               0.000142767              -0.000239218               0.001775442               0.001536224               0.000000000               0.000000000               0.000000000               0.000000000              -0.007183016              -0.000433181              -0.000472494              -0.002639482               0.000735428              -0.001904053               0.000000000               0.000000000               0.000000000               0.000000000              -0.004611512               0.000460576               0.000462507              -0.001786887               0.000749149              -0.001037738               0.000000000               0.000000000               0.000000000               0.000000000              -0.002744516               0.001342685               0.001307676              -0.001197027               0.000846564              -0.000350463               0.000000000               0.000000000               0.000000000               0.000000000              -0.001776880               0.002306041               0.001537397              -0.000954583               0.001086866               0.000132283               0.000000000               0.000000000               0.000000000               0.000000000              -0.001198397               0.003152888               0.001534653              -0.000843509               0.001332121               0.000488612               0.000000000               0.000000000               0.000000000               0.000000000              -0.000811254               0.003824332               0.001447185              -0.000782261               0.001535518               0.000753257               0.000000000               0.000000000               0.000000000               0.000000000              -0.000524805               0.004326404               0.001334085              -0.000737601               0.001687987               0.000950386               0.000000000               0.000000000               0.000000000               0.000000000              -0.000289967               0.004689719               0.001220014              -0.000694951               0.001794874               0.001099923               0.000000000               0.000000000               0.000000000               0.000000000              -0.000079653               0.004951310               0.001107854              -0.000648783               0.001866681               0.001217898               0.000000000               0.000000000               0.000000000               0.000000000               0.000123814               0.005132707               0.000999879              -0.000595157               0.001909271               0.001314114               0.000000000               0.000000000               0.000000000               0.000000000               0.000330799               0.005244925               0.000900489              -0.000531565               0.001925479               0.001393914               0.000000000               0.000000000               0.000000000               0.000000000               0.000552191               0.005305200               0.000808016              -0.000456078               0.001920408               0.001464331               0.000000000               0.000000000               0.000000000               0.000000000               0.000784982               0.005317612               0.000708696              -0.000370333               0.001895964               0.001525631               0.000000000               0.000000000               0.000000000               0.000000000               0.001034218               0.005290775               0.000585657              -0.000273515               0.001854746               0.001581231               0.000000000               0.000000000               0.000000000               0.000000000               0.001306538               0.005227836               0.000430452              -0.000163528               0.001797104               0.001633576               0.000000000               0.000000000               0.000000000               0.000000000               0.001594303               0.005126052               0.000235727              -0.000042893               0.001722964               0.001680071               0.000000000               0.000000000               0.000000000               0.000000000               0.001807400               0.005090548               0.000136001               0.000041456               0.001683014               0.001724470               0.000000000               0.000000000               0.000000000               0.000000000              -0.008015414              -0.000609083              -0.000302901              -0.002929643               0.000773515              -0.002156128               0.000000000               0.000000000               0.000000000               0.000000000              -0.005056911               0.000047033               0.000211686              -0.001902219               0.000649746              -0.001252473               0.000000000               0.000000000               0.000000000               0.000000000              -0.002805519               0.000680016               0.000686182              -0.001137070               0.000605691              -0.000531379               0.000000000               0.000000000               0.000000000               0.000000000              -0.001659308               0.001577443               0.000829752              -0.000819419               0.000798948              -0.000020471               0.000000000               0.000000000               0.000000000               0.000000000              -0.000997889               0.002436684               0.000843669              -0.000678792               0.001038484               0.000359691               0.000000000               0.000000000               0.000000000               0.000000000              -0.000579400               0.003153163               0.000806433              -0.000611419               0.001254850               0.000643431               0.000000000               0.000000000               0.000000000               0.000000000              -0.000287078               0.003717059               0.000749143              -0.000572286               0.001429769               0.000857483               0.000000000               0.000000000               0.000000000               0.000000000              -0.000059063               0.004151656               0.000687628              -0.000541105               0.001564240               0.001023135               0.000000000               0.000000000               0.000000000               0.000000000               0.000142846               0.004486314               0.000626221              -0.000507221               0.001664497               0.001157276               0.000000000               0.000000000               0.000000000               0.000000000               0.000342549               0.004739389               0.000566980              -0.000463967               0.001734436               0.001270469               0.000000000               0.000000000               0.000000000               0.000000000               0.000551571               0.004923235               0.000514721              -0.000408564               0.001777250               0.001368686               0.000000000               0.000000000               0.000000000               0.000000000               0.000777825               0.005051562               0.000466102              -0.000339760               0.001797091               0.001457330               0.000000000               0.000000000               0.000000000               0.000000000               0.001027490               0.005130475               0.000410433              -0.000256000               0.001795475               0.001539475               0.000000000               0.000000000               0.000000000               0.000000000               0.001315120               0.005165006               0.000343205              -0.000152455               0.001772470               0.001620014               0.000000000               0.000000000               0.000000000               0.000000000               0.001655502               0.005153501               0.000254923              -0.000023374               0.001725608               0.001702233               0.000000000               0.000000000               0.000000000               0.000000000               0.002060639               0.005092104               0.000139156               0.000136225               0.001651943               0.001788168               0.000000000               0.000000000               0.000000000               0.000000000               0.002384578               0.005085676               0.000081723               0.000258505               0.001609040               0.001867545               0.000000000               0.000000000               0.000000000               0.000000000               0.000000000               0.000000000               0.000000000               0.000000000               0.000000000               0.000000000               0.000000000               0.000000000               0.000000000               0.000000000               0.000000000               0.000000000               0.000000000               0.000000000               0.000000000               0.000000000               0.000000000               0.000000000               0.000000000               0.000000000               0.000000000               0.000000000               0.000000000               0.000000000               0.000000000               0.000000000               0.000000000               0.000000000               0.000000000               0.000000000               0.000000000               0.000000000               0.000000000               0.000000000               0.000000000               0.000000000               0.000000000               0.000000000               0.000000000               0.000000000               0.000000000               0.000000000               0.000000000               0.000000000               0.000000000               0.000000000               0.000000000               0.000000000               0.000000000               0.000000000               0.000000000               0.000000000               0.000000000               0.000000000               0.000000000               0.000000000               0.000000000               0.000000000               0.000000000               0.000000000               0.000000000               0.000000000               0.000000000               0.000000000               0.000000000               0.000000000               0.000000000               0.000000000               0.000000000               0.000000000               0.000000000               0.000000000               0.000000000               0.000000000               0.000000000               0.000000000               0.000000000               0.000000000               0.000000000               0.000000000               0.000000000               0.000000000               0.000000000               0.000000000               0.000000000               0.000000000               0.000000000               0.000000000               0.000000000               0.000000000               0.000000000               0.000000000               0.000000000               0.000000000               0.000000000               0.000000000               0.000000000               0.000000000               0.000000000               0.000000000               0.000000000               0.000000000               0.000000000               0.000000000               0.000000000               0.000000000               0.000000000               0.000000000               0.000000000               0.000000000               0.000000000               0.000000000               0.000000000               0.000000000               0.000000000               0.000000000               0.000000000               0.000000000               0.000000000               0.000000000               0.000000000               0.000000000               0.000000000               0.000000000               0.000000000               0.000000000               0.000000000               0.000000000               0.000000000               0.000000000               0.000000000               0.000000000               0.000000000               0.000000000               0.000000000               0.000000000               0.000000000               0.000000000               0.000000000               0.000000000               0.000000000               0.000000000               0.000000000               0.000000000               0.000000000               0.000000000               0.000000000               0.000000000               0.000000000               0.000000000               0.000000000               0.000000000               0.000000000               0.000000000               0.000000000               0.000000000               0.000000000               0.000000000               0.000000000               0.000000000               0.000000000               0.000000000               0.000000000               0.000000000               0.000000000               0.000000000               0.000000000               0.000000000               0.000000000               0.000000000 </DataArray>
</PointData>
</Piece>
</UnstructuredGrid> </VTKFile>
