<?xml version="1.0"?>
<VTKFile type="UnstructuredGrid" version="0.1">
<UnstructuredGrid>
<Piece NumberOfPoints="      1156" NumberOfCells="      1024">
<Points>
<DataArray type="Float64"                                    Name="coordinates"                                                      NumberOfComponents=" 3" format="ascii">
              0.133000000               0.000000000               0.000000000               0.155937500               0.000000000               0.000000000               0.178875000               0.000000000               0.000000000               0.201812500               0.000000000               0.000000000               0.224750000               0.000000000               0.000000000               0.247687500               0.000000000               0.000000000               0.270625000               0.000000000               0.000000000               0.293562500               0.000000000               0.000000000               0.316500000               0.000000000               0.000000000               0.339437500               0.000000000               0.000000000               0.362375000               0.000000000               0.000000000               0.385312500               0.000000000               0.000000000               0.408250000               0.000000000               0.000000000               0.431187500               0.000000000               0.000000000               0.454125000               0.000000000               0.000000000               0.477062500               0.000000000               0.000000000               0.500000000               0.000000000               0.000000000               0.132359569               0.013036280               0.000000000               0.155337096               0.016127762               0.000000000               0.178314623               0.019219245               0.000000000               0.201292150               0.022310727               0.000000000               0.224269676               0.025402210               0.000000000               0.247247203               0.028493692               0.000000000               0.270224730               0.031585175               0.000000000               0.293202257               0.034676657               0.000000000               0.316179784               0.037768140               0.000000000               0.339157311               0.040859622               0.000000000               0.362134838               0.043951105               0.000000000               0.385112365               0.047042587               0.000000000               0.408089892               0.050134070               0.000000000               0.431067419               0.053225552               0.000000000               0.454044946               0.056317035               0.000000000               0.477022473               0.059408517               0.000000000               0.500000000               0.062500000               0.000000000               0.130444442               0.025947013               0.000000000               0.153541665               0.032137825               0.000000000               0.176638887               0.038328636               0.000000000               0.199736109               0.044519448               0.000000000               0.222833332               0.050710260               0.000000000               0.245930554               0.056901071               0.000000000               0.269027776               0.063091883               0.000000000               0.292124999               0.069282695               0.000000000               0.315222221               0.075473506               0.000000000               0.338319444               0.081664318               0.000000000               0.361416666               0.087855130               0.000000000               0.384513888               0.094045942               0.000000000               0.407611111               0.100236753               0.000000000               0.430708333               0.106427565               0.000000000               0.453805555               0.112618377               0.000000000               0.476902778               0.118809188               0.000000000               0.500000000               0.125000000               0.000000000               0.127273065               0.038607862               0.000000000               0.150568498               0.047913621               0.000000000               0.173863932               0.057219379               0.000000000               0.197159365               0.066525138               0.000000000               0.220454798               0.075830897               0.000000000               0.243750232               0.085136655               0.000000000               0.267045665               0.094442414               0.000000000               0.290341099               0.103748172               0.000000000               0.313636532               0.113053931               0.000000000               0.336931966               0.122359690               0.000000000               0.360227399               0.131665448               0.000000000               0.383522833               0.140971207               0.000000000               0.406818266               0.150276966               0.000000000               0.430113700               0.159582724               0.000000000               0.453409133               0.168888483               0.000000000               0.476704567               0.178194241               0.000000000               0.500000000               0.187500000               0.000000000               0.122875978               0.050896897               0.000000000               0.146446229               0.063340840               0.000000000               0.170016481               0.075784784               0.000000000               0.193586732               0.088228728               0.000000000               0.217156983               0.100672672               0.000000000               0.240727235               0.113116616               0.000000000               0.264297486               0.125560560               0.000000000               0.287867738               0.138004504               0.000000000               0.311437989               0.150448448               0.000000000               0.335008240               0.162892392               0.000000000               0.358578492               0.175336336               0.000000000               0.382148743               0.187780280               0.000000000               0.405718994               0.200224224               0.000000000               0.429289246               0.212668168               0.000000000               0.452859497               0.225112112               0.000000000               0.476429749               0.237556056               0.000000000               0.500000000               0.250000000               0.000000000               0.117295528               0.062695766               0.000000000               0.141214558               0.078308531               0.000000000               0.165133587               0.093921295               0.000000000               0.189052617               0.109534060               0.000000000               0.212971646               0.125146824               0.000000000               0.236890676               0.140759589               0.000000000               0.260809705               0.156372354               0.000000000               0.284728735               0.171985118               0.000000000               0.308647764               0.187597883               0.000000000               0.332566794               0.203210648               0.000000000               0.356485823               0.218823412               0.000000000               0.380404853               0.234436177               0.000000000               0.404323882               0.250048941               0.000000000               0.428242912               0.265661706               0.000000000               0.452161941               0.281274471               0.000000000               0.476080971               0.296887235               0.000000000               0.500000000               0.312500000               0.000000000               0.110585458               0.073890841               0.000000000               0.134923867               0.092710163               0.000000000               0.159262276               0.111529486               0.000000000               0.183600685               0.130348808               0.000000000               0.207939094               0.149168131               0.000000000               0.232277503               0.167987453               0.000000000               0.256615912               0.186806776               0.000000000               0.280954320               0.205626098               0.000000000               0.305292729               0.224445420               0.000000000               0.329631138               0.243264743               0.000000000               0.353969547               0.262084065               0.000000000               0.378307956               0.280903388               0.000000000               0.402646365               0.299722710               0.000000000               0.426984773               0.318542033               0.000000000               0.451323182               0.337361355               0.000000000               0.475661591               0.356180678               0.000000000               0.500000000               0.375000000               0.000000000               0.102810390               0.084374307               0.000000000               0.127634741               0.106444663               0.000000000               0.152459092               0.128515018               0.000000000               0.177283442               0.150585374               0.000000000               0.202107793               0.172655730               0.000000000               0.226932143               0.194726086               0.000000000               0.251756494               0.216796442               0.000000000               0.276580845               0.238866798               0.000000000               0.301405195               0.260937153               0.000000000               0.326229546               0.283007509               0.000000000               0.351053896               0.305077865               0.000000000               0.375878247               0.327148221               0.000000000               0.400702598               0.349218577               0.000000000               0.425526948               0.371288933               0.000000000               0.450351299               0.393359288               0.000000000               0.475175649               0.415429644               0.000000000               0.500000000               0.437500000               0.000000000               0.094045202               0.094045202               0.000000000               0.119417377               0.119417377               0.000000000               0.144789552               0.144789552               0.000000000               0.170161727               0.170161727               0.000000000               0.195533901               0.195533901               0.000000000               0.220906076               0.220906076               0.000000000               0.246278251               0.246278251               0.000000000               0.271650426               0.271650426               0.000000000               0.297022601               0.297022601               0.000000000               0.322394776               0.322394776               0.000000000               0.347766951               0.347766951               0.000000000               0.373139126               0.373139126               0.000000000               0.398511300               0.398511300               0.000000000               0.423883475               0.423883475               0.000000000               0.449255650               0.449255650               0.000000000               0.474627825               0.474627825               0.000000000               0.500000000               0.500000000               0.000000000               0.084374307               0.102810390               0.000000000               0.106444663               0.127634741               0.000000000               0.128515018               0.152459092               0.000000000               0.150585374               0.177283442               0.000000000               0.172655730               0.202107793               0.000000000               0.194726086               0.226932143               0.000000000               0.216796442               0.251756494               0.000000000               0.238866798               0.276580845               0.000000000               0.260937153               0.301405195               0.000000000               0.283007509               0.326229546               0.000000000               0.305077865               0.351053896               0.000000000               0.327148221               0.375878247               0.000000000               0.349218577               0.400702598               0.000000000               0.371288933               0.425526948               0.000000000               0.393359288               0.450351299               0.000000000               0.415429644               0.475175649               0.000000000               0.437500000               0.500000000               0.000000000               0.073890841               0.110585458               0.000000000               0.092710163               0.134923867               0.000000000               0.111529486               0.159262276               0.000000000               0.130348808               0.183600685               0.000000000               0.149168131               0.207939094               0.000000000               0.167987453               0.232277503               0.000000000               0.186806776               0.256615912               0.000000000               0.205626098               0.280954320               0.000000000               0.224445420               0.305292729               0.000000000               0.243264743               0.329631138               0.000000000               0.262084065               0.353969547               0.000000000               0.280903388               0.378307956               0.000000000               0.299722710               0.402646365               0.000000000               0.318542033               0.426984773               0.000000000               0.337361355               0.451323182               0.000000000               0.356180678               0.475661591               0.000000000               0.375000000               0.500000000               0.000000000               0.062695766               0.117295528               0.000000000               0.078308531               0.141214558               0.000000000               0.093921295               0.165133587               0.000000000               0.109534060               0.189052617               0.000000000               0.125146824               0.212971646               0.000000000               0.140759589               0.236890676               0.000000000               0.156372354               0.260809705               0.000000000               0.171985118               0.284728735               0.000000000               0.187597883               0.308647764               0.000000000               0.203210648               0.332566794               0.000000000               0.218823412               0.356485823               0.000000000               0.234436177               0.380404853               0.000000000               0.250048941               0.404323882               0.000000000               0.265661706               0.428242912               0.000000000               0.281274471               0.452161941               0.000000000               0.296887235               0.476080971               0.000000000               0.312500000               0.500000000               0.000000000               0.050896897               0.122875978               0.000000000               0.063340840               0.146446229               0.000000000               0.075784784               0.170016481               0.000000000               0.088228728               0.193586732               0.000000000               0.100672672               0.217156983               0.000000000               0.113116616               0.240727235               0.000000000               0.125560560               0.264297486               0.000000000               0.138004504               0.287867738               0.000000000               0.150448448               0.311437989               0.000000000               0.162892392               0.335008240               0.000000000               0.175336336               0.358578492               0.000000000               0.187780280               0.382148743               0.000000000               0.200224224               0.405718994               0.000000000               0.212668168               0.429289246               0.000000000               0.225112112               0.452859497               0.000000000               0.237556056               0.476429749               0.000000000               0.250000000               0.500000000               0.000000000               0.038607862               0.127273065               0.000000000               0.047913621               0.150568498               0.000000000               0.057219379               0.173863932               0.000000000               0.066525138               0.197159365               0.000000000               0.075830897               0.220454798               0.000000000               0.085136655               0.243750232               0.000000000               0.094442414               0.267045665               0.000000000               0.103748172               0.290341099               0.000000000               0.113053931               0.313636532               0.000000000               0.122359690               0.336931966               0.000000000               0.131665448               0.360227399               0.000000000               0.140971207               0.383522833               0.000000000               0.150276966               0.406818266               0.000000000               0.159582724               0.430113700               0.000000000               0.168888483               0.453409133               0.000000000               0.178194241               0.476704567               0.000000000               0.187500000               0.500000000               0.000000000               0.025947013               0.130444442               0.000000000               0.032137825               0.153541665               0.000000000               0.038328636               0.176638887               0.000000000               0.044519448               0.199736109               0.000000000               0.050710260               0.222833332               0.000000000               0.056901071               0.245930554               0.000000000               0.063091883               0.269027776               0.000000000               0.069282695               0.292124999               0.000000000               0.075473506               0.315222221               0.000000000               0.081664318               0.338319444               0.000000000               0.087855130               0.361416666               0.000000000               0.094045942               0.384513888               0.000000000               0.100236753               0.407611111               0.000000000               0.106427565               0.430708333               0.000000000               0.112618377               0.453805555               0.000000000               0.118809188               0.476902778               0.000000000               0.125000000               0.500000000               0.000000000               0.013036280               0.132359569               0.000000000               0.016127762               0.155337096               0.000000000               0.019219245               0.178314623               0.000000000               0.022310727               0.201292150               0.000000000               0.025402210               0.224269676               0.000000000               0.028493692               0.247247203               0.000000000               0.031585175               0.270224730               0.000000000               0.034676657               0.293202257               0.000000000               0.037768140               0.316179784               0.000000000               0.040859622               0.339157311               0.000000000               0.043951105               0.362134838               0.000000000               0.047042587               0.385112365               0.000000000               0.050134070               0.408089892               0.000000000               0.053225552               0.431067419               0.000000000               0.056317035               0.454044946               0.000000000               0.059408517               0.477022473               0.000000000               0.062500000               0.500000000               0.000000000               0.000000000               0.133000000               0.000000000               0.000000000               0.155937500               0.000000000               0.000000000               0.178875000               0.000000000               0.000000000               0.201812500               0.000000000               0.000000000               0.224750000               0.000000000               0.000000000               0.247687500               0.000000000               0.000000000               0.270625000               0.000000000               0.000000000               0.293562500               0.000000000               0.000000000               0.316500000               0.000000000               0.000000000               0.339437500               0.000000000               0.000000000               0.362375000               0.000000000               0.000000000               0.385312500               0.000000000               0.000000000               0.408250000               0.000000000               0.000000000               0.431187500               0.000000000               0.000000000               0.454125000               0.000000000               0.000000000               0.477062500               0.000000000               0.000000000               0.500000000               0.000000000               0.133000000               0.000000000               0.000000000               0.155937500               0.000000000               0.000000000               0.178875000               0.000000000               0.000000000               0.201812500               0.000000000               0.000000000               0.224750000               0.000000000               0.000000000               0.247687500               0.000000000               0.000000000               0.270625000               0.000000000               0.000000000               0.293562500               0.000000000               0.000000000               0.316500000               0.000000000               0.000000000               0.339437500               0.000000000               0.000000000               0.362375000               0.000000000               0.000000000               0.385312500               0.000000000               0.000000000               0.408250000               0.000000000               0.000000000               0.431187500               0.000000000               0.000000000               0.454125000               0.000000000               0.000000000               0.477062500               0.000000000               0.000000000               0.500000000               0.000000000               0.000000000               0.132359569              -0.013036280               0.000000000               0.155337096              -0.016127762               0.000000000               0.178314623              -0.019219245               0.000000000               0.201292150              -0.022310727               0.000000000               0.224269676              -0.025402210               0.000000000               0.247247203              -0.028493692               0.000000000               0.270224730              -0.031585175               0.000000000               0.293202257              -0.034676657               0.000000000               0.316179784              -0.037768140               0.000000000               0.339157311              -0.040859622               0.000000000               0.362134838              -0.043951105               0.000000000               0.385112365              -0.047042587               0.000000000               0.408089892              -0.050134070               0.000000000               0.431067419              -0.053225552               0.000000000               0.454044946              -0.056317035               0.000000000               0.477022473              -0.059408517               0.000000000               0.500000000              -0.062500000               0.000000000               0.130444442              -0.025947013               0.000000000               0.153541665              -0.032137825               0.000000000               0.176638887              -0.038328636               0.000000000               0.199736109              -0.044519448               0.000000000               0.222833332              -0.050710260               0.000000000               0.245930554              -0.056901071               0.000000000               0.269027776              -0.063091883               0.000000000               0.292124999              -0.069282695               0.000000000               0.315222221              -0.075473506               0.000000000               0.338319444              -0.081664318               0.000000000               0.361416666              -0.087855130               0.000000000               0.384513888              -0.094045942               0.000000000               0.407611111              -0.100236753               0.000000000               0.430708333              -0.106427565               0.000000000               0.453805555              -0.112618377               0.000000000               0.476902778              -0.118809188               0.000000000               0.500000000              -0.125000000               0.000000000               0.127273065              -0.038607862               0.000000000               0.150568498              -0.047913621               0.000000000               0.173863932              -0.057219379               0.000000000               0.197159365              -0.066525138               0.000000000               0.220454798              -0.075830897               0.000000000               0.243750232              -0.085136655               0.000000000               0.267045665              -0.094442414               0.000000000               0.290341099              -0.103748172               0.000000000               0.313636532              -0.113053931               0.000000000               0.336931966              -0.122359690               0.000000000               0.360227399              -0.131665448               0.000000000               0.383522833              -0.140971207               0.000000000               0.406818266              -0.150276966               0.000000000               0.430113700              -0.159582724               0.000000000               0.453409133              -0.168888483               0.000000000               0.476704567              -0.178194241               0.000000000               0.500000000              -0.187500000               0.000000000               0.122875978              -0.050896897               0.000000000               0.146446229              -0.063340840               0.000000000               0.170016481              -0.075784784               0.000000000               0.193586732              -0.088228728               0.000000000               0.217156983              -0.100672672               0.000000000               0.240727235              -0.113116616               0.000000000               0.264297486              -0.125560560               0.000000000               0.287867738              -0.138004504               0.000000000               0.311437989              -0.150448448               0.000000000               0.335008240              -0.162892392               0.000000000               0.358578492              -0.175336336               0.000000000               0.382148743              -0.187780280               0.000000000               0.405718994              -0.200224224               0.000000000               0.429289246              -0.212668168               0.000000000               0.452859497              -0.225112112               0.000000000               0.476429749              -0.237556056               0.000000000               0.500000000              -0.250000000               0.000000000               0.117295528              -0.062695766               0.000000000               0.141214558              -0.078308531               0.000000000               0.165133587              -0.093921295               0.000000000               0.189052617              -0.109534060               0.000000000               0.212971646              -0.125146824               0.000000000               0.236890676              -0.140759589               0.000000000               0.260809705              -0.156372354               0.000000000               0.284728735              -0.171985118               0.000000000               0.308647764              -0.187597883               0.000000000               0.332566794              -0.203210648               0.000000000               0.356485823              -0.218823412               0.000000000               0.380404853              -0.234436177               0.000000000               0.404323882              -0.250048941               0.000000000               0.428242912              -0.265661706               0.000000000               0.452161941              -0.281274471               0.000000000               0.476080971              -0.296887235               0.000000000               0.500000000              -0.312500000               0.000000000               0.110585458              -0.073890841               0.000000000               0.134923867              -0.092710163               0.000000000               0.159262276              -0.111529486               0.000000000               0.183600685              -0.130348808               0.000000000               0.207939094              -0.149168131               0.000000000               0.232277503              -0.167987453               0.000000000               0.256615912              -0.186806776               0.000000000               0.280954320              -0.205626098               0.000000000               0.305292729              -0.224445420               0.000000000               0.329631138              -0.243264743               0.000000000               0.353969547              -0.262084065               0.000000000               0.378307956              -0.280903388               0.000000000               0.402646365              -0.299722710               0.000000000               0.426984773              -0.318542033               0.000000000               0.451323182              -0.337361355               0.000000000               0.475661591              -0.356180678               0.000000000               0.500000000              -0.375000000               0.000000000               0.102810390              -0.084374307               0.000000000               0.127634741              -0.106444663               0.000000000               0.152459092              -0.128515018               0.000000000               0.177283442              -0.150585374               0.000000000               0.202107793              -0.172655730               0.000000000               0.226932143              -0.194726086               0.000000000               0.251756494              -0.216796442               0.000000000               0.276580845              -0.238866798               0.000000000               0.301405195              -0.260937153               0.000000000               0.326229546              -0.283007509               0.000000000               0.351053896              -0.305077865               0.000000000               0.375878247              -0.327148221               0.000000000               0.400702598              -0.349218577               0.000000000               0.425526948              -0.371288933               0.000000000               0.450351299              -0.393359288               0.000000000               0.475175649              -0.415429644               0.000000000               0.500000000              -0.437500000               0.000000000               0.094045202              -0.094045202               0.000000000               0.119417377              -0.119417377               0.000000000               0.144789552              -0.144789552               0.000000000               0.170161727              -0.170161727               0.000000000               0.195533901              -0.195533901               0.000000000               0.220906076              -0.220906076               0.000000000               0.246278251              -0.246278251               0.000000000               0.271650426              -0.271650426               0.000000000               0.297022601              -0.297022601               0.000000000               0.322394776              -0.322394776               0.000000000               0.347766951              -0.347766951               0.000000000               0.373139126              -0.373139126               0.000000000               0.398511300              -0.398511300               0.000000000               0.423883475              -0.423883475               0.000000000               0.449255650              -0.449255650               0.000000000               0.474627825              -0.474627825               0.000000000               0.500000000              -0.500000000               0.000000000               0.084374307              -0.102810390               0.000000000               0.106444663              -0.127634741               0.000000000               0.128515018              -0.152459092               0.000000000               0.150585374              -0.177283442               0.000000000               0.172655730              -0.202107793               0.000000000               0.194726086              -0.226932143               0.000000000               0.216796442              -0.251756494               0.000000000               0.238866798              -0.276580845               0.000000000               0.260937153              -0.301405195               0.000000000               0.283007509              -0.326229546               0.000000000               0.305077865              -0.351053896               0.000000000               0.327148221              -0.375878247               0.000000000               0.349218577              -0.400702598               0.000000000               0.371288933              -0.425526948               0.000000000               0.393359288              -0.450351299               0.000000000               0.415429644              -0.475175649               0.000000000               0.437500000              -0.500000000               0.000000000               0.073890841              -0.110585458               0.000000000               0.092710163              -0.134923867               0.000000000               0.111529486              -0.159262276               0.000000000               0.130348808              -0.183600685               0.000000000               0.149168131              -0.207939094               0.000000000               0.167987453              -0.232277503               0.000000000               0.186806776              -0.256615912               0.000000000               0.205626098              -0.280954320               0.000000000               0.224445420              -0.305292729               0.000000000               0.243264743              -0.329631138               0.000000000               0.262084065              -0.353969547               0.000000000               0.280903388              -0.378307956               0.000000000               0.299722710              -0.402646365               0.000000000               0.318542033              -0.426984773               0.000000000               0.337361355              -0.451323182               0.000000000               0.356180678              -0.475661591               0.000000000               0.375000000              -0.500000000               0.000000000               0.062695766              -0.117295528               0.000000000               0.078308531              -0.141214558               0.000000000               0.093921295              -0.165133587               0.000000000               0.109534060              -0.189052617               0.000000000               0.125146824              -0.212971646               0.000000000               0.140759589              -0.236890676               0.000000000               0.156372354              -0.260809705               0.000000000               0.171985118              -0.284728735               0.000000000               0.187597883              -0.308647764               0.000000000               0.203210648              -0.332566794               0.000000000               0.218823412              -0.356485823               0.000000000               0.234436177              -0.380404853               0.000000000               0.250048941              -0.404323882               0.000000000               0.265661706              -0.428242912               0.000000000               0.281274471              -0.452161941               0.000000000               0.296887235              -0.476080971               0.000000000               0.312500000              -0.500000000               0.000000000               0.050896897              -0.122875978               0.000000000               0.063340840              -0.146446229               0.000000000               0.075784784              -0.170016481               0.000000000               0.088228728              -0.193586732               0.000000000               0.100672672              -0.217156983               0.000000000               0.113116616              -0.240727235               0.000000000               0.125560560              -0.264297486               0.000000000               0.138004504              -0.287867738               0.000000000               0.150448448              -0.311437989               0.000000000               0.162892392              -0.335008240               0.000000000               0.175336336              -0.358578492               0.000000000               0.187780280              -0.382148743               0.000000000               0.200224224              -0.405718994               0.000000000               0.212668168              -0.429289246               0.000000000               0.225112112              -0.452859497               0.000000000               0.237556056              -0.476429749               0.000000000               0.250000000              -0.500000000               0.000000000               0.038607862              -0.127273065               0.000000000               0.047913621              -0.150568498               0.000000000               0.057219379              -0.173863932               0.000000000               0.066525138              -0.197159365               0.000000000               0.075830897              -0.220454798               0.000000000               0.085136655              -0.243750232               0.000000000               0.094442414              -0.267045665               0.000000000               0.103748172              -0.290341099               0.000000000               0.113053931              -0.313636532               0.000000000               0.122359690              -0.336931966               0.000000000               0.131665448              -0.360227399               0.000000000               0.140971207              -0.383522833               0.000000000               0.150276966              -0.406818266               0.000000000               0.159582724              -0.430113700               0.000000000               0.168888483              -0.453409133               0.000000000               0.178194241              -0.476704567               0.000000000               0.187500000              -0.500000000               0.000000000               0.025947013              -0.130444442               0.000000000               0.032137825              -0.153541665               0.000000000               0.038328636              -0.176638887               0.000000000               0.044519448              -0.199736109               0.000000000               0.050710260              -0.222833332               0.000000000               0.056901071              -0.245930554               0.000000000               0.063091883              -0.269027776               0.000000000               0.069282695              -0.292124999               0.000000000               0.075473506              -0.315222221               0.000000000               0.081664318              -0.338319444               0.000000000               0.087855130              -0.361416666               0.000000000               0.094045942              -0.384513888               0.000000000               0.100236753              -0.407611111               0.000000000               0.106427565              -0.430708333               0.000000000               0.112618377              -0.453805555               0.000000000               0.118809188              -0.476902778               0.000000000               0.125000000              -0.500000000               0.000000000               0.013036280              -0.132359569               0.000000000               0.016127762              -0.155337096               0.000000000               0.019219245              -0.178314623               0.000000000               0.022310727              -0.201292150               0.000000000               0.025402210              -0.224269676               0.000000000               0.028493692              -0.247247203               0.000000000               0.031585175              -0.270224730               0.000000000               0.034676657              -0.293202257               0.000000000               0.037768140              -0.316179784               0.000000000               0.040859622              -0.339157311               0.000000000               0.043951105              -0.362134838               0.000000000               0.047042587              -0.385112365               0.000000000               0.050134070              -0.408089892               0.000000000               0.053225552              -0.431067419               0.000000000               0.056317035              -0.454044946               0.000000000               0.059408517              -0.477022473               0.000000000               0.062500000              -0.500000000               0.000000000               0.000000000              -0.133000000               0.000000000               0.000000000              -0.155937500               0.000000000               0.000000000              -0.178875000               0.000000000               0.000000000              -0.201812500               0.000000000               0.000000000              -0.224750000               0.000000000               0.000000000              -0.247687500               0.000000000               0.000000000              -0.270625000               0.000000000               0.000000000              -0.293562500               0.000000000               0.000000000              -0.316500000               0.000000000               0.000000000              -0.339437500               0.000000000               0.000000000              -0.362375000               0.000000000               0.000000000              -0.385312500               0.000000000               0.000000000              -0.408250000               0.000000000               0.000000000              -0.431187500               0.000000000               0.000000000              -0.454125000               0.000000000               0.000000000              -0.477062500               0.000000000               0.000000000              -0.500000000               0.000000000              -0.133000000               0.000000000               0.000000000              -0.155937500               0.000000000               0.000000000              -0.178875000               0.000000000               0.000000000              -0.201812500               0.000000000               0.000000000              -0.224750000               0.000000000               0.000000000              -0.247687500               0.000000000               0.000000000              -0.270625000               0.000000000               0.000000000              -0.293562500               0.000000000               0.000000000              -0.316500000               0.000000000               0.000000000              -0.339437500               0.000000000               0.000000000              -0.362375000               0.000000000               0.000000000              -0.385312500               0.000000000               0.000000000              -0.408250000               0.000000000               0.000000000              -0.431187500               0.000000000               0.000000000              -0.454125000               0.000000000               0.000000000              -0.477062500               0.000000000               0.000000000              -0.500000000               0.000000000               0.000000000              -0.132359569              -0.013036280               0.000000000              -0.155337096              -0.016127762               0.000000000              -0.178314623              -0.019219245               0.000000000              -0.201292150              -0.022310727               0.000000000              -0.224269676              -0.025402210               0.000000000              -0.247247203              -0.028493692               0.000000000              -0.270224730              -0.031585175               0.000000000              -0.293202257              -0.034676657               0.000000000              -0.316179784              -0.037768140               0.000000000              -0.339157311              -0.040859622               0.000000000              -0.362134838              -0.043951105               0.000000000              -0.385112365              -0.047042587               0.000000000              -0.408089892              -0.050134070               0.000000000              -0.431067419              -0.053225552               0.000000000              -0.454044946              -0.056317035               0.000000000              -0.477022473              -0.059408517               0.000000000              -0.500000000              -0.062500000               0.000000000              -0.130444442              -0.025947013               0.000000000              -0.153541665              -0.032137825               0.000000000              -0.176638887              -0.038328636               0.000000000              -0.199736109              -0.044519448               0.000000000              -0.222833332              -0.050710260               0.000000000              -0.245930554              -0.056901071               0.000000000              -0.269027776              -0.063091883               0.000000000              -0.292124999              -0.069282695               0.000000000              -0.315222221              -0.075473506               0.000000000              -0.338319444              -0.081664318               0.000000000              -0.361416666              -0.087855130               0.000000000              -0.384513888              -0.094045942               0.000000000              -0.407611111              -0.100236753               0.000000000              -0.430708333              -0.106427565               0.000000000              -0.453805555              -0.112618377               0.000000000              -0.476902778              -0.118809188               0.000000000              -0.500000000              -0.125000000               0.000000000              -0.127273065              -0.038607862               0.000000000              -0.150568498              -0.047913621               0.000000000              -0.173863932              -0.057219379               0.000000000              -0.197159365              -0.066525138               0.000000000              -0.220454798              -0.075830897               0.000000000              -0.243750232              -0.085136655               0.000000000              -0.267045665              -0.094442414               0.000000000              -0.290341099              -0.103748172               0.000000000              -0.313636532              -0.113053931               0.000000000              -0.336931966              -0.122359690               0.000000000              -0.360227399              -0.131665448               0.000000000              -0.383522833              -0.140971207               0.000000000              -0.406818266              -0.150276966               0.000000000              -0.430113700              -0.159582724               0.000000000              -0.453409133              -0.168888483               0.000000000              -0.476704567              -0.178194241               0.000000000              -0.500000000              -0.187500000               0.000000000              -0.122875978              -0.050896897               0.000000000              -0.146446229              -0.063340840               0.000000000              -0.170016481              -0.075784784               0.000000000              -0.193586732              -0.088228728               0.000000000              -0.217156983              -0.100672672               0.000000000              -0.240727235              -0.113116616               0.000000000              -0.264297486              -0.125560560               0.000000000              -0.287867738              -0.138004504               0.000000000              -0.311437989              -0.150448448               0.000000000              -0.335008240              -0.162892392               0.000000000              -0.358578492              -0.175336336               0.000000000              -0.382148743              -0.187780280               0.000000000              -0.405718994              -0.200224224               0.000000000              -0.429289246              -0.212668168               0.000000000              -0.452859497              -0.225112112               0.000000000              -0.476429749              -0.237556056               0.000000000              -0.500000000              -0.250000000               0.000000000              -0.117295528              -0.062695766               0.000000000              -0.141214558              -0.078308531               0.000000000              -0.165133587              -0.093921295               0.000000000              -0.189052617              -0.109534060               0.000000000              -0.212971646              -0.125146824               0.000000000              -0.236890676              -0.140759589               0.000000000              -0.260809705              -0.156372354               0.000000000              -0.284728735              -0.171985118               0.000000000              -0.308647764              -0.187597883               0.000000000              -0.332566794              -0.203210648               0.000000000              -0.356485823              -0.218823412               0.000000000              -0.380404853              -0.234436177               0.000000000              -0.404323882              -0.250048941               0.000000000              -0.428242912              -0.265661706               0.000000000              -0.452161941              -0.281274471               0.000000000              -0.476080971              -0.296887235               0.000000000              -0.500000000              -0.312500000               0.000000000              -0.110585458              -0.073890841               0.000000000              -0.134923867              -0.092710163               0.000000000              -0.159262276              -0.111529486               0.000000000              -0.183600685              -0.130348808               0.000000000              -0.207939094              -0.149168131               0.000000000              -0.232277503              -0.167987453               0.000000000              -0.256615912              -0.186806776               0.000000000              -0.280954320              -0.205626098               0.000000000              -0.305292729              -0.224445420               0.000000000              -0.329631138              -0.243264743               0.000000000              -0.353969547              -0.262084065               0.000000000              -0.378307956              -0.280903388               0.000000000              -0.402646365              -0.299722710               0.000000000              -0.426984773              -0.318542033               0.000000000              -0.451323182              -0.337361355               0.000000000              -0.475661591              -0.356180678               0.000000000              -0.500000000              -0.375000000               0.000000000              -0.102810390              -0.084374307               0.000000000              -0.127634741              -0.106444663               0.000000000              -0.152459092              -0.128515018               0.000000000              -0.177283442              -0.150585374               0.000000000              -0.202107793              -0.172655730               0.000000000              -0.226932143              -0.194726086               0.000000000              -0.251756494              -0.216796442               0.000000000              -0.276580845              -0.238866798               0.000000000              -0.301405195              -0.260937153               0.000000000              -0.326229546              -0.283007509               0.000000000              -0.351053896              -0.305077865               0.000000000              -0.375878247              -0.327148221               0.000000000              -0.400702598              -0.349218577               0.000000000              -0.425526948              -0.371288933               0.000000000              -0.450351299              -0.393359288               0.000000000              -0.475175649              -0.415429644               0.000000000              -0.500000000              -0.437500000               0.000000000              -0.094045202              -0.094045202               0.000000000              -0.119417377              -0.119417377               0.000000000              -0.144789552              -0.144789552               0.000000000              -0.170161727              -0.170161727               0.000000000              -0.195533901              -0.195533901               0.000000000              -0.220906076              -0.220906076               0.000000000              -0.246278251              -0.246278251               0.000000000              -0.271650426              -0.271650426               0.000000000              -0.297022601              -0.297022601               0.000000000              -0.322394776              -0.322394776               0.000000000              -0.347766951              -0.347766951               0.000000000              -0.373139126              -0.373139126               0.000000000              -0.398511300              -0.398511300               0.000000000              -0.423883475              -0.423883475               0.000000000              -0.449255650              -0.449255650               0.000000000              -0.474627825              -0.474627825               0.000000000              -0.500000000              -0.500000000               0.000000000              -0.084374307              -0.102810390               0.000000000              -0.106444663              -0.127634741               0.000000000              -0.128515018              -0.152459092               0.000000000              -0.150585374              -0.177283442               0.000000000              -0.172655730              -0.202107793               0.000000000              -0.194726086              -0.226932143               0.000000000              -0.216796442              -0.251756494               0.000000000              -0.238866798              -0.276580845               0.000000000              -0.260937153              -0.301405195               0.000000000              -0.283007509              -0.326229546               0.000000000              -0.305077865              -0.351053896               0.000000000              -0.327148221              -0.375878247               0.000000000              -0.349218577              -0.400702598               0.000000000              -0.371288933              -0.425526948               0.000000000              -0.393359288              -0.450351299               0.000000000              -0.415429644              -0.475175649               0.000000000              -0.437500000              -0.500000000               0.000000000              -0.073890841              -0.110585458               0.000000000              -0.092710163              -0.134923867               0.000000000              -0.111529486              -0.159262276               0.000000000              -0.130348808              -0.183600685               0.000000000              -0.149168131              -0.207939094               0.000000000              -0.167987453              -0.232277503               0.000000000              -0.186806776              -0.256615912               0.000000000              -0.205626098              -0.280954320               0.000000000              -0.224445420              -0.305292729               0.000000000              -0.243264743              -0.329631138               0.000000000              -0.262084065              -0.353969547               0.000000000              -0.280903388              -0.378307956               0.000000000              -0.299722710              -0.402646365               0.000000000              -0.318542033              -0.426984773               0.000000000              -0.337361355              -0.451323182               0.000000000              -0.356180678              -0.475661591               0.000000000              -0.375000000              -0.500000000               0.000000000              -0.062695766              -0.117295528               0.000000000              -0.078308531              -0.141214558               0.000000000              -0.093921295              -0.165133587               0.000000000              -0.109534060              -0.189052617               0.000000000              -0.125146824              -0.212971646               0.000000000              -0.140759589              -0.236890676               0.000000000              -0.156372354              -0.260809705               0.000000000              -0.171985118              -0.284728735               0.000000000              -0.187597883              -0.308647764               0.000000000              -0.203210648              -0.332566794               0.000000000              -0.218823412              -0.356485823               0.000000000              -0.234436177              -0.380404853               0.000000000              -0.250048941              -0.404323882               0.000000000              -0.265661706              -0.428242912               0.000000000              -0.281274471              -0.452161941               0.000000000              -0.296887235              -0.476080971               0.000000000              -0.312500000              -0.500000000               0.000000000              -0.050896897              -0.122875978               0.000000000              -0.063340840              -0.146446229               0.000000000              -0.075784784              -0.170016481               0.000000000              -0.088228728              -0.193586732               0.000000000              -0.100672672              -0.217156983               0.000000000              -0.113116616              -0.240727235               0.000000000              -0.125560560              -0.264297486               0.000000000              -0.138004504              -0.287867738               0.000000000              -0.150448448              -0.311437989               0.000000000              -0.162892392              -0.335008240               0.000000000              -0.175336336              -0.358578492               0.000000000              -0.187780280              -0.382148743               0.000000000              -0.200224224              -0.405718994               0.000000000              -0.212668168              -0.429289246               0.000000000              -0.225112112              -0.452859497               0.000000000              -0.237556056              -0.476429749               0.000000000              -0.250000000              -0.500000000               0.000000000              -0.038607862              -0.127273065               0.000000000              -0.047913621              -0.150568498               0.000000000              -0.057219379              -0.173863932               0.000000000              -0.066525138              -0.197159365               0.000000000              -0.075830897              -0.220454798               0.000000000              -0.085136655              -0.243750232               0.000000000              -0.094442414              -0.267045665               0.000000000              -0.103748172              -0.290341099               0.000000000              -0.113053931              -0.313636532               0.000000000              -0.122359690              -0.336931966               0.000000000              -0.131665448              -0.360227399               0.000000000              -0.140971207              -0.383522833               0.000000000              -0.150276966              -0.406818266               0.000000000              -0.159582724              -0.430113700               0.000000000              -0.168888483              -0.453409133               0.000000000              -0.178194241              -0.476704567               0.000000000              -0.187500000              -0.500000000               0.000000000              -0.025947013              -0.130444442               0.000000000              -0.032137825              -0.153541665               0.000000000              -0.038328636              -0.176638887               0.000000000              -0.044519448              -0.199736109               0.000000000              -0.050710260              -0.222833332               0.000000000              -0.056901071              -0.245930554               0.000000000              -0.063091883              -0.269027776               0.000000000              -0.069282695              -0.292124999               0.000000000              -0.075473506              -0.315222221               0.000000000              -0.081664318              -0.338319444               0.000000000              -0.087855130              -0.361416666               0.000000000              -0.094045942              -0.384513888               0.000000000              -0.100236753              -0.407611111               0.000000000              -0.106427565              -0.430708333               0.000000000              -0.112618377              -0.453805555               0.000000000              -0.118809188              -0.476902778               0.000000000              -0.125000000              -0.500000000               0.000000000              -0.013036280              -0.132359569               0.000000000              -0.016127762              -0.155337096               0.000000000              -0.019219245              -0.178314623               0.000000000              -0.022310727              -0.201292150               0.000000000              -0.025402210              -0.224269676               0.000000000              -0.028493692              -0.247247203               0.000000000              -0.031585175              -0.270224730               0.000000000              -0.034676657              -0.293202257               0.000000000              -0.037768140              -0.316179784               0.000000000              -0.040859622              -0.339157311               0.000000000              -0.043951105              -0.362134838               0.000000000              -0.047042587              -0.385112365               0.000000000              -0.050134070              -0.408089892               0.000000000              -0.053225552              -0.431067419               0.000000000              -0.056317035              -0.454044946               0.000000000              -0.059408517              -0.477022473               0.000000000              -0.062500000              -0.500000000               0.000000000               0.000000000              -0.133000000               0.000000000               0.000000000              -0.155937500               0.000000000               0.000000000              -0.178875000               0.000000000               0.000000000              -0.201812500               0.000000000               0.000000000              -0.224750000               0.000000000               0.000000000              -0.247687500               0.000000000               0.000000000              -0.270625000               0.000000000               0.000000000              -0.293562500               0.000000000               0.000000000              -0.316500000               0.000000000               0.000000000              -0.339437500               0.000000000               0.000000000              -0.362375000               0.000000000               0.000000000              -0.385312500               0.000000000               0.000000000              -0.408250000               0.000000000               0.000000000              -0.431187500               0.000000000               0.000000000              -0.454125000               0.000000000               0.000000000              -0.477062500               0.000000000               0.000000000              -0.500000000               0.000000000              -0.133000000               0.000000000               0.000000000              -0.155937500               0.000000000               0.000000000              -0.178875000               0.000000000               0.000000000              -0.201812500               0.000000000               0.000000000              -0.224750000               0.000000000               0.000000000              -0.247687500               0.000000000               0.000000000              -0.270625000               0.000000000               0.000000000              -0.293562500               0.000000000               0.000000000              -0.316500000               0.000000000               0.000000000              -0.339437500               0.000000000               0.000000000              -0.362375000               0.000000000               0.000000000              -0.385312500               0.000000000               0.000000000              -0.408250000               0.000000000               0.000000000              -0.431187500               0.000000000               0.000000000              -0.454125000               0.000000000               0.000000000              -0.477062500               0.000000000               0.000000000              -0.500000000               0.000000000               0.000000000              -0.132359569               0.013036280               0.000000000              -0.155337096               0.016127762               0.000000000              -0.178314623               0.019219245               0.000000000              -0.201292150               0.022310727               0.000000000              -0.224269676               0.025402210               0.000000000              -0.247247203               0.028493692               0.000000000              -0.270224730               0.031585175               0.000000000              -0.293202257               0.034676657               0.000000000              -0.316179784               0.037768140               0.000000000              -0.339157311               0.040859622               0.000000000              -0.362134838               0.043951105               0.000000000              -0.385112365               0.047042587               0.000000000              -0.408089892               0.050134070               0.000000000              -0.431067419               0.053225552               0.000000000              -0.454044946               0.056317035               0.000000000              -0.477022473               0.059408517               0.000000000              -0.500000000               0.062500000               0.000000000              -0.130444442               0.025947013               0.000000000              -0.153541665               0.032137825               0.000000000              -0.176638887               0.038328636               0.000000000              -0.199736109               0.044519448               0.000000000              -0.222833332               0.050710260               0.000000000              -0.245930554               0.056901071               0.000000000              -0.269027776               0.063091883               0.000000000              -0.292124999               0.069282695               0.000000000              -0.315222221               0.075473506               0.000000000              -0.338319444               0.081664318               0.000000000              -0.361416666               0.087855130               0.000000000              -0.384513888               0.094045942               0.000000000              -0.407611111               0.100236753               0.000000000              -0.430708333               0.106427565               0.000000000              -0.453805555               0.112618377               0.000000000              -0.476902778               0.118809188               0.000000000              -0.500000000               0.125000000               0.000000000              -0.127273065               0.038607862               0.000000000              -0.150568498               0.047913621               0.000000000              -0.173863932               0.057219379               0.000000000              -0.197159365               0.066525138               0.000000000              -0.220454798               0.075830897               0.000000000              -0.243750232               0.085136655               0.000000000              -0.267045665               0.094442414               0.000000000              -0.290341099               0.103748172               0.000000000              -0.313636532               0.113053931               0.000000000              -0.336931966               0.122359690               0.000000000              -0.360227399               0.131665448               0.000000000              -0.383522833               0.140971207               0.000000000              -0.406818266               0.150276966               0.000000000              -0.430113700               0.159582724               0.000000000              -0.453409133               0.168888483               0.000000000              -0.476704567               0.178194241               0.000000000              -0.500000000               0.187500000               0.000000000              -0.122875978               0.050896897               0.000000000              -0.146446229               0.063340840               0.000000000              -0.170016481               0.075784784               0.000000000              -0.193586732               0.088228728               0.000000000              -0.217156983               0.100672672               0.000000000              -0.240727235               0.113116616               0.000000000              -0.264297486               0.125560560               0.000000000              -0.287867738               0.138004504               0.000000000              -0.311437989               0.150448448               0.000000000              -0.335008240               0.162892392               0.000000000              -0.358578492               0.175336336               0.000000000              -0.382148743               0.187780280               0.000000000              -0.405718994               0.200224224               0.000000000              -0.429289246               0.212668168               0.000000000              -0.452859497               0.225112112               0.000000000              -0.476429749               0.237556056               0.000000000              -0.500000000               0.250000000               0.000000000              -0.117295528               0.062695766               0.000000000              -0.141214558               0.078308531               0.000000000              -0.165133587               0.093921295               0.000000000              -0.189052617               0.109534060               0.000000000              -0.212971646               0.125146824               0.000000000              -0.236890676               0.140759589               0.000000000              -0.260809705               0.156372354               0.000000000              -0.284728735               0.171985118               0.000000000              -0.308647764               0.187597883               0.000000000              -0.332566794               0.203210648               0.000000000              -0.356485823               0.218823412               0.000000000              -0.380404853               0.234436177               0.000000000              -0.404323882               0.250048941               0.000000000              -0.428242912               0.265661706               0.000000000              -0.452161941               0.281274471               0.000000000              -0.476080971               0.296887235               0.000000000              -0.500000000               0.312500000               0.000000000              -0.110585458               0.073890841               0.000000000              -0.134923867               0.092710163               0.000000000              -0.159262276               0.111529486               0.000000000              -0.183600685               0.130348808               0.000000000              -0.207939094               0.149168131               0.000000000              -0.232277503               0.167987453               0.000000000              -0.256615912               0.186806776               0.000000000              -0.280954320               0.205626098               0.000000000              -0.305292729               0.224445420               0.000000000              -0.329631138               0.243264743               0.000000000              -0.353969547               0.262084065               0.000000000              -0.378307956               0.280903388               0.000000000              -0.402646365               0.299722710               0.000000000              -0.426984773               0.318542033               0.000000000              -0.451323182               0.337361355               0.000000000              -0.475661591               0.356180678               0.000000000              -0.500000000               0.375000000               0.000000000              -0.102810390               0.084374307               0.000000000              -0.127634741               0.106444663               0.000000000              -0.152459092               0.128515018               0.000000000              -0.177283442               0.150585374               0.000000000              -0.202107793               0.172655730               0.000000000              -0.226932143               0.194726086               0.000000000              -0.251756494               0.216796442               0.000000000              -0.276580845               0.238866798               0.000000000              -0.301405195               0.260937153               0.000000000              -0.326229546               0.283007509               0.000000000              -0.351053896               0.305077865               0.000000000              -0.375878247               0.327148221               0.000000000              -0.400702598               0.349218577               0.000000000              -0.425526948               0.371288933               0.000000000              -0.450351299               0.393359288               0.000000000              -0.475175649               0.415429644               0.000000000              -0.500000000               0.437500000               0.000000000              -0.094045202               0.094045202               0.000000000              -0.119417377               0.119417377               0.000000000              -0.144789552               0.144789552               0.000000000              -0.170161727               0.170161727               0.000000000              -0.195533901               0.195533901               0.000000000              -0.220906076               0.220906076               0.000000000              -0.246278251               0.246278251               0.000000000              -0.271650426               0.271650426               0.000000000              -0.297022601               0.297022601               0.000000000              -0.322394776               0.322394776               0.000000000              -0.347766951               0.347766951               0.000000000              -0.373139126               0.373139126               0.000000000              -0.398511300               0.398511300               0.000000000              -0.423883475               0.423883475               0.000000000              -0.449255650               0.449255650               0.000000000              -0.474627825               0.474627825               0.000000000              -0.500000000               0.500000000               0.000000000              -0.084374307               0.102810390               0.000000000              -0.106444663               0.127634741               0.000000000              -0.128515018               0.152459092               0.000000000              -0.150585374               0.177283442               0.000000000              -0.172655730               0.202107793               0.000000000              -0.194726086               0.226932143               0.000000000              -0.216796442               0.251756494               0.000000000              -0.238866798               0.276580845               0.000000000              -0.260937153               0.301405195               0.000000000              -0.283007509               0.326229546               0.000000000              -0.305077865               0.351053896               0.000000000              -0.327148221               0.375878247               0.000000000              -0.349218577               0.400702598               0.000000000              -0.371288933               0.425526948               0.000000000              -0.393359288               0.450351299               0.000000000              -0.415429644               0.475175649               0.000000000              -0.437500000               0.500000000               0.000000000              -0.073890841               0.110585458               0.000000000              -0.092710163               0.134923867               0.000000000              -0.111529486               0.159262276               0.000000000              -0.130348808               0.183600685               0.000000000              -0.149168131               0.207939094               0.000000000              -0.167987453               0.232277503               0.000000000              -0.186806776               0.256615912               0.000000000              -0.205626098               0.280954320               0.000000000              -0.224445420               0.305292729               0.000000000              -0.243264743               0.329631138               0.000000000              -0.262084065               0.353969547               0.000000000              -0.280903388               0.378307956               0.000000000              -0.299722710               0.402646365               0.000000000              -0.318542033               0.426984773               0.000000000              -0.337361355               0.451323182               0.000000000              -0.356180678               0.475661591               0.000000000              -0.375000000               0.500000000               0.000000000              -0.062695766               0.117295528               0.000000000              -0.078308531               0.141214558               0.000000000              -0.093921295               0.165133587               0.000000000              -0.109534060               0.189052617               0.000000000              -0.125146824               0.212971646               0.000000000              -0.140759589               0.236890676               0.000000000              -0.156372354               0.260809705               0.000000000              -0.171985118               0.284728735               0.000000000              -0.187597883               0.308647764               0.000000000              -0.203210648               0.332566794               0.000000000              -0.218823412               0.356485823               0.000000000              -0.234436177               0.380404853               0.000000000              -0.250048941               0.404323882               0.000000000              -0.265661706               0.428242912               0.000000000              -0.281274471               0.452161941               0.000000000              -0.296887235               0.476080971               0.000000000              -0.312500000               0.500000000               0.000000000              -0.050896897               0.122875978               0.000000000              -0.063340840               0.146446229               0.000000000              -0.075784784               0.170016481               0.000000000              -0.088228728               0.193586732               0.000000000              -0.100672672               0.217156983               0.000000000              -0.113116616               0.240727235               0.000000000              -0.125560560               0.264297486               0.000000000              -0.138004504               0.287867738               0.000000000              -0.150448448               0.311437989               0.000000000              -0.162892392               0.335008240               0.000000000              -0.175336336               0.358578492               0.000000000              -0.187780280               0.382148743               0.000000000              -0.200224224               0.405718994               0.000000000              -0.212668168               0.429289246               0.000000000              -0.225112112               0.452859497               0.000000000              -0.237556056               0.476429749               0.000000000              -0.250000000               0.500000000               0.000000000              -0.038607862               0.127273065               0.000000000              -0.047913621               0.150568498               0.000000000              -0.057219379               0.173863932               0.000000000              -0.066525138               0.197159365               0.000000000              -0.075830897               0.220454798               0.000000000              -0.085136655               0.243750232               0.000000000              -0.094442414               0.267045665               0.000000000              -0.103748172               0.290341099               0.000000000              -0.113053931               0.313636532               0.000000000              -0.122359690               0.336931966               0.000000000              -0.131665448               0.360227399               0.000000000              -0.140971207               0.383522833               0.000000000              -0.150276966               0.406818266               0.000000000              -0.159582724               0.430113700               0.000000000              -0.168888483               0.453409133               0.000000000              -0.178194241               0.476704567               0.000000000              -0.187500000               0.500000000               0.000000000              -0.025947013               0.130444442               0.000000000              -0.032137825               0.153541665               0.000000000              -0.038328636               0.176638887               0.000000000              -0.044519448               0.199736109               0.000000000              -0.050710260               0.222833332               0.000000000              -0.056901071               0.245930554               0.000000000              -0.063091883               0.269027776               0.000000000              -0.069282695               0.292124999               0.000000000              -0.075473506               0.315222221               0.000000000              -0.081664318               0.338319444               0.000000000              -0.087855130               0.361416666               0.000000000              -0.094045942               0.384513888               0.000000000              -0.100236753               0.407611111               0.000000000              -0.106427565               0.430708333               0.000000000              -0.112618377               0.453805555               0.000000000              -0.118809188               0.476902778               0.000000000              -0.125000000               0.500000000               0.000000000              -0.013036280               0.132359569               0.000000000              -0.016127762               0.155337096               0.000000000              -0.019219245               0.178314623               0.000000000              -0.022310727               0.201292150               0.000000000              -0.025402210               0.224269676               0.000000000              -0.028493692               0.247247203               0.000000000              -0.031585175               0.270224730               0.000000000              -0.034676657               0.293202257               0.000000000              -0.037768140               0.316179784               0.000000000              -0.040859622               0.339157311               0.000000000              -0.043951105               0.362134838               0.000000000              -0.047042587               0.385112365               0.000000000              -0.050134070               0.408089892               0.000000000              -0.053225552               0.431067419               0.000000000              -0.056317035               0.454044946               0.000000000              -0.059408517               0.477022473               0.000000000              -0.062500000               0.500000000               0.000000000               0.000000000               0.133000000               0.000000000               0.000000000               0.155937500               0.000000000               0.000000000               0.178875000               0.000000000               0.000000000               0.201812500               0.000000000               0.000000000               0.224750000               0.000000000               0.000000000               0.247687500               0.000000000               0.000000000               0.270625000               0.000000000               0.000000000               0.293562500               0.000000000               0.000000000               0.316500000               0.000000000               0.000000000               0.339437500               0.000000000               0.000000000               0.362375000               0.000000000               0.000000000               0.385312500               0.000000000               0.000000000               0.408250000               0.000000000               0.000000000               0.431187500               0.000000000               0.000000000               0.454125000               0.000000000               0.000000000               0.477062500               0.000000000               0.000000000               0.500000000               0.000000000 </DataArray>
</Points>
<Cells>
<DataArray type="Int32"                                    Name="connectivity"                                                      NumberOfComponents=" 1" format="ascii">
         0          1         18         17          1          2         19         18          2          3         20         19          3          4         21         20          4          5         22         21          5          6         23         22          6          7         24         23          7          8         25         24          8          9         26         25          9         10         27         26         10         11         28         27         11         12         29         28         12         13         30         29         13         14         31         30         14         15         32         31         15         16         33         32         17         18         35         34         18         19         36         35         19         20         37         36         20         21         38         37         21         22         39         38         22         23         40         39         23         24         41         40         24         25         42         41         25         26         43         42         26         27         44         43         27         28         45         44         28         29         46         45         29         30         47         46         30         31         48         47         31         32         49         48         32         33         50         49         34         35         52         51         35         36         53         52         36         37         54         53         37         38         55         54         38         39         56         55         39         40         57         56         40         41         58         57         41         42         59         58         42         43         60         59         43         44         61         60         44         45         62         61         45         46         63         62         46         47         64         63         47         48         65         64         48         49         66         65         49         50         67         66         51         52         69         68         52         53         70         69         53         54         71         70         54         55         72         71         55         56         73         72         56         57         74         73         57         58         75         74         58         59         76         75         59         60         77         76         60         61         78         77         61         62         79         78         62         63         80         79         63         64         81         80         64         65         82         81         65         66         83         82         66         67         84         83         68         69         86         85         69         70         87         86         70         71         88         87         71         72         89         88         72         73         90         89         73         74         91         90         74         75         92         91         75         76         93         92         76         77         94         93         77         78         95         94         78         79         96         95         79         80         97         96         80         81         98         97         81         82         99         98         82         83        100         99         83         84        101        100         85         86        103        102         86         87        104        103         87         88        105        104         88         89        106        105         89         90        107        106         90         91        108        107         91         92        109        108         92         93        110        109         93         94        111        110         94         95        112        111         95         96        113        112         96         97        114        113         97         98        115        114         98         99        116        115         99        100        117        116        100        101        118        117        102        103        120        119        103        104        121        120        104        105        122        121        105        106        123        122        106        107        124        123        107        108        125        124        108        109        126        125        109        110        127        126        110        111        128        127        111        112        129        128        112        113        130        129        113        114        131        130        114        115        132        131        115        116        133        132        116        117        134        133        117        118        135        134        119        120        137        136        120        121        138        137        121        122        139        138        122        123        140        139        123        124        141        140        124        125        142        141        125        126        143        142        126        127        144        143        127        128        145        144        128        129        146        145        129        130        147        146        130        131        148        147        131        132        149        148        132        133        150        149        133        134        151        150        134        135        152        151        136        137        154        153        137        138        155        154        138        139        156        155        139        140        157        156        140        141        158        157        141        142        159        158        142        143        160        159        143        144        161        160        144        145        162        161        145        146        163        162        146        147        164        163        147        148        165        164        148        149        166        165        149        150        167        166        150        151        168        167        151        152        169        168        153        154        171        170        154        155        172        171        155        156        173        172        156        157        174        173        157        158        175        174        158        159        176        175        159        160        177        176        160        161        178        177        161        162        179        178        162        163        180        179        163        164        181        180        164        165        182        181        165        166        183        182        166        167        184        183        167        168        185        184        168        169        186        185        170        171        188        187        171        172        189        188        172        173        190        189        173        174        191        190        174        175        192        191        175        176        193        192        176        177        194        193        177        178        195        194        178        179        196        195        179        180        197        196        180        181        198        197        181        182        199        198        182        183        200        199        183        184        201        200        184        185        202        201        185        186        203        202        187        188        205        204        188        189        206        205        189        190        207        206        190        191        208        207        191        192        209        208        192        193        210        209        193        194        211        210        194        195        212        211        195        196        213        212        196        197        214        213        197        198        215        214        198        199        216        215        199        200        217        216        200        201        218        217        201        202        219        218        202        203        220        219        204        205        222        221        205        206        223        222        206        207        224        223        207        208        225        224        208        209        226        225        209        210        227        226        210        211        228        227        211        212        229        228        212        213        230        229        213        214        231        230        214        215        232        231        215        216        233        232        216        217        234        233        217        218        235        234        218        219        236        235        219        220        237        236        221        222        239        238        222        223        240        239        223        224        241        240        224        225        242        241        225        226        243        242        226        227        244        243        227        228        245        244        228        229        246        245        229        230        247        246        230        231        248        247        231        232        249        248        232        233        250        249        233        234        251        250        234        235        252        251        235        236        253        252        236        237        254        253        238        239        256        255        239        240        257        256        240        241        258        257        241        242        259        258        242        243        260        259        243        244        261        260        244        245        262        261        245        246        263        262        246        247        264        263        247        248        265        264        248        249        266        265        249        250        267        266        250        251        268        267        251        252        269        268        252        253        270        269        253        254        271        270        255        256        273        272        256        257        274        273        257        258        275        274        258        259        276        275        259        260        277        276        260        261        278        277        261        262        279        278        262        263        280        279        263        264        281        280        264        265        282        281        265        266        283        282        266        267        284        283        267        268        285        284        268        269        286        285        269        270        287        286        270        271        288        287        306        307          1          0        307        308          2          1        308        309          3          2        309        310          4          3        310        311          5          4        311        312          6          5        312        313          7          6        313        314          8          7        314        315          9          8        315        316         10          9        316        317         11         10        317        318         12         11        318        319         13         12        319        320         14         13        320        321         15         14        321        322         16         15        323        324        307        306        324        325        308        307        325        326        309        308        326        327        310        309        327        328        311        310        328        329        312        311        329        330        313        312        330        331        314        313        331        332        315        314        332        333        316        315        333        334        317        316        334        335        318        317        335        336        319        318        336        337        320        319        337        338        321        320        338        339        322        321        340        341        324        323        341        342        325        324        342        343        326        325        343        344        327        326        344        345        328        327        345        346        329        328        346        347        330        329        347        348        331        330        348        349        332        331        349        350        333        332        350        351        334        333        351        352        335        334        352        353        336        335        353        354        337        336        354        355        338        337        355        356        339        338        357        358        341        340        358        359        342        341        359        360        343        342        360        361        344        343        361        362        345        344        362        363        346        345        363        364        347        346        364        365        348        347        365        366        349        348        366        367        350        349        367        368        351        350        368        369        352        351        369        370        353        352        370        371        354        353        371        372        355        354        372        373        356        355        374        375        358        357        375        376        359        358        376        377        360        359        377        378        361        360        378        379        362        361        379        380        363        362        380        381        364        363        381        382        365        364        382        383        366        365        383        384        367        366        384        385        368        367        385        386        369        368        386        387        370        369        387        388        371        370        388        389        372        371        389        390        373        372        391        392        375        374        392        393        376        375        393        394        377        376        394        395        378        377        395        396        379        378        396        397        380        379        397        398        381        380        398        399        382        381        399        400        383        382        400        401        384        383        401        402        385        384        402        403        386        385        403        404        387        386        404        405        388        387        405        406        389        388        406        407        390        389        408        409        392        391        409        410        393        392        410        411        394        393        411        412        395        394        412        413        396        395        413        414        397        396        414        415        398        397        415        416        399        398        416        417        400        399        417        418        401        400        418        419        402        401        419        420        403        402        420        421        404        403        421        422        405        404        422        423        406        405        423        424        407        406        425        426        409        408        426        427        410        409        427        428        411        410        428        429        412        411        429        430        413        412        430        431        414        413        431        432        415        414        432        433        416        415        433        434        417        416        434        435        418        417        435        436        419        418        436        437        420        419        437        438        421        420        438        439        422        421        439        440        423        422        440        441        424        423        442        443        426        425        443        444        427        426        444        445        428        427        445        446        429        428        446        447        430        429        447        448        431        430        448        449        432        431        449        450        433        432        450        451        434        433        451        452        435        434        452        453        436        435        453        454        437        436        454        455        438        437        455        456        439        438        456        457        440        439        457        458        441        440        459        460        443        442        460        461        444        443        461        462        445        444        462        463        446        445        463        464        447        446        464        465        448        447        465        466        449        448        466        467        450        449        467        468        451        450        468        469        452        451        469        470        453        452        470        471        454        453        471        472        455        454        472        473        456        455        473        474        457        456        474        475        458        457        476        477        460        459        477        478        461        460        478        479        462        461        479        480        463        462        480        481        464        463        481        482        465        464        482        483        466        465        483        484        467        466        484        485        468        467        485        486        469        468        486        487        470        469        487        488        471        470        488        489        472        471        489        490        473        472        490        491        474        473        491        492        475        474        493        494        477        476        494        495        478        477        495        496        479        478        496        497        480        479        497        498        481        480        498        499        482        481        499        500        483        482        500        501        484        483        501        502        485        484        502        503        486        485        503        504        487        486        504        505        488        487        505        506        489        488        506        507        490        489        507        508        491        490        508        509        492        491        510        511        494        493        511        512        495        494        512        513        496        495        513        514        497        496        514        515        498        497        515        516        499        498        516        517        500        499        517        518        501        500        518        519        502        501        519        520        503        502        520        521        504        503        521        522        505        504        522        523        506        505        523        524        507        506        524        525        508        507        525        526        509        508        527        528        511        510        528        529        512        511        529        530        513        512        530        531        514        513        531        532        515        514        532        533        516        515        533        534        517        516        534        535        518        517        535        536        519        518        536        537        520        519        537        538        521        520        538        539        522        521        539        540        523        522        540        541        524        523        541        542        525        524        542        543        526        525        544        545        528        527        545        546        529        528        546        547        530        529        547        548        531        530        548        549        532        531        549        550        533        532        550        551        534        533        551        552        535        534        552        553        536        535        553        554        537        536        554        555        538        537        555        556        539        538        556        557        540        539        557        558        541        540        558        559        542        541        559        560        543        542        561        562        545        544        562        563        546        545        563        564        547        546        564        565        548        547        565        566        549        548        566        567        550        549        567        568        551        550        568        569        552        551        569        570        553        552        570        571        554        553        571        572        555        554        572        573        556        555        573        574        557        556        574        575        558        557        575        576        559        558        576        577        560        559        578        579        596        595        579        580        597        596        580        581        598        597        581        582        599        598        582        583        600        599        583        584        601        600        584        585        602        601        585        586        603        602        586        587        604        603        587        588        605        604        588        589        606        605        589        590        607        606        590        591        608        607        591        592        609        608        592        593        610        609        593        594        611        610        595        596        613        612        596        597        614        613        597        598        615        614        598        599        616        615        599        600        617        616        600        601        618        617        601        602        619        618        602        603        620        619        603        604        621        620        604        605        622        621        605        606        623        622        606        607        624        623        607        608        625        624        608        609        626        625        609        610        627        626        610        611        628        627        612        613        630        629        613        614        631        630        614        615        632        631        615        616        633        632        616        617        634        633        617        618        635        634        618        619        636        635        619        620        637        636        620        621        638        637        621        622        639        638        622        623        640        639        623        624        641        640        624        625        642        641        625        626        643        642        626        627        644        643        627        628        645        644        629        630        647        646        630        631        648        647        631        632        649        648        632        633        650        649        633        634        651        650        634        635        652        651        635        636        653        652        636        637        654        653        637        638        655        654        638        639        656        655        639        640        657        656        640        641        658        657        641        642        659        658        642        643        660        659        643        644        661        660        644        645        662        661        646        647        664        663        647        648        665        664        648        649        666        665        649        650        667        666        650        651        668        667        651        652        669        668        652        653        670        669        653        654        671        670        654        655        672        671        655        656        673        672        656        657        674        673        657        658        675        674        658        659        676        675        659        660        677        676        660        661        678        677        661        662        679        678        663        664        681        680        664        665        682        681        665        666        683        682        666        667        684        683        667        668        685        684        668        669        686        685        669        670        687        686        670        671        688        687        671        672        689        688        672        673        690        689        673        674        691        690        674        675        692        691        675        676        693        692        676        677        694        693        677        678        695        694        678        679        696        695        680        681        698        697        681        682        699        698        682        683        700        699        683        684        701        700        684        685        702        701        685        686        703        702        686        687        704        703        687        688        705        704        688        689        706        705        689        690        707        706        690        691        708        707        691        692        709        708        692        693        710        709        693        694        711        710        694        695        712        711        695        696        713        712        697        698        715        714        698        699        716        715        699        700        717        716        700        701        718        717        701        702        719        718        702        703        720        719        703        704        721        720        704        705        722        721        705        706        723        722        706        707        724        723        707        708        725        724        708        709        726        725        709        710        727        726        710        711        728        727        711        712        729        728        712        713        730        729        714        715        732        731        715        716        733        732        716        717        734        733        717        718        735        734        718        719        736        735        719        720        737        736        720        721        738        737        721        722        739        738        722        723        740        739        723        724        741        740        724        725        742        741        725        726        743        742        726        727        744        743        727        728        745        744        728        729        746        745        729        730        747        746        731        732        749        748        732        733        750        749        733        734        751        750        734        735        752        751        735        736        753        752        736        737        754        753        737        738        755        754        738        739        756        755        739        740        757        756        740        741        758        757        741        742        759        758        742        743        760        759        743        744        761        760        744        745        762        761        745        746        763        762        746        747        764        763        748        749        766        765        749        750        767        766        750        751        768        767        751        752        769        768        752        753        770        769        753        754        771        770        754        755        772        771        755        756        773        772        756        757        774        773        757        758        775        774        758        759        776        775        759        760        777        776        760        761        778        777        761        762        779        778        762        763        780        779        763        764        781        780        765        766        783        782        766        767        784        783        767        768        785        784        768        769        786        785        769        770        787        786        770        771        788        787        771        772        789        788        772        773        790        789        773        774        791        790        774        775        792        791        775        776        793        792        776        777        794        793        777        778        795        794        778        779        796        795        779        780        797        796        780        781        798        797        782        783        800        799        783        784        801        800        784        785        802        801        785        786        803        802        786        787        804        803        787        788        805        804        788        789        806        805        789        790        807        806        790        791        808        807        791        792        809        808        792        793        810        809        793        794        811        810        794        795        812        811        795        796        813        812        796        797        814        813        797        798        815        814        799        800        817        816        800        801        818        817        801        802        819        818        802        803        820        819        803        804        821        820        804        805        822        821        805        806        823        822        806        807        824        823        807        808        825        824        808        809        826        825        809        810        827        826        810        811        828        827        811        812        829        828        812        813        830        829        813        814        831        830        814        815        832        831        816        817        834        833        817        818        835        834        818        819        836        835        819        820        837        836        820        821        838        837        821        822        839        838        822        823        840        839        823        824        841        840        824        825        842        841        825        826        843        842        826        827        844        843        827        828        845        844        828        829        846        845        829        830        847        846        830        831        848        847        831        832        849        848        833        834        562        561        834        835        563        562        835        836        564        563        836        837        565        564        837        838        566        565        838        839        567        566        839        840        568        567        840        841        569        568        841        842        570        569        842        843        571        570        843        844        572        571        844        845        573        572        845        846        574        573        846        847        575        574        847        848        576        575        848        849        577        576        884        885        579        578        885        886        580        579        886        887        581        580        887        888        582        581        888        889        583        582        889        890        584        583        890        891        585        584        891        892        586        585        892        893        587        586        893        894        588        587        894        895        589        588        895        896        590        589        896        897        591        590        897        898        592        591        898        899        593        592        899        900        594        593        901        902        885        884        902        903        886        885        903        904        887        886        904        905        888        887        905        906        889        888        906        907        890        889        907        908        891        890        908        909        892        891        909        910        893        892        910        911        894        893        911        912        895        894        912        913        896        895        913        914        897        896        914        915        898        897        915        916        899        898        916        917        900        899        918        919        902        901        919        920        903        902        920        921        904        903        921        922        905        904        922        923        906        905        923        924        907        906        924        925        908        907        925        926        909        908        926        927        910        909        927        928        911        910        928        929        912        911        929        930        913        912        930        931        914        913        931        932        915        914        932        933        916        915        933        934        917        916        935        936        919        918        936        937        920        919        937        938        921        920        938        939        922        921        939        940        923        922        940        941        924        923        941        942        925        924        942        943        926        925        943        944        927        926        944        945        928        927        945        946        929        928        946        947        930        929        947        948        931        930        948        949        932        931        949        950        933        932        950        951        934        933        952        953        936        935        953        954        937        936        954        955        938        937        955        956        939        938        956        957        940        939        957        958        941        940        958        959        942        941        959        960        943        942        960        961        944        943        961        962        945        944        962        963        946        945        963        964        947        946        964        965        948        947        965        966        949        948        966        967        950        949        967        968        951        950        969        970        953        952        970        971        954        953        971        972        955        954        972        973        956        955        973        974        957        956        974        975        958        957        975        976        959        958        976        977        960        959        977        978        961        960        978        979        962        961        979        980        963        962        980        981        964        963        981        982        965        964        982        983        966        965        983        984        967        966        984        985        968        967        986        987        970        969        987        988        971        970        988        989        972        971        989        990        973        972        990        991        974        973        991        992        975        974        992        993        976        975        993        994        977        976        994        995        978        977        995        996        979        978        996        997        980        979        997        998        981        980        998        999        982        981        999       1000        983        982       1000       1001        984        983       1001       1002        985        984       1003       1004        987        986       1004       1005        988        987       1005       1006        989        988       1006       1007        990        989       1007       1008        991        990       1008       1009        992        991       1009       1010        993        992       1010       1011        994        993       1011       1012        995        994       1012       1013        996        995       1013       1014        997        996       1014       1015        998        997       1015       1016        999        998       1016       1017       1000        999       1017       1018       1001       1000       1018       1019       1002       1001       1020       1021       1004       1003       1021       1022       1005       1004       1022       1023       1006       1005       1023       1024       1007       1006       1024       1025       1008       1007       1025       1026       1009       1008       1026       1027       1010       1009       1027       1028       1011       1010       1028       1029       1012       1011       1029       1030       1013       1012       1030       1031       1014       1013       1031       1032       1015       1014       1032       1033       1016       1015       1033       1034       1017       1016       1034       1035       1018       1017       1035       1036       1019       1018       1037       1038       1021       1020       1038       1039       1022       1021       1039       1040       1023       1022       1040       1041       1024       1023       1041       1042       1025       1024       1042       1043       1026       1025       1043       1044       1027       1026       1044       1045       1028       1027       1045       1046       1029       1028       1046       1047       1030       1029       1047       1048       1031       1030       1048       1049       1032       1031       1049       1050       1033       1032       1050       1051       1034       1033       1051       1052       1035       1034       1052       1053       1036       1035       1054       1055       1038       1037       1055       1056       1039       1038       1056       1057       1040       1039       1057       1058       1041       1040       1058       1059       1042       1041       1059       1060       1043       1042       1060       1061       1044       1043       1061       1062       1045       1044       1062       1063       1046       1045       1063       1064       1047       1046       1064       1065       1048       1047       1065       1066       1049       1048       1066       1067       1050       1049       1067       1068       1051       1050       1068       1069       1052       1051       1069       1070       1053       1052       1071       1072       1055       1054       1072       1073       1056       1055       1073       1074       1057       1056       1074       1075       1058       1057       1075       1076       1059       1058       1076       1077       1060       1059       1077       1078       1061       1060       1078       1079       1062       1061       1079       1080       1063       1062       1080       1081       1064       1063       1081       1082       1065       1064       1082       1083       1066       1065       1083       1084       1067       1066       1084       1085       1068       1067       1085       1086       1069       1068       1086       1087       1070       1069       1088       1089       1072       1071       1089       1090       1073       1072       1090       1091       1074       1073       1091       1092       1075       1074       1092       1093       1076       1075       1093       1094       1077       1076       1094       1095       1078       1077       1095       1096       1079       1078       1096       1097       1080       1079       1097       1098       1081       1080       1098       1099       1082       1081       1099       1100       1083       1082       1100       1101       1084       1083       1101       1102       1085       1084       1102       1103       1086       1085       1103       1104       1087       1086       1105       1106       1089       1088       1106       1107       1090       1089       1107       1108       1091       1090       1108       1109       1092       1091       1109       1110       1093       1092       1110       1111       1094       1093       1111       1112       1095       1094       1112       1113       1096       1095       1113       1114       1097       1096       1114       1115       1098       1097       1115       1116       1099       1098       1116       1117       1100       1099       1117       1118       1101       1100       1118       1119       1102       1101       1119       1120       1103       1102       1120       1121       1104       1103       1122       1123       1106       1105       1123       1124       1107       1106       1124       1125       1108       1107       1125       1126       1109       1108       1126       1127       1110       1109       1127       1128       1111       1110       1128       1129       1112       1111       1129       1130       1113       1112       1130       1131       1114       1113       1131       1132       1115       1114       1132       1133       1116       1115       1133       1134       1117       1116       1134       1135       1118       1117       1135       1136       1119       1118       1136       1137       1120       1119       1137       1138       1121       1120        272        273       1123       1122        273        274       1124       1123        274        275       1125       1124        275        276       1126       1125        276        277       1127       1126        277        278       1128       1127        278        279       1129       1128        279        280       1130       1129        280        281       1131       1130        281        282       1132       1131        282        283       1133       1132        283        284       1134       1133        284        285       1135       1134        285        286       1136       1135        286        287       1137       1136        287        288       1138       1137 </DataArray>
<DataArray type="Int32"                                    Name="offsets"                                                      NumberOfComponents=" 1" format="ascii">
         4          8         12         16         20         24         28         32         36         40         44         48         52         56         60         64         68         72         76         80         84         88         92         96        100        104        108        112        116        120        124        128        132        136        140        144        148        152        156        160        164        168        172        176        180        184        188        192        196        200        204        208        212        216        220        224        228        232        236        240        244        248        252        256        260        264        268        272        276        280        284        288        292        296        300        304        308        312        316        320        324        328        332        336        340        344        348        352        356        360        364        368        372        376        380        384        388        392        396        400        404        408        412        416        420        424        428        432        436        440        444        448        452        456        460        464        468        472        476        480        484        488        492        496        500        504        508        512        516        520        524        528        532        536        540        544        548        552        556        560        564        568        572        576        580        584        588        592        596        600        604        608        612        616        620        624        628        632        636        640        644        648        652        656        660        664        668        672        676        680        684        688        692        696        700        704        708        712        716        720        724        728        732        736        740        744        748        752        756        760        764        768        772        776        780        784        788        792        796        800        804        808        812        816        820        824        828        832        836        840        844        848        852        856        860        864        868        872        876        880        884        888        892        896        900        904        908        912        916        920        924        928        932        936        940        944        948        952        956        960        964        968        972        976        980        984        988        992        996       1000       1004       1008       1012       1016       1020       1024       1028       1032       1036       1040       1044       1048       1052       1056       1060       1064       1068       1072       1076       1080       1084       1088       1092       1096       1100       1104       1108       1112       1116       1120       1124       1128       1132       1136       1140       1144       1148       1152       1156       1160       1164       1168       1172       1176       1180       1184       1188       1192       1196       1200       1204       1208       1212       1216       1220       1224       1228       1232       1236       1240       1244       1248       1252       1256       1260       1264       1268       1272       1276       1280       1284       1288       1292       1296       1300       1304       1308       1312       1316       1320       1324       1328       1332       1336       1340       1344       1348       1352       1356       1360       1364       1368       1372       1376       1380       1384       1388       1392       1396       1400       1404       1408       1412       1416       1420       1424       1428       1432       1436       1440       1444       1448       1452       1456       1460       1464       1468       1472       1476       1480       1484       1488       1492       1496       1500       1504       1508       1512       1516       1520       1524       1528       1532       1536       1540       1544       1548       1552       1556       1560       1564       1568       1572       1576       1580       1584       1588       1592       1596       1600       1604       1608       1612       1616       1620       1624       1628       1632       1636       1640       1644       1648       1652       1656       1660       1664       1668       1672       1676       1680       1684       1688       1692       1696       1700       1704       1708       1712       1716       1720       1724       1728       1732       1736       1740       1744       1748       1752       1756       1760       1764       1768       1772       1776       1780       1784       1788       1792       1796       1800       1804       1808       1812       1816       1820       1824       1828       1832       1836       1840       1844       1848       1852       1856       1860       1864       1868       1872       1876       1880       1884       1888       1892       1896       1900       1904       1908       1912       1916       1920       1924       1928       1932       1936       1940       1944       1948       1952       1956       1960       1964       1968       1972       1976       1980       1984       1988       1992       1996       2000       2004       2008       2012       2016       2020       2024       2028       2032       2036       2040       2044       2048       2052       2056       2060       2064       2068       2072       2076       2080       2084       2088       2092       2096       2100       2104       2108       2112       2116       2120       2124       2128       2132       2136       2140       2144       2148       2152       2156       2160       2164       2168       2172       2176       2180       2184       2188       2192       2196       2200       2204       2208       2212       2216       2220       2224       2228       2232       2236       2240       2244       2248       2252       2256       2260       2264       2268       2272       2276       2280       2284       2288       2292       2296       2300       2304       2308       2312       2316       2320       2324       2328       2332       2336       2340       2344       2348       2352       2356       2360       2364       2368       2372       2376       2380       2384       2388       2392       2396       2400       2404       2408       2412       2416       2420       2424       2428       2432       2436       2440       2444       2448       2452       2456       2460       2464       2468       2472       2476       2480       2484       2488       2492       2496       2500       2504       2508       2512       2516       2520       2524       2528       2532       2536       2540       2544       2548       2552       2556       2560       2564       2568       2572       2576       2580       2584       2588       2592       2596       2600       2604       2608       2612       2616       2620       2624       2628       2632       2636       2640       2644       2648       2652       2656       2660       2664       2668       2672       2676       2680       2684       2688       2692       2696       2700       2704       2708       2712       2716       2720       2724       2728       2732       2736       2740       2744       2748       2752       2756       2760       2764       2768       2772       2776       2780       2784       2788       2792       2796       2800       2804       2808       2812       2816       2820       2824       2828       2832       2836       2840       2844       2848       2852       2856       2860       2864       2868       2872       2876       2880       2884       2888       2892       2896       2900       2904       2908       2912       2916       2920       2924       2928       2932       2936       2940       2944       2948       2952       2956       2960       2964       2968       2972       2976       2980       2984       2988       2992       2996       3000       3004       3008       3012       3016       3020       3024       3028       3032       3036       3040       3044       3048       3052       3056       3060       3064       3068       3072       3076       3080       3084       3088       3092       3096       3100       3104       3108       3112       3116       3120       3124       3128       3132       3136       3140       3144       3148       3152       3156       3160       3164       3168       3172       3176       3180       3184       3188       3192       3196       3200       3204       3208       3212       3216       3220       3224       3228       3232       3236       3240       3244       3248       3252       3256       3260       3264       3268       3272       3276       3280       3284       3288       3292       3296       3300       3304       3308       3312       3316       3320       3324       3328       3332       3336       3340       3344       3348       3352       3356       3360       3364       3368       3372       3376       3380       3384       3388       3392       3396       3400       3404       3408       3412       3416       3420       3424       3428       3432       3436       3440       3444       3448       3452       3456       3460       3464       3468       3472       3476       3480       3484       3488       3492       3496       3500       3504       3508       3512       3516       3520       3524       3528       3532       3536       3540       3544       3548       3552       3556       3560       3564       3568       3572       3576       3580       3584       3588       3592       3596       3600       3604       3608       3612       3616       3620       3624       3628       3632       3636       3640       3644       3648       3652       3656       3660       3664       3668       3672       3676       3680       3684       3688       3692       3696       3700       3704       3708       3712       3716       3720       3724       3728       3732       3736       3740       3744       3748       3752       3756       3760       3764       3768       3772       3776       3780       3784       3788       3792       3796       3800       3804       3808       3812       3816       3820       3824       3828       3832       3836       3840       3844       3848       3852       3856       3860       3864       3868       3872       3876       3880       3884       3888       3892       3896       3900       3904       3908       3912       3916       3920       3924       3928       3932       3936       3940       3944       3948       3952       3956       3960       3964       3968       3972       3976       3980       3984       3988       3992       3996       4000       4004       4008       4012       4016       4020       4024       4028       4032       4036       4040       4044       4048       4052       4056       4060       4064       4068       4072       4076       4080       4084       4088       4092       4096 </DataArray>
<DataArray type="UInt8"                                    Name="types"                                                      NumberOfComponents=" 1" format="ascii">
         9          9          9          9          9          9          9          9          9          9          9          9          9          9          9          9          9          9          9          9          9          9          9          9          9          9          9          9          9          9          9          9          9          9          9          9          9          9          9          9          9          9          9          9          9          9          9          9          9          9          9          9          9          9          9          9          9          9          9          9          9          9          9          9          9          9          9          9          9          9          9          9          9          9          9          9          9          9          9          9          9          9          9          9          9          9          9          9          9          9          9          9          9          9          9          9          9          9          9          9          9          9          9          9          9          9          9          9          9          9          9          9          9          9          9          9          9          9          9          9          9          9          9          9          9          9          9          9          9          9          9          9          9          9          9          9          9          9          9          9          9          9          9          9          9          9          9          9          9          9          9          9          9          9          9          9          9          9          9          9          9          9          9          9          9          9          9          9          9          9          9          9          9          9          9          9          9          9          9          9          9          9          9          9          9          9          9          9          9          9          9          9          9          9          9          9          9          9          9          9          9          9          9          9          9          9          9          9          9          9          9          9          9          9          9          9          9          9          9          9          9          9          9          9          9          9          9          9          9          9          9          9          9          9          9          9          9          9          9          9          9          9          9          9          9          9          9          9          9          9          9          9          9          9          9          9          9          9          9          9          9          9          9          9          9          9          9          9          9          9          9          9          9          9          9          9          9          9          9          9          9          9          9          9          9          9          9          9          9          9          9          9          9          9          9          9          9          9          9          9          9          9          9          9          9          9          9          9          9          9          9          9          9          9          9          9          9          9          9          9          9          9          9          9          9          9          9          9          9          9          9          9          9          9          9          9          9          9          9          9          9          9          9          9          9          9          9          9          9          9          9          9          9          9          9          9          9          9          9          9          9          9          9          9          9          9          9          9          9          9          9          9          9          9          9          9          9          9          9          9          9          9          9          9          9          9          9          9          9          9          9          9          9          9          9          9          9          9          9          9          9          9          9          9          9          9          9          9          9          9          9          9          9          9          9          9          9          9          9          9          9          9          9          9          9          9          9          9          9          9          9          9          9          9          9          9          9          9          9          9          9          9          9          9          9          9          9          9          9          9          9          9          9          9          9          9          9          9          9          9          9          9          9          9          9          9          9          9          9          9          9          9          9          9          9          9          9          9          9          9          9          9          9          9          9          9          9          9          9          9          9          9          9          9          9          9          9          9          9          9          9          9          9          9          9          9          9          9          9          9          9          9          9          9          9          9          9          9          9          9          9          9          9          9          9          9          9          9          9          9          9          9          9          9          9          9          9          9          9          9          9          9          9          9          9          9          9          9          9          9          9          9          9          9          9          9          9          9          9          9          9          9          9          9          9          9          9          9          9          9          9          9          9          9          9          9          9          9          9          9          9          9          9          9          9          9          9          9          9          9          9          9          9          9          9          9          9          9          9          9          9          9          9          9          9          9          9          9          9          9          9          9          9          9          9          9          9          9          9          9          9          9          9          9          9          9          9          9          9          9          9          9          9          9          9          9          9          9          9          9          9          9          9          9          9          9          9          9          9          9          9          9          9          9          9          9          9          9          9          9          9          9          9          9          9          9          9          9          9          9          9          9          9          9          9          9          9          9          9          9          9          9          9          9          9          9          9          9          9          9          9          9          9          9          9          9          9          9          9          9          9          9          9          9          9          9          9          9          9          9          9          9          9          9          9          9          9          9          9          9          9          9          9          9          9          9          9          9          9          9          9          9          9          9          9          9          9          9          9          9          9          9          9          9          9          9          9          9          9          9          9          9          9          9          9          9          9          9          9          9          9          9          9          9          9          9          9          9          9          9          9          9          9          9          9          9          9          9          9          9          9          9          9          9          9          9          9          9          9          9          9          9          9          9          9          9          9          9          9          9          9          9          9          9          9          9          9          9          9          9          9          9          9          9          9          9          9          9          9          9          9          9          9          9          9          9          9          9          9          9          9          9          9          9          9          9          9          9          9          9          9          9          9          9          9          9          9          9          9          9          9          9          9          9          9          9          9          9          9          9          9          9          9          9          9          9          9          9          9          9          9          9          9          9          9          9          9          9          9          9          9          9          9          9          9          9          9          9          9          9          9          9          9          9          9          9          9          9          9          9          9          9          9          9          9          9          9          9          9          9          9          9          9          9          9          9          9          9          9          9          9          9          9          9          9          9          9          9          9          9          9          9          9          9          9          9          9          9          9          9          9          9          9          9          9          9          9          9          9          9          9          9          9          9          9          9          9          9          9          9          9          9          9          9          9          9          9          9          9          9          9          9          9          9          9          9          9          9          9          9          9          9          9          9          9          9          9          9          9          9          9          9          9          9          9          9          9          9          9          9          9          9          9          9          9          9          9          9          9          9          9          9          9          9          9          9          9          9          9          9          9          9          9          9 </DataArray>
</Cells>
<CellData>
<DataArray type="Int32"                                    Name="material"                                                      NumberOfComponents=" 1" format="ascii">
         1          1          1          1          1          1          1          1          1          1          1          1          1          1          1          1          1          1          1          1          1          1          1          1          1          1          1          1          1          1          1          1          1          1          1          1          1          1          1          1          1          1          1          1          1          1          1          1          1          1          1          1          1          1          1          1          1          1          1          1          1          1          1          1          1          1          1          1          1          1          1          1          1          1          1          1          1          1          1          1          1          1          1          1          1          1          1          1          1          1          1          1          1          1          1          1          1          1          1          1          1          1          1          1          1          1          1          1          1          1          1          1          1          1          1          1          1          1          1          1          1          1          1          1          1          1          1          1          1          1          1          1          1          1          1          1          1          1          1          1          1          1          1          1          1          1          1          1          1          1          1          1          1          1          1          1          1          1          1          1          1          1          1          1          1          1          1          1          1          1          1          1          1          1          1          1          1          1          1          1          1          1          1          1          1          1          1          1          1          1          1          1          1          1          1          1          1          1          1          1          1          1          1          1          1          1          1          1          1          1          1          1          1          1          1          1          1          1          1          1          1          1          1          1          1          1          1          1          1          1          1          1          1          1          1          1          1          1          1          1          1          1          1          1          1          1          1          1          1          1          1          1          1          1          1          1          1          1          1          1          1          1          1          1          1          1          1          1          1          1          1          1          1          1          1          1          1          1          1          1          1          1          1          1          1          1          1          1          1          1          1          1          1          1          1          1          1          1          1          1          1          1          1          1          1          1          1          1          1          1          1          1          1          1          1          1          1          1          1          1          1          1          1          1          1          1          1          1          1          1          1          1          1          1          1          1          1          1          1          1          1          1          1          1          1          1          1          1          1          1          1          1          1          1          1          1          1          1          1          1          1          1          1          1          1          1          1          1          1          1          1          1          1          1          1          1          1          1          1          1          1          1          1          1          1          1          1          1          1          1          1          1          1          1          1          1          1          1          1          1          1          1          1          1          1          1          1          1          1          1          1          1          1          1          1          1          1          1          1          1          1          1          1          1          1          1          1          1          1          1          1          1          1          1          1          1          1          1          1          1          1          1          1          1          1          1          1          1          1          1          1          1          1          1          1          1          1          1          1          1          1          1          1          1          1          1          1          1          1          1          1          1          1          1          1          1          1          1          1          1          1          1          1          1          1          1          1          1          1          1          1          1          1          1          1          1          1          1          1          1          1          1          1          1          1          1          1          1          1          1          1          1          1          1          1          1          1          1          1          1          1          1          1          1          1          1          1          1          1          1          1          1          1          1          1          1          1          1          1          1          1          1          1          1          1          1          1          1          1          1          1          1          1          1          1          1          1          1          1          1          1          1          1          1          1          1          1          1          1          1          1          1          1          1          1          1          1          1          1          1          1          1          1          1          1          1          1          1          1          1          1          1          1          1          1          1          1          1          1          1          1          1          1          1          1          1          1          1          1          1          1          1          1          1          1          1          1          1          1          1          1          1          1          1          1          1          1          1          1          1          1          1          1          1          1          1          1          1          1          1          1          1          1          1          1          1          1          1          1          1          1          1          1          1          1          1          1          1          1          1          1          1          1          1          1          1          1          1          1          1          1          1          1          1          1          1          1          1          1          1          1          1          1          1          1          1          1          1          1          1          1          1          1          1          1          1          1          1          1          1          1          1          1          1          1          1          1          1          1          1          1          1          1          1          1          1          1          1          1          1          1          1          1          1          1          1          1          1          1          1          1          1          1          1          1          1          1          1          1          1          1          1          1          1          1          1          1          1          1          1          1          1          1          1          1          1          1          1          1          1          1          1          1          1          1          1          1          1          1          1          1          1          1          1          1          1          1          1          1          1          1          1          1          1          1          1          1          1          1          1          1          1          1          1          1          1          1          1          1          1          1          1          1          1          1          1          1          1          1          1          1          1          1          1          1          1          1          1          1          1          1          1          1          1          1          1          1          1          1          1          1          1          1          1          1          1          1          1          1          1          1          1          1          1          1          1          1          1          1          1          1          1          1          1          1          1          1          1          1          1          1          1          1          1          1          1          1          1          1          1          1          1          1          1          1          1          1          1          1          1          1          1          1          1          1          1          1          1          1          1          1          1          1          1          1          1          1          1          1          1          1          1          1          1          1          1          1          1          1          1          1          1          1          1          1          1          1          1          1          1          1          1          1          1          1          1          1          1          1          1          1          1          1          1          1          1          1          1          1          1          1          1          1          1          1          1          1          1          1          1          1          1          1          1          1          1          1          1          1          1          1          1          1          1          1          1          1          1          1          1          1          1          1          1          1          1          1          1          1          1          1          1          1          1          1          1          1          1          1          1          1          1          1          1          1          1          1          1          1          1          1          1          1          1          1          1          1          1          1          1          1          1          1          1          1          1          1          1          1          1          1          1          1          1 </DataArray>
</CellData>
<PointData>
<DataArray type="Float64"                                    Name="u"                                                      NumberOfComponents=" 3" format="ascii">
             -0.000117757              -0.000000000               0.999999992              -0.000142841               0.000000000               0.999999992              -0.000154557              -0.000000000               0.999999992              -0.000161307               0.000000000               0.999999992              -0.000166396               0.000000000               0.999999992              -0.000171254               0.000000000               0.999999992              -0.000176605               0.000000000               0.999999992              -0.000182735               0.000000000               0.999999992              -0.000189778               0.000000000               0.999999992              -0.000197681              -0.000000000               0.999999992              -0.000206435               0.000000000               0.999999992              -0.000216066               0.000000000               0.999999992              -0.000226610               0.000000000               0.999999992              -0.000238017               0.000000000               0.999999992              -0.000250244               0.000000000               0.999999992              -0.000263319               0.000000000               0.999999992              -0.000276999               0.000000000               0.999999992              -0.000117046               0.000063120               0.999999992              -0.000140852               0.000054738               0.999999992              -0.000151806               0.000052142               0.999999992              -0.000158123               0.000052698               0.999999992              -0.000163017               0.000055109               0.999999992              -0.000167841               0.000058550               0.999999992              -0.000173183               0.000062760               0.999999992              -0.000179279               0.000067470               0.999999992              -0.000186281               0.000072570               0.999999992              -0.000194193               0.000077886               0.999999992              -0.000202959               0.000083295               0.999999992              -0.000212594               0.000088773               0.999999992              -0.000223110               0.000094253               0.999999992              -0.000234477               0.000099677               0.999999992              -0.000246689               0.000104938               0.999999992              -0.000259630               0.000109713               0.999999992              -0.000273122               0.000113558               0.999999992              -0.000114969               0.000125541               0.999999992              -0.000135033               0.000108858               0.999999992              -0.000143838               0.000104018               0.999999992              -0.000149108               0.000105427               0.999999992              -0.000153590               0.000110392               0.999999992              -0.000158373               0.000117413               0.999999992              -0.000163867               0.000125865               0.999999992              -0.000170185               0.000135364               0.999999992              -0.000177416               0.000145522               0.999999992              -0.000185539               0.000156020               0.999999992              -0.000194495               0.000166794               0.999999992              -0.000204293               0.000177757               0.999999992              -0.000214953               0.000188774               0.999999992              -0.000226376               0.000199749               0.999999992              -0.000238539               0.000210468               0.999999992              -0.000251324               0.000220503               0.999999992              -0.000264554               0.000229281               0.999999992              -0.000111478               0.000186589               0.999999992              -0.000125664               0.000161929               0.999999992              -0.000131521               0.000155450               0.999999992              -0.000135566               0.000158205               0.999999992              -0.000139766               0.000166020               0.999999992              -0.000144732               0.000176828               0.999999992              -0.000150659               0.000189621               0.999999992              -0.000157578               0.000203808               0.999999992              -0.000165432               0.000218849               0.999999992              -0.000174150               0.000234487               0.999999992              -0.000183662               0.000250548               0.999999992              -0.000193959               0.000266999               0.999999992              -0.000205031               0.000283657               0.999999992              -0.000216725               0.000300278               0.999999992              -0.000228955               0.000316600               0.999999992              -0.000241614               0.000332178               0.999999992              -0.000254567               0.000346537               0.999999992              -0.000106719               0.000245562               0.999999992              -0.000113364               0.000213656               0.999999992              -0.000116122               0.000206332               0.999999992              -0.000119245               0.000210950               0.999999992              -0.000123501               0.000221973               0.999999992              -0.000128977               0.000236735               0.999999992              -0.000135739               0.000253875               0.999999992              -0.000143634               0.000272679               0.999999992              -0.000152482               0.000292547               0.999999992              -0.000162154               0.000313135               0.999999992              -0.000172493               0.000334364               0.999999992              -0.000183449               0.000356225               0.999999992              -0.000194961               0.000378404               0.999999992              -0.000206923               0.000400604               0.999999992              -0.000219177               0.000422532               0.999999992              -0.000231631               0.000443688               0.999999992              -0.000244287               0.000463888               0.999999992              -0.000100888               0.000301877               0.999999992              -0.000098984               0.000263755               0.999999992              -0.000098962               0.000256501               0.999999992              -0.000101651               0.000263424               0.999999992              -0.000106478               0.000277777               0.999999992              -0.000113011               0.000296555               0.999999992              -0.000121085               0.000318065               0.999999992              -0.000130359               0.000341459               0.999999992              -0.000140469               0.000366042               0.999999992              -0.000151239               0.000391357               0.999999992              -0.000162478               0.000417579               0.999999992              -0.000174168               0.000444595               0.999999992              -0.000186265               0.000471898               0.999999992              -0.000198603               0.000499292               0.999999992              -0.000211091               0.000526300               0.999999992              -0.000223621               0.000552735               0.999999992              -0.000236212               0.000578511               0.999999992              -0.000094030               0.000355076               0.999999992              -0.000083284               0.000312113               0.999999992              -0.000081234               0.000305678               0.999999992              -0.000084228               0.000315153               0.999999992              -0.000090296               0.000332822               0.999999992              -0.000098498               0.000355564               0.999999992              -0.000108261               0.000381367               0.999999992              -0.000119065               0.000409131               0.999999992              -0.000130499               0.000438076               0.999999992              -0.000142367               0.000468103               0.999999992              -0.000154604               0.000499082               0.999999992              -0.000167162               0.000530811               0.999999992              -0.000179934               0.000562842               0.999999992              -0.000192793               0.000594793               0.999999992              -0.000205581               0.000626347               0.999999992              -0.000218267               0.000657352               0.999999992              -0.000230762               0.000687775               0.999999992              -0.000086434               0.000404487               0.999999992              -0.000067161               0.000358531               0.999999992              -0.000064149               0.000353403               0.999999992              -0.000068402               0.000365383               0.999999992              -0.000076286               0.000386305               0.999999992              -0.000086417               0.000412870               0.999999992              -0.000097886               0.000442805               0.999999992              -0.000110129               0.000474750               0.999999992              -0.000122792               0.000508081               0.999999992              -0.000135788               0.000542509               0.999999992              -0.000149020               0.000577846               0.999999992              -0.000162398               0.000613896               0.999999992              -0.000175734               0.000650069               0.999999992              -0.000188875               0.000686063               0.999999992              -0.000201712               0.000721718               0.999999992              -0.000214152               0.000756730               0.999999992              -0.000226156               0.000791055               0.999999992              -0.000078489               0.000449301               0.999999992              -0.000051298               0.000402873               0.999999992              -0.000048857               0.000399037               0.999999992              -0.000054878               0.000413422               0.999999992              -0.000064742               0.000437618               0.999999992              -0.000076729               0.000467918               0.999999992              -0.000089873               0.000501822               0.999999992              -0.000103463               0.000537792               0.999999992              -0.000117234               0.000575250               0.999999992              -0.000131071               0.000613913               0.999999992              -0.000145039               0.000653395               0.999999992              -0.000158899               0.000693333               0.999999992              -0.000172402               0.000733350               0.999999992              -0.000185520               0.000773070               0.999999992              -0.000198208               0.000812297               0.999999992              -0.000210509               0.000850860               0.999999992              -0.000222530               0.000888695               0.999999992              -0.000070837               0.000491176               0.999999992              -0.000039168               0.000449628               0.999999992              -0.000034486               0.000442026               0.999999992              -0.000039185               0.000452056               0.999999992              -0.000047800               0.000471996               0.999999992              -0.000058727               0.000498117               0.999999992              -0.000070840               0.000528316               0.999999992              -0.000083256               0.000560974               0.999999992              -0.000095693               0.000595364               0.999999992              -0.000107891               0.000631010               0.999999992              -0.000120168               0.000667587               0.999999992              -0.000132439               0.000704872               0.999999992              -0.000144462               0.000742458               0.999999992              -0.000156080               0.000780098               0.999999992              -0.000167282               0.000817567               0.999999992              -0.000178143               0.000854727               0.999999992              -0.000188980               0.000891407               0.999999992              -0.000062331               0.000528770               0.999999992              -0.000029047               0.000494195               0.999999992              -0.000021967               0.000485354               0.999999992              -0.000024903               0.000492059               0.999999992              -0.000032130               0.000508346               0.999999992              -0.000041638               0.000530855               0.999999992              -0.000052440               0.000557576               0.999999992              -0.000063590               0.000587061               0.999999992              -0.000074521               0.000618522               0.999999992              -0.000085174               0.000651326               0.999999992              -0.000095676               0.000685247               0.999999992              -0.000106163               0.000719904               0.999999992              -0.000116542               0.000755069               0.999999992              -0.000126384               0.000790380               0.999999992              -0.000135694               0.000825742               0.999999992              -0.000144491               0.000860987               0.999999992              -0.000153010               0.000896232               0.999999992              -0.000053181               0.000561391               0.999999992              -0.000020841               0.000535356               0.999999992              -0.000012009               0.000527186               0.999999992              -0.000013060               0.000531885               0.999999992              -0.000018637               0.000545442               0.999999992              -0.000026523               0.000565009               0.999999992              -0.000035637               0.000588894               0.999999992              -0.000045258               0.000615692               0.999999992              -0.000054670               0.000644506               0.999999992              -0.000063725               0.000674822               0.999999992              -0.000072536               0.000706292               0.999999992              -0.000081211               0.000738639               0.999999992              -0.000089658               0.000771573               0.999999992              -0.000097517               0.000804827               0.999999992              -0.000104482               0.000838202               0.999999992              -0.000110553               0.000871623               0.999999992              -0.000115707               0.000905196               0.999999992              -0.000043421               0.000588575               0.999999992              -0.000014432               0.000571584               0.999999992              -0.000004908               0.000565694               0.999999992              -0.000004319               0.000569665               0.999999992              -0.000008178               0.000581368               0.999999992              -0.000014219               0.000598791               0.999999992              -0.000021537               0.000620411               0.999999992              -0.000029417               0.000645125               0.999999992              -0.000037125               0.000671957               0.999999992              -0.000044556               0.000700344               0.999999992              -0.000051715               0.000729877               0.999999992              -0.000058539               0.000760379               0.999999992              -0.000064991               0.000791600               0.999999992              -0.000070713               0.000823251               0.999999992              -0.000075267               0.000855179               0.999999992              -0.000078393               0.000887259               0.999999992              -0.000079740               0.000919454               0.999999992              -0.000033166               0.000609956               0.999999992              -0.000009500               0.000601421               0.999999992              -0.000000649               0.000598728               0.999999992               0.000000947               0.000603078               0.999999992              -0.000001356               0.000613769               0.999999992              -0.000005630               0.000629623               0.999999992              -0.000010999               0.000649575               0.999999992              -0.000016893               0.000672687               0.999999992              -0.000022790               0.000698136               0.999999992              -0.000028521               0.000725223               0.999999992              -0.000034058               0.000753541               0.999999992              -0.000039204               0.000782888               0.999999992              -0.000043711               0.000813017               0.999999992              -0.000047380               0.000843711               0.999999992              -0.000049849               0.000874841               0.999999992              -0.000050488               0.000906237               0.999999992              -0.000048824               0.000937780               0.999999992              -0.000022419               0.000625517               0.999999992              -0.000005686               0.000623702               0.999999992               0.000001128               0.000624070               0.999999992               0.000002854               0.000629386               0.999999992               0.000001704               0.000639802               0.999999992              -0.000000910               0.000654793               0.999999992              -0.000004276               0.000673638               0.999999992              -0.000008181               0.000695609               0.999999992              -0.000012161               0.000719979               0.999999992              -0.000016071               0.000746226               0.999999992              -0.000019889               0.000773898               0.999999992              -0.000023440               0.000802692               0.999999992              -0.000026387               0.000832430               0.999999992              -0.000028486               0.000862802               0.999999992              -0.000029390               0.000893652               0.999999992              -0.000028569               0.000924897               0.999999992              -0.000025382               0.000956332               0.999999992              -0.000011302               0.000634997               0.999999992              -0.000002656               0.000637518               0.999999992               0.000001074               0.000640001               0.999999992               0.000002115               0.000646167               0.999999992               0.000001706               0.000656663               0.999999992               0.000000474               0.000671323               0.999999992              -0.000001105               0.000689559               0.999999992              -0.000003019               0.000710804               0.999999992              -0.000004972               0.000734525               0.999999992              -0.000006999               0.000760145               0.999999992              -0.000008979               0.000787399               0.999999992              -0.000010832               0.000816092               0.999999992              -0.000012388               0.000845929               0.999999992              -0.000013353               0.000876674               0.999999992              -0.000013462               0.000908002               0.999999992              -0.000012399               0.000939614               0.999999992              -0.000009690               0.000971234               0.999999992              -0.000000000               0.000638140               0.999999992               0.000000000               0.000642191               0.999999992               0.000000000               0.000645428               0.999999992              -0.000000000               0.000651937               0.999999992               0.000000000               0.000662572               0.999999992               0.000000000               0.000677131               0.999999992               0.000000000               0.000695183               0.999999992               0.000000000               0.000716160               0.999999992               0.000000000               0.000739566               0.999999992               0.000000000               0.000764997               0.999999992              -0.000000000               0.000792095               0.999999992              -0.000000000               0.000820749               0.999999992              -0.000000000               0.000850796               0.999999992              -0.000000000               0.000881886               0.999999992              -0.000000000               0.000913662               0.999999992               0.000000000               0.000945680               0.999999992               0.000000000               0.000977506               0.999999992              -0.000117757              -0.000000000               0.999999992              -0.000142841               0.000000000               0.999999992              -0.000154557              -0.000000000               0.999999992              -0.000161307               0.000000000               0.999999992              -0.000166396               0.000000000               0.999999992              -0.000171254               0.000000000               0.999999992              -0.000176605               0.000000000               0.999999992              -0.000182735               0.000000000               0.999999992              -0.000189778               0.000000000               0.999999992              -0.000197681              -0.000000000               0.999999992              -0.000206435               0.000000000               0.999999992              -0.000216066               0.000000000               0.999999992              -0.000226610               0.000000000               0.999999992              -0.000238017               0.000000000               0.999999992              -0.000250244               0.000000000               0.999999992              -0.000263319               0.000000000               0.999999992              -0.000276999               0.000000000               0.999999992              -0.000117046              -0.000063120               0.999999992              -0.000140852              -0.000054738               0.999999992              -0.000151806              -0.000052142               0.999999992              -0.000158123              -0.000052698               0.999999992              -0.000163017              -0.000055109               0.999999992              -0.000167841              -0.000058550               0.999999992              -0.000173183              -0.000062760               0.999999992              -0.000179279              -0.000067470               0.999999992              -0.000186281              -0.000072570               0.999999992              -0.000194193              -0.000077886               0.999999992              -0.000202959              -0.000083295               0.999999992              -0.000212594              -0.000088773               0.999999992              -0.000223110              -0.000094253               0.999999992              -0.000234477              -0.000099677               0.999999992              -0.000246689              -0.000104938               0.999999992              -0.000259630              -0.000109713               0.999999992              -0.000273122              -0.000113558               0.999999992              -0.000114969              -0.000125541               0.999999992              -0.000135033              -0.000108858               0.999999992              -0.000143838              -0.000104018               0.999999992              -0.000149108              -0.000105427               0.999999992              -0.000153590              -0.000110392               0.999999992              -0.000158373              -0.000117413               0.999999992              -0.000163867              -0.000125865               0.999999992              -0.000170185              -0.000135364               0.999999992              -0.000177416              -0.000145522               0.999999992              -0.000185539              -0.000156020               0.999999992              -0.000194495              -0.000166794               0.999999992              -0.000204293              -0.000177757               0.999999992              -0.000214953              -0.000188774               0.999999992              -0.000226376              -0.000199749               0.999999992              -0.000238539              -0.000210468               0.999999992              -0.000251324              -0.000220503               0.999999992              -0.000264554              -0.000229281               0.999999992              -0.000111478              -0.000186589               0.999999992              -0.000125664              -0.000161929               0.999999992              -0.000131521              -0.000155450               0.999999992              -0.000135566              -0.000158205               0.999999992              -0.000139766              -0.000166020               0.999999992              -0.000144732              -0.000176828               0.999999992              -0.000150659              -0.000189621               0.999999992              -0.000157578              -0.000203808               0.999999992              -0.000165432              -0.000218849               0.999999992              -0.000174150              -0.000234487               0.999999992              -0.000183662              -0.000250548               0.999999992              -0.000193959              -0.000266999               0.999999992              -0.000205031              -0.000283657               0.999999992              -0.000216725              -0.000300278               0.999999992              -0.000228955              -0.000316600               0.999999992              -0.000241614              -0.000332178               0.999999992              -0.000254567              -0.000346537               0.999999992              -0.000106719              -0.000245562               0.999999992              -0.000113364              -0.000213656               0.999999992              -0.000116122              -0.000206332               0.999999992              -0.000119245              -0.000210950               0.999999992              -0.000123501              -0.000221973               0.999999992              -0.000128977              -0.000236735               0.999999992              -0.000135739              -0.000253875               0.999999992              -0.000143634              -0.000272679               0.999999992              -0.000152482              -0.000292547               0.999999992              -0.000162154              -0.000313135               0.999999992              -0.000172493              -0.000334364               0.999999992              -0.000183449              -0.000356225               0.999999992              -0.000194961              -0.000378404               0.999999992              -0.000206923              -0.000400604               0.999999992              -0.000219177              -0.000422532               0.999999992              -0.000231631              -0.000443688               0.999999992              -0.000244287              -0.000463888               0.999999992              -0.000100888              -0.000301877               0.999999992              -0.000098984              -0.000263755               0.999999992              -0.000098962              -0.000256501               0.999999992              -0.000101651              -0.000263424               0.999999992              -0.000106478              -0.000277777               0.999999992              -0.000113011              -0.000296555               0.999999992              -0.000121085              -0.000318065               0.999999992              -0.000130359              -0.000341459               0.999999992              -0.000140469              -0.000366042               0.999999992              -0.000151239              -0.000391357               0.999999992              -0.000162478              -0.000417579               0.999999992              -0.000174168              -0.000444595               0.999999992              -0.000186265              -0.000471898               0.999999992              -0.000198603              -0.000499292               0.999999992              -0.000211091              -0.000526300               0.999999992              -0.000223621              -0.000552735               0.999999992              -0.000236212              -0.000578511               0.999999992              -0.000094030              -0.000355076               0.999999992              -0.000083284              -0.000312113               0.999999992              -0.000081234              -0.000305678               0.999999992              -0.000084228              -0.000315153               0.999999992              -0.000090296              -0.000332822               0.999999992              -0.000098498              -0.000355564               0.999999992              -0.000108261              -0.000381367               0.999999992              -0.000119065              -0.000409131               0.999999992              -0.000130499              -0.000438076               0.999999992              -0.000142367              -0.000468103               0.999999992              -0.000154604              -0.000499082               0.999999992              -0.000167162              -0.000530811               0.999999992              -0.000179934              -0.000562842               0.999999992              -0.000192793              -0.000594793               0.999999992              -0.000205581              -0.000626347               0.999999992              -0.000218267              -0.000657352               0.999999992              -0.000230762              -0.000687775               0.999999992              -0.000086434              -0.000404487               0.999999992              -0.000067161              -0.000358531               0.999999992              -0.000064149              -0.000353403               0.999999992              -0.000068402              -0.000365383               0.999999992              -0.000076286              -0.000386305               0.999999992              -0.000086417              -0.000412870               0.999999992              -0.000097886              -0.000442805               0.999999992              -0.000110129              -0.000474750               0.999999992              -0.000122792              -0.000508081               0.999999992              -0.000135788              -0.000542509               0.999999992              -0.000149020              -0.000577846               0.999999992              -0.000162398              -0.000613896               0.999999992              -0.000175734              -0.000650069               0.999999992              -0.000188875              -0.000686063               0.999999992              -0.000201712              -0.000721718               0.999999992              -0.000214152              -0.000756730               0.999999992              -0.000226156              -0.000791055               0.999999992              -0.000078489              -0.000449301               0.999999992              -0.000051298              -0.000402873               0.999999992              -0.000048857              -0.000399037               0.999999992              -0.000054878              -0.000413422               0.999999992              -0.000064742              -0.000437618               0.999999992              -0.000076729              -0.000467918               0.999999992              -0.000089873              -0.000501822               0.999999992              -0.000103463              -0.000537792               0.999999992              -0.000117234              -0.000575250               0.999999992              -0.000131071              -0.000613913               0.999999992              -0.000145039              -0.000653395               0.999999992              -0.000158899              -0.000693333               0.999999992              -0.000172402              -0.000733350               0.999999992              -0.000185520              -0.000773070               0.999999992              -0.000198208              -0.000812297               0.999999992              -0.000210509              -0.000850860               0.999999992              -0.000222530              -0.000888695               0.999999992              -0.000070837              -0.000491176               0.999999992              -0.000039168              -0.000449628               0.999999992              -0.000034486              -0.000442026               0.999999992              -0.000039185              -0.000452056               0.999999992              -0.000047800              -0.000471996               0.999999992              -0.000058727              -0.000498117               0.999999992              -0.000070840              -0.000528316               0.999999992              -0.000083256              -0.000560974               0.999999992              -0.000095693              -0.000595364               0.999999992              -0.000107891              -0.000631010               0.999999992              -0.000120168              -0.000667587               0.999999992              -0.000132439              -0.000704872               0.999999992              -0.000144462              -0.000742458               0.999999992              -0.000156080              -0.000780098               0.999999992              -0.000167282              -0.000817567               0.999999992              -0.000178143              -0.000854727               0.999999992              -0.000188980              -0.000891407               0.999999992              -0.000062331              -0.000528770               0.999999992              -0.000029047              -0.000494195               0.999999992              -0.000021967              -0.000485354               0.999999992              -0.000024903              -0.000492059               0.999999992              -0.000032130              -0.000508346               0.999999992              -0.000041638              -0.000530855               0.999999992              -0.000052440              -0.000557576               0.999999992              -0.000063590              -0.000587061               0.999999992              -0.000074521              -0.000618522               0.999999992              -0.000085174              -0.000651326               0.999999992              -0.000095676              -0.000685247               0.999999992              -0.000106163              -0.000719904               0.999999992              -0.000116542              -0.000755069               0.999999992              -0.000126384              -0.000790380               0.999999992              -0.000135694              -0.000825742               0.999999992              -0.000144491              -0.000860987               0.999999992              -0.000153010              -0.000896232               0.999999992              -0.000053181              -0.000561391               0.999999992              -0.000020841              -0.000535356               0.999999992              -0.000012009              -0.000527186               0.999999992              -0.000013060              -0.000531885               0.999999992              -0.000018637              -0.000545442               0.999999992              -0.000026523              -0.000565009               0.999999992              -0.000035637              -0.000588894               0.999999992              -0.000045258              -0.000615692               0.999999992              -0.000054670              -0.000644506               0.999999992              -0.000063725              -0.000674822               0.999999992              -0.000072536              -0.000706292               0.999999992              -0.000081211              -0.000738639               0.999999992              -0.000089658              -0.000771573               0.999999992              -0.000097517              -0.000804827               0.999999992              -0.000104482              -0.000838202               0.999999992              -0.000110553              -0.000871623               0.999999992              -0.000115707              -0.000905196               0.999999992              -0.000043421              -0.000588575               0.999999992              -0.000014432              -0.000571584               0.999999992              -0.000004908              -0.000565694               0.999999992              -0.000004319              -0.000569665               0.999999992              -0.000008178              -0.000581368               0.999999992              -0.000014219              -0.000598791               0.999999992              -0.000021537              -0.000620411               0.999999992              -0.000029417              -0.000645125               0.999999992              -0.000037125              -0.000671957               0.999999992              -0.000044556              -0.000700344               0.999999992              -0.000051715              -0.000729877               0.999999992              -0.000058539              -0.000760379               0.999999992              -0.000064991              -0.000791600               0.999999992              -0.000070713              -0.000823251               0.999999992              -0.000075267              -0.000855179               0.999999992              -0.000078393              -0.000887259               0.999999992              -0.000079740              -0.000919454               0.999999992              -0.000033166              -0.000609956               0.999999992              -0.000009500              -0.000601421               0.999999992              -0.000000649              -0.000598728               0.999999992               0.000000947              -0.000603078               0.999999992              -0.000001356              -0.000613769               0.999999992              -0.000005630              -0.000629623               0.999999992              -0.000010999              -0.000649575               0.999999992              -0.000016893              -0.000672687               0.999999992              -0.000022790              -0.000698136               0.999999992              -0.000028521              -0.000725223               0.999999992              -0.000034058              -0.000753541               0.999999992              -0.000039204              -0.000782888               0.999999992              -0.000043711              -0.000813017               0.999999992              -0.000047380              -0.000843711               0.999999992              -0.000049849              -0.000874841               0.999999992              -0.000050488              -0.000906237               0.999999992              -0.000048824              -0.000937780               0.999999992              -0.000022419              -0.000625517               0.999999992              -0.000005686              -0.000623702               0.999999992               0.000001128              -0.000624070               0.999999992               0.000002854              -0.000629386               0.999999992               0.000001704              -0.000639802               0.999999992              -0.000000910              -0.000654793               0.999999992              -0.000004276              -0.000673638               0.999999992              -0.000008181              -0.000695609               0.999999992              -0.000012161              -0.000719979               0.999999992              -0.000016071              -0.000746226               0.999999992              -0.000019889              -0.000773898               0.999999992              -0.000023440              -0.000802692               0.999999992              -0.000026387              -0.000832430               0.999999992              -0.000028486              -0.000862802               0.999999992              -0.000029390              -0.000893652               0.999999992              -0.000028569              -0.000924897               0.999999992              -0.000025382              -0.000956332               0.999999992              -0.000011302              -0.000634997               0.999999992              -0.000002656              -0.000637518               0.999999992               0.000001074              -0.000640001               0.999999992               0.000002115              -0.000646167               0.999999992               0.000001706              -0.000656663               0.999999992               0.000000474              -0.000671323               0.999999992              -0.000001105              -0.000689559               0.999999992              -0.000003019              -0.000710804               0.999999992              -0.000004972              -0.000734525               0.999999992              -0.000006999              -0.000760145               0.999999992              -0.000008979              -0.000787399               0.999999992              -0.000010832              -0.000816092               0.999999992              -0.000012388              -0.000845929               0.999999992              -0.000013353              -0.000876674               0.999999992              -0.000013462              -0.000908002               0.999999992              -0.000012399              -0.000939614               0.999999992              -0.000009690              -0.000971234               0.999999992              -0.000000000              -0.000638140               0.999999992              -0.000000000              -0.000642191               0.999999992               0.000000000              -0.000645428               0.999999992               0.000000000              -0.000651937               0.999999992               0.000000000              -0.000662572               0.999999992               0.000000000              -0.000677131               0.999999992              -0.000000000              -0.000695183               0.999999992              -0.000000000              -0.000716160               0.999999992              -0.000000000              -0.000739566               0.999999992              -0.000000000              -0.000764997               0.999999992              -0.000000000              -0.000792095               0.999999992               0.000000000              -0.000820749               0.999999992              -0.000000000              -0.000850796               0.999999992              -0.000000000              -0.000881886               0.999999992               0.000000000              -0.000913662               0.999999992               0.000000000              -0.000945680               0.999999992               0.000000000              -0.000977506               0.999999992               0.000117757               0.000000000               0.999999992               0.000142841              -0.000000000               0.999999992               0.000154557               0.000000000               0.999999992               0.000161307              -0.000000000               0.999999992               0.000166396              -0.000000000               0.999999992               0.000171254               0.000000000               0.999999992               0.000176605              -0.000000000               0.999999992               0.000182735               0.000000000               0.999999992               0.000189778              -0.000000000               0.999999992               0.000197681               0.000000000               0.999999992               0.000206435               0.000000000               0.999999992               0.000216066              -0.000000000               0.999999992               0.000226610              -0.000000000               0.999999992               0.000238017              -0.000000000               0.999999992               0.000250244               0.000000000               0.999999992               0.000263319               0.000000000               0.999999992               0.000276999               0.000000000               0.999999992               0.000117046              -0.000063120               0.999999992               0.000140852              -0.000054738               0.999999992               0.000151806              -0.000052142               0.999999992               0.000158123              -0.000052698               0.999999992               0.000163017              -0.000055109               0.999999992               0.000167841              -0.000058550               0.999999992               0.000173183              -0.000062760               0.999999992               0.000179279              -0.000067470               0.999999992               0.000186281              -0.000072570               0.999999992               0.000194193              -0.000077886               0.999999992               0.000202959              -0.000083295               0.999999992               0.000212594              -0.000088773               0.999999992               0.000223110              -0.000094253               0.999999992               0.000234477              -0.000099677               0.999999992               0.000246689              -0.000104938               0.999999992               0.000259630              -0.000109713               0.999999992               0.000273122              -0.000113558               0.999999992               0.000114969              -0.000125541               0.999999992               0.000135033              -0.000108858               0.999999992               0.000143838              -0.000104018               0.999999992               0.000149108              -0.000105427               0.999999992               0.000153590              -0.000110392               0.999999992               0.000158373              -0.000117413               0.999999992               0.000163867              -0.000125865               0.999999992               0.000170185              -0.000135364               0.999999992               0.000177416              -0.000145522               0.999999992               0.000185539              -0.000156020               0.999999992               0.000194495              -0.000166794               0.999999992               0.000204293              -0.000177757               0.999999992               0.000214953              -0.000188774               0.999999992               0.000226376              -0.000199749               0.999999992               0.000238539              -0.000210468               0.999999992               0.000251324              -0.000220503               0.999999992               0.000264554              -0.000229281               0.999999992               0.000111478              -0.000186589               0.999999992               0.000125664              -0.000161929               0.999999992               0.000131521              -0.000155450               0.999999992               0.000135566              -0.000158205               0.999999992               0.000139766              -0.000166020               0.999999992               0.000144732              -0.000176828               0.999999992               0.000150659              -0.000189621               0.999999992               0.000157578              -0.000203808               0.999999992               0.000165432              -0.000218849               0.999999992               0.000174150              -0.000234487               0.999999992               0.000183662              -0.000250548               0.999999992               0.000193959              -0.000266999               0.999999992               0.000205031              -0.000283657               0.999999992               0.000216725              -0.000300278               0.999999992               0.000228955              -0.000316600               0.999999992               0.000241614              -0.000332178               0.999999992               0.000254567              -0.000346537               0.999999992               0.000106719              -0.000245562               0.999999992               0.000113364              -0.000213656               0.999999992               0.000116122              -0.000206332               0.999999992               0.000119245              -0.000210950               0.999999992               0.000123501              -0.000221973               0.999999992               0.000128977              -0.000236735               0.999999992               0.000135739              -0.000253875               0.999999992               0.000143634              -0.000272679               0.999999992               0.000152482              -0.000292547               0.999999992               0.000162154              -0.000313135               0.999999992               0.000172493              -0.000334364               0.999999992               0.000183449              -0.000356225               0.999999992               0.000194961              -0.000378404               0.999999992               0.000206923              -0.000400604               0.999999992               0.000219177              -0.000422532               0.999999992               0.000231631              -0.000443688               0.999999992               0.000244287              -0.000463888               0.999999992               0.000100888              -0.000301877               0.999999992               0.000098984              -0.000263755               0.999999992               0.000098962              -0.000256501               0.999999992               0.000101651              -0.000263424               0.999999992               0.000106478              -0.000277777               0.999999992               0.000113011              -0.000296555               0.999999992               0.000121085              -0.000318065               0.999999992               0.000130359              -0.000341459               0.999999992               0.000140469              -0.000366042               0.999999992               0.000151239              -0.000391357               0.999999992               0.000162478              -0.000417579               0.999999992               0.000174168              -0.000444595               0.999999992               0.000186265              -0.000471898               0.999999992               0.000198603              -0.000499292               0.999999992               0.000211091              -0.000526300               0.999999992               0.000223621              -0.000552735               0.999999992               0.000236212              -0.000578511               0.999999992               0.000094030              -0.000355076               0.999999992               0.000083284              -0.000312113               0.999999992               0.000081234              -0.000305678               0.999999992               0.000084228              -0.000315153               0.999999992               0.000090296              -0.000332822               0.999999992               0.000098498              -0.000355564               0.999999992               0.000108261              -0.000381367               0.999999992               0.000119065              -0.000409131               0.999999992               0.000130499              -0.000438076               0.999999992               0.000142367              -0.000468103               0.999999992               0.000154604              -0.000499082               0.999999992               0.000167162              -0.000530811               0.999999992               0.000179934              -0.000562842               0.999999992               0.000192793              -0.000594793               0.999999992               0.000205581              -0.000626347               0.999999992               0.000218267              -0.000657352               0.999999992               0.000230762              -0.000687775               0.999999992               0.000086434              -0.000404487               0.999999992               0.000067161              -0.000358531               0.999999992               0.000064149              -0.000353403               0.999999992               0.000068402              -0.000365383               0.999999992               0.000076286              -0.000386305               0.999999992               0.000086417              -0.000412870               0.999999992               0.000097886              -0.000442805               0.999999992               0.000110129              -0.000474750               0.999999992               0.000122792              -0.000508081               0.999999992               0.000135788              -0.000542509               0.999999992               0.000149020              -0.000577846               0.999999992               0.000162398              -0.000613896               0.999999992               0.000175734              -0.000650069               0.999999992               0.000188875              -0.000686063               0.999999992               0.000201712              -0.000721718               0.999999992               0.000214152              -0.000756730               0.999999992               0.000226156              -0.000791055               0.999999992               0.000078489              -0.000449301               0.999999992               0.000051298              -0.000402873               0.999999992               0.000048857              -0.000399037               0.999999992               0.000054878              -0.000413422               0.999999992               0.000064742              -0.000437618               0.999999992               0.000076729              -0.000467918               0.999999992               0.000089873              -0.000501822               0.999999992               0.000103463              -0.000537792               0.999999992               0.000117234              -0.000575250               0.999999992               0.000131071              -0.000613913               0.999999992               0.000145039              -0.000653395               0.999999992               0.000158899              -0.000693333               0.999999992               0.000172402              -0.000733350               0.999999992               0.000185520              -0.000773070               0.999999992               0.000198208              -0.000812297               0.999999992               0.000210509              -0.000850860               0.999999992               0.000222530              -0.000888695               0.999999992               0.000070837              -0.000491176               0.999999992               0.000039168              -0.000449628               0.999999992               0.000034486              -0.000442026               0.999999992               0.000039185              -0.000452056               0.999999992               0.000047800              -0.000471996               0.999999992               0.000058727              -0.000498117               0.999999992               0.000070840              -0.000528316               0.999999992               0.000083256              -0.000560974               0.999999992               0.000095693              -0.000595364               0.999999992               0.000107891              -0.000631010               0.999999992               0.000120168              -0.000667587               0.999999992               0.000132439              -0.000704872               0.999999992               0.000144462              -0.000742458               0.999999992               0.000156080              -0.000780098               0.999999992               0.000167282              -0.000817567               0.999999992               0.000178143              -0.000854727               0.999999992               0.000188980              -0.000891407               0.999999992               0.000062331              -0.000528770               0.999999992               0.000029047              -0.000494195               0.999999992               0.000021967              -0.000485354               0.999999992               0.000024903              -0.000492059               0.999999992               0.000032130              -0.000508346               0.999999992               0.000041638              -0.000530855               0.999999992               0.000052440              -0.000557576               0.999999992               0.000063590              -0.000587061               0.999999992               0.000074521              -0.000618522               0.999999992               0.000085174              -0.000651326               0.999999992               0.000095676              -0.000685247               0.999999992               0.000106163              -0.000719904               0.999999992               0.000116542              -0.000755069               0.999999992               0.000126384              -0.000790380               0.999999992               0.000135694              -0.000825742               0.999999992               0.000144491              -0.000860987               0.999999992               0.000153010              -0.000896232               0.999999992               0.000053181              -0.000561391               0.999999992               0.000020841              -0.000535356               0.999999992               0.000012009              -0.000527186               0.999999992               0.000013060              -0.000531885               0.999999992               0.000018637              -0.000545442               0.999999992               0.000026523              -0.000565009               0.999999992               0.000035637              -0.000588894               0.999999992               0.000045258              -0.000615692               0.999999992               0.000054670              -0.000644506               0.999999992               0.000063725              -0.000674822               0.999999992               0.000072536              -0.000706292               0.999999992               0.000081211              -0.000738639               0.999999992               0.000089658              -0.000771573               0.999999992               0.000097517              -0.000804827               0.999999992               0.000104482              -0.000838202               0.999999992               0.000110553              -0.000871623               0.999999992               0.000115707              -0.000905196               0.999999992               0.000043421              -0.000588575               0.999999992               0.000014432              -0.000571584               0.999999992               0.000004908              -0.000565694               0.999999992               0.000004319              -0.000569665               0.999999992               0.000008178              -0.000581368               0.999999992               0.000014219              -0.000598791               0.999999992               0.000021537              -0.000620411               0.999999992               0.000029417              -0.000645125               0.999999992               0.000037125              -0.000671957               0.999999992               0.000044556              -0.000700344               0.999999992               0.000051715              -0.000729877               0.999999992               0.000058539              -0.000760379               0.999999992               0.000064991              -0.000791600               0.999999992               0.000070713              -0.000823251               0.999999992               0.000075267              -0.000855179               0.999999992               0.000078393              -0.000887259               0.999999992               0.000079740              -0.000919454               0.999999992               0.000033166              -0.000609956               0.999999992               0.000009500              -0.000601421               0.999999992               0.000000649              -0.000598728               0.999999992              -0.000000947              -0.000603078               0.999999992               0.000001356              -0.000613769               0.999999992               0.000005630              -0.000629623               0.999999992               0.000010999              -0.000649575               0.999999992               0.000016893              -0.000672687               0.999999992               0.000022790              -0.000698136               0.999999992               0.000028521              -0.000725223               0.999999992               0.000034058              -0.000753541               0.999999992               0.000039204              -0.000782888               0.999999992               0.000043711              -0.000813017               0.999999992               0.000047380              -0.000843711               0.999999992               0.000049849              -0.000874841               0.999999992               0.000050488              -0.000906237               0.999999992               0.000048824              -0.000937780               0.999999992               0.000022419              -0.000625517               0.999999992               0.000005686              -0.000623702               0.999999992              -0.000001128              -0.000624070               0.999999992              -0.000002854              -0.000629386               0.999999992              -0.000001704              -0.000639802               0.999999992               0.000000910              -0.000654793               0.999999992               0.000004276              -0.000673638               0.999999992               0.000008181              -0.000695609               0.999999992               0.000012161              -0.000719979               0.999999992               0.000016071              -0.000746226               0.999999992               0.000019889              -0.000773898               0.999999992               0.000023440              -0.000802692               0.999999992               0.000026387              -0.000832430               0.999999992               0.000028486              -0.000862802               0.999999992               0.000029390              -0.000893652               0.999999992               0.000028569              -0.000924897               0.999999992               0.000025382              -0.000956332               0.999999992               0.000011302              -0.000634997               0.999999992               0.000002656              -0.000637518               0.999999992              -0.000001074              -0.000640001               0.999999992              -0.000002115              -0.000646167               0.999999992              -0.000001706              -0.000656663               0.999999992              -0.000000474              -0.000671323               0.999999992               0.000001105              -0.000689559               0.999999992               0.000003019              -0.000710804               0.999999992               0.000004972              -0.000734525               0.999999992               0.000006999              -0.000760145               0.999999992               0.000008979              -0.000787399               0.999999992               0.000010832              -0.000816092               0.999999992               0.000012388              -0.000845929               0.999999992               0.000013353              -0.000876674               0.999999992               0.000013462              -0.000908002               0.999999992               0.000012399              -0.000939614               0.999999992               0.000009690              -0.000971234               0.999999992              -0.000000000              -0.000638140               0.999999992              -0.000000000              -0.000642191               0.999999992               0.000000000              -0.000645428               0.999999992               0.000000000              -0.000651937               0.999999992               0.000000000              -0.000662572               0.999999992               0.000000000              -0.000677131               0.999999992              -0.000000000              -0.000695183               0.999999992              -0.000000000              -0.000716160               0.999999992              -0.000000000              -0.000739566               0.999999992              -0.000000000              -0.000764997               0.999999992              -0.000000000              -0.000792095               0.999999992               0.000000000              -0.000820749               0.999999992              -0.000000000              -0.000850796               0.999999992              -0.000000000              -0.000881886               0.999999992               0.000000000              -0.000913662               0.999999992               0.000000000              -0.000945680               0.999999992               0.000000000              -0.000977506               0.999999992               0.000117757               0.000000000               0.999999992               0.000142841              -0.000000000               0.999999992               0.000154557               0.000000000               0.999999992               0.000161307              -0.000000000               0.999999992               0.000166396              -0.000000000               0.999999992               0.000171254               0.000000000               0.999999992               0.000176605              -0.000000000               0.999999992               0.000182735               0.000000000               0.999999992               0.000189778              -0.000000000               0.999999992               0.000197681               0.000000000               0.999999992               0.000206435               0.000000000               0.999999992               0.000216066              -0.000000000               0.999999992               0.000226610              -0.000000000               0.999999992               0.000238017              -0.000000000               0.999999992               0.000250244               0.000000000               0.999999992               0.000263319               0.000000000               0.999999992               0.000276999               0.000000000               0.999999992               0.000117046               0.000063120               0.999999992               0.000140852               0.000054738               0.999999992               0.000151806               0.000052142               0.999999992               0.000158123               0.000052698               0.999999992               0.000163017               0.000055109               0.999999992               0.000167841               0.000058550               0.999999992               0.000173183               0.000062760               0.999999992               0.000179279               0.000067470               0.999999992               0.000186281               0.000072570               0.999999992               0.000194193               0.000077886               0.999999992               0.000202959               0.000083295               0.999999992               0.000212594               0.000088773               0.999999992               0.000223110               0.000094253               0.999999992               0.000234477               0.000099677               0.999999992               0.000246689               0.000104938               0.999999992               0.000259630               0.000109713               0.999999992               0.000273122               0.000113558               0.999999992               0.000114969               0.000125541               0.999999992               0.000135033               0.000108858               0.999999992               0.000143838               0.000104018               0.999999992               0.000149108               0.000105427               0.999999992               0.000153590               0.000110392               0.999999992               0.000158373               0.000117413               0.999999992               0.000163867               0.000125865               0.999999992               0.000170185               0.000135364               0.999999992               0.000177416               0.000145522               0.999999992               0.000185539               0.000156020               0.999999992               0.000194495               0.000166794               0.999999992               0.000204293               0.000177757               0.999999992               0.000214953               0.000188774               0.999999992               0.000226376               0.000199749               0.999999992               0.000238539               0.000210468               0.999999992               0.000251324               0.000220503               0.999999992               0.000264554               0.000229281               0.999999992               0.000111478               0.000186589               0.999999992               0.000125664               0.000161929               0.999999992               0.000131521               0.000155450               0.999999992               0.000135566               0.000158205               0.999999992               0.000139766               0.000166020               0.999999992               0.000144732               0.000176828               0.999999992               0.000150659               0.000189621               0.999999992               0.000157578               0.000203808               0.999999992               0.000165432               0.000218849               0.999999992               0.000174150               0.000234487               0.999999992               0.000183662               0.000250548               0.999999992               0.000193959               0.000266999               0.999999992               0.000205031               0.000283657               0.999999992               0.000216725               0.000300278               0.999999992               0.000228955               0.000316600               0.999999992               0.000241614               0.000332178               0.999999992               0.000254567               0.000346537               0.999999992               0.000106719               0.000245562               0.999999992               0.000113364               0.000213656               0.999999992               0.000116122               0.000206332               0.999999992               0.000119245               0.000210950               0.999999992               0.000123501               0.000221973               0.999999992               0.000128977               0.000236735               0.999999992               0.000135739               0.000253875               0.999999992               0.000143634               0.000272679               0.999999992               0.000152482               0.000292547               0.999999992               0.000162154               0.000313135               0.999999992               0.000172493               0.000334364               0.999999992               0.000183449               0.000356225               0.999999992               0.000194961               0.000378404               0.999999992               0.000206923               0.000400604               0.999999992               0.000219177               0.000422532               0.999999992               0.000231631               0.000443688               0.999999992               0.000244287               0.000463888               0.999999992               0.000100888               0.000301877               0.999999992               0.000098984               0.000263755               0.999999992               0.000098962               0.000256501               0.999999992               0.000101651               0.000263424               0.999999992               0.000106478               0.000277777               0.999999992               0.000113011               0.000296555               0.999999992               0.000121085               0.000318065               0.999999992               0.000130359               0.000341459               0.999999992               0.000140469               0.000366042               0.999999992               0.000151239               0.000391357               0.999999992               0.000162478               0.000417579               0.999999992               0.000174168               0.000444595               0.999999992               0.000186265               0.000471898               0.999999992               0.000198603               0.000499292               0.999999992               0.000211091               0.000526300               0.999999992               0.000223621               0.000552735               0.999999992               0.000236212               0.000578511               0.999999992               0.000094030               0.000355076               0.999999992               0.000083284               0.000312113               0.999999992               0.000081234               0.000305678               0.999999992               0.000084228               0.000315153               0.999999992               0.000090296               0.000332822               0.999999992               0.000098498               0.000355564               0.999999992               0.000108261               0.000381367               0.999999992               0.000119065               0.000409131               0.999999992               0.000130499               0.000438076               0.999999992               0.000142367               0.000468103               0.999999992               0.000154604               0.000499082               0.999999992               0.000167162               0.000530811               0.999999992               0.000179934               0.000562842               0.999999992               0.000192793               0.000594793               0.999999992               0.000205581               0.000626347               0.999999992               0.000218267               0.000657352               0.999999992               0.000230762               0.000687775               0.999999992               0.000086434               0.000404487               0.999999992               0.000067161               0.000358531               0.999999992               0.000064149               0.000353403               0.999999992               0.000068402               0.000365383               0.999999992               0.000076286               0.000386305               0.999999992               0.000086417               0.000412870               0.999999992               0.000097886               0.000442805               0.999999992               0.000110129               0.000474750               0.999999992               0.000122792               0.000508081               0.999999992               0.000135788               0.000542509               0.999999992               0.000149020               0.000577846               0.999999992               0.000162398               0.000613896               0.999999992               0.000175734               0.000650069               0.999999992               0.000188875               0.000686063               0.999999992               0.000201712               0.000721718               0.999999992               0.000214152               0.000756730               0.999999992               0.000226156               0.000791055               0.999999992               0.000078489               0.000449301               0.999999992               0.000051298               0.000402873               0.999999992               0.000048857               0.000399037               0.999999992               0.000054878               0.000413422               0.999999992               0.000064742               0.000437618               0.999999992               0.000076729               0.000467918               0.999999992               0.000089873               0.000501822               0.999999992               0.000103463               0.000537792               0.999999992               0.000117234               0.000575250               0.999999992               0.000131071               0.000613913               0.999999992               0.000145039               0.000653395               0.999999992               0.000158899               0.000693333               0.999999992               0.000172402               0.000733350               0.999999992               0.000185520               0.000773070               0.999999992               0.000198208               0.000812297               0.999999992               0.000210509               0.000850860               0.999999992               0.000222530               0.000888695               0.999999992               0.000070837               0.000491176               0.999999992               0.000039168               0.000449628               0.999999992               0.000034486               0.000442026               0.999999992               0.000039185               0.000452056               0.999999992               0.000047800               0.000471996               0.999999992               0.000058727               0.000498117               0.999999992               0.000070840               0.000528316               0.999999992               0.000083256               0.000560974               0.999999992               0.000095693               0.000595364               0.999999992               0.000107891               0.000631010               0.999999992               0.000120168               0.000667587               0.999999992               0.000132439               0.000704872               0.999999992               0.000144462               0.000742458               0.999999992               0.000156080               0.000780098               0.999999992               0.000167282               0.000817567               0.999999992               0.000178143               0.000854727               0.999999992               0.000188980               0.000891407               0.999999992               0.000062331               0.000528770               0.999999992               0.000029047               0.000494195               0.999999992               0.000021967               0.000485354               0.999999992               0.000024903               0.000492059               0.999999992               0.000032130               0.000508346               0.999999992               0.000041638               0.000530855               0.999999992               0.000052440               0.000557576               0.999999992               0.000063590               0.000587061               0.999999992               0.000074521               0.000618522               0.999999992               0.000085174               0.000651326               0.999999992               0.000095676               0.000685247               0.999999992               0.000106163               0.000719904               0.999999992               0.000116542               0.000755069               0.999999992               0.000126384               0.000790380               0.999999992               0.000135694               0.000825742               0.999999992               0.000144491               0.000860987               0.999999992               0.000153010               0.000896232               0.999999992               0.000053181               0.000561391               0.999999992               0.000020841               0.000535356               0.999999992               0.000012009               0.000527186               0.999999992               0.000013060               0.000531885               0.999999992               0.000018637               0.000545442               0.999999992               0.000026523               0.000565009               0.999999992               0.000035637               0.000588894               0.999999992               0.000045258               0.000615692               0.999999992               0.000054670               0.000644506               0.999999992               0.000063725               0.000674822               0.999999992               0.000072536               0.000706292               0.999999992               0.000081211               0.000738639               0.999999992               0.000089658               0.000771573               0.999999992               0.000097517               0.000804827               0.999999992               0.000104482               0.000838202               0.999999992               0.000110553               0.000871623               0.999999992               0.000115707               0.000905196               0.999999992               0.000043421               0.000588575               0.999999992               0.000014432               0.000571584               0.999999992               0.000004908               0.000565694               0.999999992               0.000004319               0.000569665               0.999999992               0.000008178               0.000581368               0.999999992               0.000014219               0.000598791               0.999999992               0.000021537               0.000620411               0.999999992               0.000029417               0.000645125               0.999999992               0.000037125               0.000671957               0.999999992               0.000044556               0.000700344               0.999999992               0.000051715               0.000729877               0.999999992               0.000058539               0.000760379               0.999999992               0.000064991               0.000791600               0.999999992               0.000070713               0.000823251               0.999999992               0.000075267               0.000855179               0.999999992               0.000078393               0.000887259               0.999999992               0.000079740               0.000919454               0.999999992               0.000033166               0.000609956               0.999999992               0.000009500               0.000601421               0.999999992               0.000000649               0.000598728               0.999999992              -0.000000947               0.000603078               0.999999992               0.000001356               0.000613769               0.999999992               0.000005630               0.000629623               0.999999992               0.000010999               0.000649575               0.999999992               0.000016893               0.000672687               0.999999992               0.000022790               0.000698136               0.999999992               0.000028521               0.000725223               0.999999992               0.000034058               0.000753541               0.999999992               0.000039204               0.000782888               0.999999992               0.000043711               0.000813017               0.999999992               0.000047380               0.000843711               0.999999992               0.000049849               0.000874841               0.999999992               0.000050488               0.000906237               0.999999992               0.000048824               0.000937780               0.999999992               0.000022419               0.000625517               0.999999992               0.000005686               0.000623702               0.999999992              -0.000001128               0.000624070               0.999999992              -0.000002854               0.000629386               0.999999992              -0.000001704               0.000639802               0.999999992               0.000000910               0.000654793               0.999999992               0.000004276               0.000673638               0.999999992               0.000008181               0.000695609               0.999999992               0.000012161               0.000719979               0.999999992               0.000016071               0.000746226               0.999999992               0.000019889               0.000773898               0.999999992               0.000023440               0.000802692               0.999999992               0.000026387               0.000832430               0.999999992               0.000028486               0.000862802               0.999999992               0.000029390               0.000893652               0.999999992               0.000028569               0.000924897               0.999999992               0.000025382               0.000956332               0.999999992               0.000011302               0.000634997               0.999999992               0.000002656               0.000637518               0.999999992              -0.000001074               0.000640001               0.999999992              -0.000002115               0.000646167               0.999999992              -0.000001706               0.000656663               0.999999992              -0.000000474               0.000671323               0.999999992               0.000001105               0.000689559               0.999999992               0.000003019               0.000710804               0.999999992               0.000004972               0.000734525               0.999999992               0.000006999               0.000760145               0.999999992               0.000008979               0.000787399               0.999999992               0.000010832               0.000816092               0.999999992               0.000012388               0.000845929               0.999999992               0.000013353               0.000876674               0.999999992               0.000013462               0.000908002               0.999999992               0.000012399               0.000939614               0.999999992               0.000009690               0.000971234               0.999999992              -0.000000000               0.000638140               0.999999992               0.000000000               0.000642191               0.999999992               0.000000000               0.000645428               0.999999992              -0.000000000               0.000651937               0.999999992               0.000000000               0.000662572               0.999999992               0.000000000               0.000677131               0.999999992               0.000000000               0.000695183               0.999999992               0.000000000               0.000716160               0.999999992               0.000000000               0.000739566               0.999999992               0.000000000               0.000764997               0.999999992              -0.000000000               0.000792095               0.999999992              -0.000000000               0.000820749               0.999999992              -0.000000000               0.000850796               0.999999992              -0.000000000               0.000881886               0.999999992              -0.000000000               0.000913662               0.999999992               0.000000000               0.000945680               0.999999992               0.000000000               0.000977506               0.999999992 </DataArray>
<DataArray type="Float64"                                    Name="defo"                                                      NumberOfComponents=" 3" format="ascii">
             -0.000117757              -0.000000000               0.999999992              -0.000142841               0.000000000               0.999999992              -0.000154557              -0.000000000               0.999999992              -0.000161307               0.000000000               0.999999992              -0.000166396               0.000000000               0.999999992              -0.000171254               0.000000000               0.999999992              -0.000176605               0.000000000               0.999999992              -0.000182735               0.000000000               0.999999992              -0.000189778               0.000000000               0.999999992              -0.000197681              -0.000000000               0.999999992              -0.000206435               0.000000000               0.999999992              -0.000216066               0.000000000               0.999999992              -0.000226610               0.000000000               0.999999992              -0.000238017               0.000000000               0.999999992              -0.000250244               0.000000000               0.999999992              -0.000263319               0.000000000               0.999999992              -0.000276999               0.000000000               0.999999992              -0.000117046               0.000063120               0.999999992              -0.000140852               0.000054738               0.999999992              -0.000151806               0.000052142               0.999999992              -0.000158123               0.000052698               0.999999992              -0.000163017               0.000055109               0.999999992              -0.000167841               0.000058550               0.999999992              -0.000173183               0.000062760               0.999999992              -0.000179279               0.000067470               0.999999992              -0.000186281               0.000072570               0.999999992              -0.000194193               0.000077886               0.999999992              -0.000202959               0.000083295               0.999999992              -0.000212594               0.000088773               0.999999992              -0.000223110               0.000094253               0.999999992              -0.000234477               0.000099677               0.999999992              -0.000246689               0.000104938               0.999999992              -0.000259630               0.000109713               0.999999992              -0.000273122               0.000113558               0.999999992              -0.000114969               0.000125541               0.999999992              -0.000135033               0.000108858               0.999999992              -0.000143838               0.000104018               0.999999992              -0.000149108               0.000105427               0.999999992              -0.000153590               0.000110392               0.999999992              -0.000158373               0.000117413               0.999999992              -0.000163867               0.000125865               0.999999992              -0.000170185               0.000135364               0.999999992              -0.000177416               0.000145522               0.999999992              -0.000185539               0.000156020               0.999999992              -0.000194495               0.000166794               0.999999992              -0.000204293               0.000177757               0.999999992              -0.000214953               0.000188774               0.999999992              -0.000226376               0.000199749               0.999999992              -0.000238539               0.000210468               0.999999992              -0.000251324               0.000220503               0.999999992              -0.000264554               0.000229281               0.999999992              -0.000111478               0.000186589               0.999999992              -0.000125664               0.000161929               0.999999992              -0.000131521               0.000155450               0.999999992              -0.000135566               0.000158205               0.999999992              -0.000139766               0.000166020               0.999999992              -0.000144732               0.000176828               0.999999992              -0.000150659               0.000189621               0.999999992              -0.000157578               0.000203808               0.999999992              -0.000165432               0.000218849               0.999999992              -0.000174150               0.000234487               0.999999992              -0.000183662               0.000250548               0.999999992              -0.000193959               0.000266999               0.999999992              -0.000205031               0.000283657               0.999999992              -0.000216725               0.000300278               0.999999992              -0.000228955               0.000316600               0.999999992              -0.000241614               0.000332178               0.999999992              -0.000254567               0.000346537               0.999999992              -0.000106719               0.000245562               0.999999992              -0.000113364               0.000213656               0.999999992              -0.000116122               0.000206332               0.999999992              -0.000119245               0.000210950               0.999999992              -0.000123501               0.000221973               0.999999992              -0.000128977               0.000236735               0.999999992              -0.000135739               0.000253875               0.999999992              -0.000143634               0.000272679               0.999999992              -0.000152482               0.000292547               0.999999992              -0.000162154               0.000313135               0.999999992              -0.000172493               0.000334364               0.999999992              -0.000183449               0.000356225               0.999999992              -0.000194961               0.000378404               0.999999992              -0.000206923               0.000400604               0.999999992              -0.000219177               0.000422532               0.999999992              -0.000231631               0.000443688               0.999999992              -0.000244287               0.000463888               0.999999992              -0.000100888               0.000301877               0.999999992              -0.000098984               0.000263755               0.999999992              -0.000098962               0.000256501               0.999999992              -0.000101651               0.000263424               0.999999992              -0.000106478               0.000277777               0.999999992              -0.000113011               0.000296555               0.999999992              -0.000121085               0.000318065               0.999999992              -0.000130359               0.000341459               0.999999992              -0.000140469               0.000366042               0.999999992              -0.000151239               0.000391357               0.999999992              -0.000162478               0.000417579               0.999999992              -0.000174168               0.000444595               0.999999992              -0.000186265               0.000471898               0.999999992              -0.000198603               0.000499292               0.999999992              -0.000211091               0.000526300               0.999999992              -0.000223621               0.000552735               0.999999992              -0.000236212               0.000578511               0.999999992              -0.000094030               0.000355076               0.999999992              -0.000083284               0.000312113               0.999999992              -0.000081234               0.000305678               0.999999992              -0.000084228               0.000315153               0.999999992              -0.000090296               0.000332822               0.999999992              -0.000098498               0.000355564               0.999999992              -0.000108261               0.000381367               0.999999992              -0.000119065               0.000409131               0.999999992              -0.000130499               0.000438076               0.999999992              -0.000142367               0.000468103               0.999999992              -0.000154604               0.000499082               0.999999992              -0.000167162               0.000530811               0.999999992              -0.000179934               0.000562842               0.999999992              -0.000192793               0.000594793               0.999999992              -0.000205581               0.000626347               0.999999992              -0.000218267               0.000657352               0.999999992              -0.000230762               0.000687775               0.999999992              -0.000086434               0.000404487               0.999999992              -0.000067161               0.000358531               0.999999992              -0.000064149               0.000353403               0.999999992              -0.000068402               0.000365383               0.999999992              -0.000076286               0.000386305               0.999999992              -0.000086417               0.000412870               0.999999992              -0.000097886               0.000442805               0.999999992              -0.000110129               0.000474750               0.999999992              -0.000122792               0.000508081               0.999999992              -0.000135788               0.000542509               0.999999992              -0.000149020               0.000577846               0.999999992              -0.000162398               0.000613896               0.999999992              -0.000175734               0.000650069               0.999999992              -0.000188875               0.000686063               0.999999992              -0.000201712               0.000721718               0.999999992              -0.000214152               0.000756730               0.999999992              -0.000226156               0.000791055               0.999999992              -0.000078489               0.000449301               0.999999992              -0.000051298               0.000402873               0.999999992              -0.000048857               0.000399037               0.999999992              -0.000054878               0.000413422               0.999999992              -0.000064742               0.000437618               0.999999992              -0.000076729               0.000467918               0.999999992              -0.000089873               0.000501822               0.999999992              -0.000103463               0.000537792               0.999999992              -0.000117234               0.000575250               0.999999992              -0.000131071               0.000613913               0.999999992              -0.000145039               0.000653395               0.999999992              -0.000158899               0.000693333               0.999999992              -0.000172402               0.000733350               0.999999992              -0.000185520               0.000773070               0.999999992              -0.000198208               0.000812297               0.999999992              -0.000210509               0.000850860               0.999999992              -0.000222530               0.000888695               0.999999992              -0.000070837               0.000491176               0.999999992              -0.000039168               0.000449628               0.999999992              -0.000034486               0.000442026               0.999999992              -0.000039185               0.000452056               0.999999992              -0.000047800               0.000471996               0.999999992              -0.000058727               0.000498117               0.999999992              -0.000070840               0.000528316               0.999999992              -0.000083256               0.000560974               0.999999992              -0.000095693               0.000595364               0.999999992              -0.000107891               0.000631010               0.999999992              -0.000120168               0.000667587               0.999999992              -0.000132439               0.000704872               0.999999992              -0.000144462               0.000742458               0.999999992              -0.000156080               0.000780098               0.999999992              -0.000167282               0.000817567               0.999999992              -0.000178143               0.000854727               0.999999992              -0.000188980               0.000891407               0.999999992              -0.000062331               0.000528770               0.999999992              -0.000029047               0.000494195               0.999999992              -0.000021967               0.000485354               0.999999992              -0.000024903               0.000492059               0.999999992              -0.000032130               0.000508346               0.999999992              -0.000041638               0.000530855               0.999999992              -0.000052440               0.000557576               0.999999992              -0.000063590               0.000587061               0.999999992              -0.000074521               0.000618522               0.999999992              -0.000085174               0.000651326               0.999999992              -0.000095676               0.000685247               0.999999992              -0.000106163               0.000719904               0.999999992              -0.000116542               0.000755069               0.999999992              -0.000126384               0.000790380               0.999999992              -0.000135694               0.000825742               0.999999992              -0.000144491               0.000860987               0.999999992              -0.000153010               0.000896232               0.999999992              -0.000053181               0.000561391               0.999999992              -0.000020841               0.000535356               0.999999992              -0.000012009               0.000527186               0.999999992              -0.000013060               0.000531885               0.999999992              -0.000018637               0.000545442               0.999999992              -0.000026523               0.000565009               0.999999992              -0.000035637               0.000588894               0.999999992              -0.000045258               0.000615692               0.999999992              -0.000054670               0.000644506               0.999999992              -0.000063725               0.000674822               0.999999992              -0.000072536               0.000706292               0.999999992              -0.000081211               0.000738639               0.999999992              -0.000089658               0.000771573               0.999999992              -0.000097517               0.000804827               0.999999992              -0.000104482               0.000838202               0.999999992              -0.000110553               0.000871623               0.999999992              -0.000115707               0.000905196               0.999999992              -0.000043421               0.000588575               0.999999992              -0.000014432               0.000571584               0.999999992              -0.000004908               0.000565694               0.999999992              -0.000004319               0.000569665               0.999999992              -0.000008178               0.000581368               0.999999992              -0.000014219               0.000598791               0.999999992              -0.000021537               0.000620411               0.999999992              -0.000029417               0.000645125               0.999999992              -0.000037125               0.000671957               0.999999992              -0.000044556               0.000700344               0.999999992              -0.000051715               0.000729877               0.999999992              -0.000058539               0.000760379               0.999999992              -0.000064991               0.000791600               0.999999992              -0.000070713               0.000823251               0.999999992              -0.000075267               0.000855179               0.999999992              -0.000078393               0.000887259               0.999999992              -0.000079740               0.000919454               0.999999992              -0.000033166               0.000609956               0.999999992              -0.000009500               0.000601421               0.999999992              -0.000000649               0.000598728               0.999999992               0.000000947               0.000603078               0.999999992              -0.000001356               0.000613769               0.999999992              -0.000005630               0.000629623               0.999999992              -0.000010999               0.000649575               0.999999992              -0.000016893               0.000672687               0.999999992              -0.000022790               0.000698136               0.999999992              -0.000028521               0.000725223               0.999999992              -0.000034058               0.000753541               0.999999992              -0.000039204               0.000782888               0.999999992              -0.000043711               0.000813017               0.999999992              -0.000047380               0.000843711               0.999999992              -0.000049849               0.000874841               0.999999992              -0.000050488               0.000906237               0.999999992              -0.000048824               0.000937780               0.999999992              -0.000022419               0.000625517               0.999999992              -0.000005686               0.000623702               0.999999992               0.000001128               0.000624070               0.999999992               0.000002854               0.000629386               0.999999992               0.000001704               0.000639802               0.999999992              -0.000000910               0.000654793               0.999999992              -0.000004276               0.000673638               0.999999992              -0.000008181               0.000695609               0.999999992              -0.000012161               0.000719979               0.999999992              -0.000016071               0.000746226               0.999999992              -0.000019889               0.000773898               0.999999992              -0.000023440               0.000802692               0.999999992              -0.000026387               0.000832430               0.999999992              -0.000028486               0.000862802               0.999999992              -0.000029390               0.000893652               0.999999992              -0.000028569               0.000924897               0.999999992              -0.000025382               0.000956332               0.999999992              -0.000011302               0.000634997               0.999999992              -0.000002656               0.000637518               0.999999992               0.000001074               0.000640001               0.999999992               0.000002115               0.000646167               0.999999992               0.000001706               0.000656663               0.999999992               0.000000474               0.000671323               0.999999992              -0.000001105               0.000689559               0.999999992              -0.000003019               0.000710804               0.999999992              -0.000004972               0.000734525               0.999999992              -0.000006999               0.000760145               0.999999992              -0.000008979               0.000787399               0.999999992              -0.000010832               0.000816092               0.999999992              -0.000012388               0.000845929               0.999999992              -0.000013353               0.000876674               0.999999992              -0.000013462               0.000908002               0.999999992              -0.000012399               0.000939614               0.999999992              -0.000009690               0.000971234               0.999999992              -0.000000000               0.000638140               0.999999992               0.000000000               0.000642191               0.999999992               0.000000000               0.000645428               0.999999992              -0.000000000               0.000651937               0.999999992               0.000000000               0.000662572               0.999999992               0.000000000               0.000677131               0.999999992               0.000000000               0.000695183               0.999999992               0.000000000               0.000716160               0.999999992               0.000000000               0.000739566               0.999999992               0.000000000               0.000764997               0.999999992              -0.000000000               0.000792095               0.999999992              -0.000000000               0.000820749               0.999999992              -0.000000000               0.000850796               0.999999992              -0.000000000               0.000881886               0.999999992              -0.000000000               0.000913662               0.999999992               0.000000000               0.000945680               0.999999992               0.000000000               0.000977506               0.999999992              -0.000117757              -0.000000000               0.999999992              -0.000142841               0.000000000               0.999999992              -0.000154557              -0.000000000               0.999999992              -0.000161307               0.000000000               0.999999992              -0.000166396               0.000000000               0.999999992              -0.000171254               0.000000000               0.999999992              -0.000176605               0.000000000               0.999999992              -0.000182735               0.000000000               0.999999992              -0.000189778               0.000000000               0.999999992              -0.000197681              -0.000000000               0.999999992              -0.000206435               0.000000000               0.999999992              -0.000216066               0.000000000               0.999999992              -0.000226610               0.000000000               0.999999992              -0.000238017               0.000000000               0.999999992              -0.000250244               0.000000000               0.999999992              -0.000263319               0.000000000               0.999999992              -0.000276999               0.000000000               0.999999992              -0.000117046              -0.000063120               0.999999992              -0.000140852              -0.000054738               0.999999992              -0.000151806              -0.000052142               0.999999992              -0.000158123              -0.000052698               0.999999992              -0.000163017              -0.000055109               0.999999992              -0.000167841              -0.000058550               0.999999992              -0.000173183              -0.000062760               0.999999992              -0.000179279              -0.000067470               0.999999992              -0.000186281              -0.000072570               0.999999992              -0.000194193              -0.000077886               0.999999992              -0.000202959              -0.000083295               0.999999992              -0.000212594              -0.000088773               0.999999992              -0.000223110              -0.000094253               0.999999992              -0.000234477              -0.000099677               0.999999992              -0.000246689              -0.000104938               0.999999992              -0.000259630              -0.000109713               0.999999992              -0.000273122              -0.000113558               0.999999992              -0.000114969              -0.000125541               0.999999992              -0.000135033              -0.000108858               0.999999992              -0.000143838              -0.000104018               0.999999992              -0.000149108              -0.000105427               0.999999992              -0.000153590              -0.000110392               0.999999992              -0.000158373              -0.000117413               0.999999992              -0.000163867              -0.000125865               0.999999992              -0.000170185              -0.000135364               0.999999992              -0.000177416              -0.000145522               0.999999992              -0.000185539              -0.000156020               0.999999992              -0.000194495              -0.000166794               0.999999992              -0.000204293              -0.000177757               0.999999992              -0.000214953              -0.000188774               0.999999992              -0.000226376              -0.000199749               0.999999992              -0.000238539              -0.000210468               0.999999992              -0.000251324              -0.000220503               0.999999992              -0.000264554              -0.000229281               0.999999992              -0.000111478              -0.000186589               0.999999992              -0.000125664              -0.000161929               0.999999992              -0.000131521              -0.000155450               0.999999992              -0.000135566              -0.000158205               0.999999992              -0.000139766              -0.000166020               0.999999992              -0.000144732              -0.000176828               0.999999992              -0.000150659              -0.000189621               0.999999992              -0.000157578              -0.000203808               0.999999992              -0.000165432              -0.000218849               0.999999992              -0.000174150              -0.000234487               0.999999992              -0.000183662              -0.000250548               0.999999992              -0.000193959              -0.000266999               0.999999992              -0.000205031              -0.000283657               0.999999992              -0.000216725              -0.000300278               0.999999992              -0.000228955              -0.000316600               0.999999992              -0.000241614              -0.000332178               0.999999992              -0.000254567              -0.000346537               0.999999992              -0.000106719              -0.000245562               0.999999992              -0.000113364              -0.000213656               0.999999992              -0.000116122              -0.000206332               0.999999992              -0.000119245              -0.000210950               0.999999992              -0.000123501              -0.000221973               0.999999992              -0.000128977              -0.000236735               0.999999992              -0.000135739              -0.000253875               0.999999992              -0.000143634              -0.000272679               0.999999992              -0.000152482              -0.000292547               0.999999992              -0.000162154              -0.000313135               0.999999992              -0.000172493              -0.000334364               0.999999992              -0.000183449              -0.000356225               0.999999992              -0.000194961              -0.000378404               0.999999992              -0.000206923              -0.000400604               0.999999992              -0.000219177              -0.000422532               0.999999992              -0.000231631              -0.000443688               0.999999992              -0.000244287              -0.000463888               0.999999992              -0.000100888              -0.000301877               0.999999992              -0.000098984              -0.000263755               0.999999992              -0.000098962              -0.000256501               0.999999992              -0.000101651              -0.000263424               0.999999992              -0.000106478              -0.000277777               0.999999992              -0.000113011              -0.000296555               0.999999992              -0.000121085              -0.000318065               0.999999992              -0.000130359              -0.000341459               0.999999992              -0.000140469              -0.000366042               0.999999992              -0.000151239              -0.000391357               0.999999992              -0.000162478              -0.000417579               0.999999992              -0.000174168              -0.000444595               0.999999992              -0.000186265              -0.000471898               0.999999992              -0.000198603              -0.000499292               0.999999992              -0.000211091              -0.000526300               0.999999992              -0.000223621              -0.000552735               0.999999992              -0.000236212              -0.000578511               0.999999992              -0.000094030              -0.000355076               0.999999992              -0.000083284              -0.000312113               0.999999992              -0.000081234              -0.000305678               0.999999992              -0.000084228              -0.000315153               0.999999992              -0.000090296              -0.000332822               0.999999992              -0.000098498              -0.000355564               0.999999992              -0.000108261              -0.000381367               0.999999992              -0.000119065              -0.000409131               0.999999992              -0.000130499              -0.000438076               0.999999992              -0.000142367              -0.000468103               0.999999992              -0.000154604              -0.000499082               0.999999992              -0.000167162              -0.000530811               0.999999992              -0.000179934              -0.000562842               0.999999992              -0.000192793              -0.000594793               0.999999992              -0.000205581              -0.000626347               0.999999992              -0.000218267              -0.000657352               0.999999992              -0.000230762              -0.000687775               0.999999992              -0.000086434              -0.000404487               0.999999992              -0.000067161              -0.000358531               0.999999992              -0.000064149              -0.000353403               0.999999992              -0.000068402              -0.000365383               0.999999992              -0.000076286              -0.000386305               0.999999992              -0.000086417              -0.000412870               0.999999992              -0.000097886              -0.000442805               0.999999992              -0.000110129              -0.000474750               0.999999992              -0.000122792              -0.000508081               0.999999992              -0.000135788              -0.000542509               0.999999992              -0.000149020              -0.000577846               0.999999992              -0.000162398              -0.000613896               0.999999992              -0.000175734              -0.000650069               0.999999992              -0.000188875              -0.000686063               0.999999992              -0.000201712              -0.000721718               0.999999992              -0.000214152              -0.000756730               0.999999992              -0.000226156              -0.000791055               0.999999992              -0.000078489              -0.000449301               0.999999992              -0.000051298              -0.000402873               0.999999992              -0.000048857              -0.000399037               0.999999992              -0.000054878              -0.000413422               0.999999992              -0.000064742              -0.000437618               0.999999992              -0.000076729              -0.000467918               0.999999992              -0.000089873              -0.000501822               0.999999992              -0.000103463              -0.000537792               0.999999992              -0.000117234              -0.000575250               0.999999992              -0.000131071              -0.000613913               0.999999992              -0.000145039              -0.000653395               0.999999992              -0.000158899              -0.000693333               0.999999992              -0.000172402              -0.000733350               0.999999992              -0.000185520              -0.000773070               0.999999992              -0.000198208              -0.000812297               0.999999992              -0.000210509              -0.000850860               0.999999992              -0.000222530              -0.000888695               0.999999992              -0.000070837              -0.000491176               0.999999992              -0.000039168              -0.000449628               0.999999992              -0.000034486              -0.000442026               0.999999992              -0.000039185              -0.000452056               0.999999992              -0.000047800              -0.000471996               0.999999992              -0.000058727              -0.000498117               0.999999992              -0.000070840              -0.000528316               0.999999992              -0.000083256              -0.000560974               0.999999992              -0.000095693              -0.000595364               0.999999992              -0.000107891              -0.000631010               0.999999992              -0.000120168              -0.000667587               0.999999992              -0.000132439              -0.000704872               0.999999992              -0.000144462              -0.000742458               0.999999992              -0.000156080              -0.000780098               0.999999992              -0.000167282              -0.000817567               0.999999992              -0.000178143              -0.000854727               0.999999992              -0.000188980              -0.000891407               0.999999992              -0.000062331              -0.000528770               0.999999992              -0.000029047              -0.000494195               0.999999992              -0.000021967              -0.000485354               0.999999992              -0.000024903              -0.000492059               0.999999992              -0.000032130              -0.000508346               0.999999992              -0.000041638              -0.000530855               0.999999992              -0.000052440              -0.000557576               0.999999992              -0.000063590              -0.000587061               0.999999992              -0.000074521              -0.000618522               0.999999992              -0.000085174              -0.000651326               0.999999992              -0.000095676              -0.000685247               0.999999992              -0.000106163              -0.000719904               0.999999992              -0.000116542              -0.000755069               0.999999992              -0.000126384              -0.000790380               0.999999992              -0.000135694              -0.000825742               0.999999992              -0.000144491              -0.000860987               0.999999992              -0.000153010              -0.000896232               0.999999992              -0.000053181              -0.000561391               0.999999992              -0.000020841              -0.000535356               0.999999992              -0.000012009              -0.000527186               0.999999992              -0.000013060              -0.000531885               0.999999992              -0.000018637              -0.000545442               0.999999992              -0.000026523              -0.000565009               0.999999992              -0.000035637              -0.000588894               0.999999992              -0.000045258              -0.000615692               0.999999992              -0.000054670              -0.000644506               0.999999992              -0.000063725              -0.000674822               0.999999992              -0.000072536              -0.000706292               0.999999992              -0.000081211              -0.000738639               0.999999992              -0.000089658              -0.000771573               0.999999992              -0.000097517              -0.000804827               0.999999992              -0.000104482              -0.000838202               0.999999992              -0.000110553              -0.000871623               0.999999992              -0.000115707              -0.000905196               0.999999992              -0.000043421              -0.000588575               0.999999992              -0.000014432              -0.000571584               0.999999992              -0.000004908              -0.000565694               0.999999992              -0.000004319              -0.000569665               0.999999992              -0.000008178              -0.000581368               0.999999992              -0.000014219              -0.000598791               0.999999992              -0.000021537              -0.000620411               0.999999992              -0.000029417              -0.000645125               0.999999992              -0.000037125              -0.000671957               0.999999992              -0.000044556              -0.000700344               0.999999992              -0.000051715              -0.000729877               0.999999992              -0.000058539              -0.000760379               0.999999992              -0.000064991              -0.000791600               0.999999992              -0.000070713              -0.000823251               0.999999992              -0.000075267              -0.000855179               0.999999992              -0.000078393              -0.000887259               0.999999992              -0.000079740              -0.000919454               0.999999992              -0.000033166              -0.000609956               0.999999992              -0.000009500              -0.000601421               0.999999992              -0.000000649              -0.000598728               0.999999992               0.000000947              -0.000603078               0.999999992              -0.000001356              -0.000613769               0.999999992              -0.000005630              -0.000629623               0.999999992              -0.000010999              -0.000649575               0.999999992              -0.000016893              -0.000672687               0.999999992              -0.000022790              -0.000698136               0.999999992              -0.000028521              -0.000725223               0.999999992              -0.000034058              -0.000753541               0.999999992              -0.000039204              -0.000782888               0.999999992              -0.000043711              -0.000813017               0.999999992              -0.000047380              -0.000843711               0.999999992              -0.000049849              -0.000874841               0.999999992              -0.000050488              -0.000906237               0.999999992              -0.000048824              -0.000937780               0.999999992              -0.000022419              -0.000625517               0.999999992              -0.000005686              -0.000623702               0.999999992               0.000001128              -0.000624070               0.999999992               0.000002854              -0.000629386               0.999999992               0.000001704              -0.000639802               0.999999992              -0.000000910              -0.000654793               0.999999992              -0.000004276              -0.000673638               0.999999992              -0.000008181              -0.000695609               0.999999992              -0.000012161              -0.000719979               0.999999992              -0.000016071              -0.000746226               0.999999992              -0.000019889              -0.000773898               0.999999992              -0.000023440              -0.000802692               0.999999992              -0.000026387              -0.000832430               0.999999992              -0.000028486              -0.000862802               0.999999992              -0.000029390              -0.000893652               0.999999992              -0.000028569              -0.000924897               0.999999992              -0.000025382              -0.000956332               0.999999992              -0.000011302              -0.000634997               0.999999992              -0.000002656              -0.000637518               0.999999992               0.000001074              -0.000640001               0.999999992               0.000002115              -0.000646167               0.999999992               0.000001706              -0.000656663               0.999999992               0.000000474              -0.000671323               0.999999992              -0.000001105              -0.000689559               0.999999992              -0.000003019              -0.000710804               0.999999992              -0.000004972              -0.000734525               0.999999992              -0.000006999              -0.000760145               0.999999992              -0.000008979              -0.000787399               0.999999992              -0.000010832              -0.000816092               0.999999992              -0.000012388              -0.000845929               0.999999992              -0.000013353              -0.000876674               0.999999992              -0.000013462              -0.000908002               0.999999992              -0.000012399              -0.000939614               0.999999992              -0.000009690              -0.000971234               0.999999992              -0.000000000              -0.000638140               0.999999992              -0.000000000              -0.000642191               0.999999992               0.000000000              -0.000645428               0.999999992               0.000000000              -0.000651937               0.999999992               0.000000000              -0.000662572               0.999999992               0.000000000              -0.000677131               0.999999992              -0.000000000              -0.000695183               0.999999992              -0.000000000              -0.000716160               0.999999992              -0.000000000              -0.000739566               0.999999992              -0.000000000              -0.000764997               0.999999992              -0.000000000              -0.000792095               0.999999992               0.000000000              -0.000820749               0.999999992              -0.000000000              -0.000850796               0.999999992              -0.000000000              -0.000881886               0.999999992               0.000000000              -0.000913662               0.999999992               0.000000000              -0.000945680               0.999999992               0.000000000              -0.000977506               0.999999992               0.000117757               0.000000000               0.999999992               0.000142841              -0.000000000               0.999999992               0.000154557               0.000000000               0.999999992               0.000161307              -0.000000000               0.999999992               0.000166396              -0.000000000               0.999999992               0.000171254               0.000000000               0.999999992               0.000176605              -0.000000000               0.999999992               0.000182735               0.000000000               0.999999992               0.000189778              -0.000000000               0.999999992               0.000197681               0.000000000               0.999999992               0.000206435               0.000000000               0.999999992               0.000216066              -0.000000000               0.999999992               0.000226610              -0.000000000               0.999999992               0.000238017              -0.000000000               0.999999992               0.000250244               0.000000000               0.999999992               0.000263319               0.000000000               0.999999992               0.000276999               0.000000000               0.999999992               0.000117046              -0.000063120               0.999999992               0.000140852              -0.000054738               0.999999992               0.000151806              -0.000052142               0.999999992               0.000158123              -0.000052698               0.999999992               0.000163017              -0.000055109               0.999999992               0.000167841              -0.000058550               0.999999992               0.000173183              -0.000062760               0.999999992               0.000179279              -0.000067470               0.999999992               0.000186281              -0.000072570               0.999999992               0.000194193              -0.000077886               0.999999992               0.000202959              -0.000083295               0.999999992               0.000212594              -0.000088773               0.999999992               0.000223110              -0.000094253               0.999999992               0.000234477              -0.000099677               0.999999992               0.000246689              -0.000104938               0.999999992               0.000259630              -0.000109713               0.999999992               0.000273122              -0.000113558               0.999999992               0.000114969              -0.000125541               0.999999992               0.000135033              -0.000108858               0.999999992               0.000143838              -0.000104018               0.999999992               0.000149108              -0.000105427               0.999999992               0.000153590              -0.000110392               0.999999992               0.000158373              -0.000117413               0.999999992               0.000163867              -0.000125865               0.999999992               0.000170185              -0.000135364               0.999999992               0.000177416              -0.000145522               0.999999992               0.000185539              -0.000156020               0.999999992               0.000194495              -0.000166794               0.999999992               0.000204293              -0.000177757               0.999999992               0.000214953              -0.000188774               0.999999992               0.000226376              -0.000199749               0.999999992               0.000238539              -0.000210468               0.999999992               0.000251324              -0.000220503               0.999999992               0.000264554              -0.000229281               0.999999992               0.000111478              -0.000186589               0.999999992               0.000125664              -0.000161929               0.999999992               0.000131521              -0.000155450               0.999999992               0.000135566              -0.000158205               0.999999992               0.000139766              -0.000166020               0.999999992               0.000144732              -0.000176828               0.999999992               0.000150659              -0.000189621               0.999999992               0.000157578              -0.000203808               0.999999992               0.000165432              -0.000218849               0.999999992               0.000174150              -0.000234487               0.999999992               0.000183662              -0.000250548               0.999999992               0.000193959              -0.000266999               0.999999992               0.000205031              -0.000283657               0.999999992               0.000216725              -0.000300278               0.999999992               0.000228955              -0.000316600               0.999999992               0.000241614              -0.000332178               0.999999992               0.000254567              -0.000346537               0.999999992               0.000106719              -0.000245562               0.999999992               0.000113364              -0.000213656               0.999999992               0.000116122              -0.000206332               0.999999992               0.000119245              -0.000210950               0.999999992               0.000123501              -0.000221973               0.999999992               0.000128977              -0.000236735               0.999999992               0.000135739              -0.000253875               0.999999992               0.000143634              -0.000272679               0.999999992               0.000152482              -0.000292547               0.999999992               0.000162154              -0.000313135               0.999999992               0.000172493              -0.000334364               0.999999992               0.000183449              -0.000356225               0.999999992               0.000194961              -0.000378404               0.999999992               0.000206923              -0.000400604               0.999999992               0.000219177              -0.000422532               0.999999992               0.000231631              -0.000443688               0.999999992               0.000244287              -0.000463888               0.999999992               0.000100888              -0.000301877               0.999999992               0.000098984              -0.000263755               0.999999992               0.000098962              -0.000256501               0.999999992               0.000101651              -0.000263424               0.999999992               0.000106478              -0.000277777               0.999999992               0.000113011              -0.000296555               0.999999992               0.000121085              -0.000318065               0.999999992               0.000130359              -0.000341459               0.999999992               0.000140469              -0.000366042               0.999999992               0.000151239              -0.000391357               0.999999992               0.000162478              -0.000417579               0.999999992               0.000174168              -0.000444595               0.999999992               0.000186265              -0.000471898               0.999999992               0.000198603              -0.000499292               0.999999992               0.000211091              -0.000526300               0.999999992               0.000223621              -0.000552735               0.999999992               0.000236212              -0.000578511               0.999999992               0.000094030              -0.000355076               0.999999992               0.000083284              -0.000312113               0.999999992               0.000081234              -0.000305678               0.999999992               0.000084228              -0.000315153               0.999999992               0.000090296              -0.000332822               0.999999992               0.000098498              -0.000355564               0.999999992               0.000108261              -0.000381367               0.999999992               0.000119065              -0.000409131               0.999999992               0.000130499              -0.000438076               0.999999992               0.000142367              -0.000468103               0.999999992               0.000154604              -0.000499082               0.999999992               0.000167162              -0.000530811               0.999999992               0.000179934              -0.000562842               0.999999992               0.000192793              -0.000594793               0.999999992               0.000205581              -0.000626347               0.999999992               0.000218267              -0.000657352               0.999999992               0.000230762              -0.000687775               0.999999992               0.000086434              -0.000404487               0.999999992               0.000067161              -0.000358531               0.999999992               0.000064149              -0.000353403               0.999999992               0.000068402              -0.000365383               0.999999992               0.000076286              -0.000386305               0.999999992               0.000086417              -0.000412870               0.999999992               0.000097886              -0.000442805               0.999999992               0.000110129              -0.000474750               0.999999992               0.000122792              -0.000508081               0.999999992               0.000135788              -0.000542509               0.999999992               0.000149020              -0.000577846               0.999999992               0.000162398              -0.000613896               0.999999992               0.000175734              -0.000650069               0.999999992               0.000188875              -0.000686063               0.999999992               0.000201712              -0.000721718               0.999999992               0.000214152              -0.000756730               0.999999992               0.000226156              -0.000791055               0.999999992               0.000078489              -0.000449301               0.999999992               0.000051298              -0.000402873               0.999999992               0.000048857              -0.000399037               0.999999992               0.000054878              -0.000413422               0.999999992               0.000064742              -0.000437618               0.999999992               0.000076729              -0.000467918               0.999999992               0.000089873              -0.000501822               0.999999992               0.000103463              -0.000537792               0.999999992               0.000117234              -0.000575250               0.999999992               0.000131071              -0.000613913               0.999999992               0.000145039              -0.000653395               0.999999992               0.000158899              -0.000693333               0.999999992               0.000172402              -0.000733350               0.999999992               0.000185520              -0.000773070               0.999999992               0.000198208              -0.000812297               0.999999992               0.000210509              -0.000850860               0.999999992               0.000222530              -0.000888695               0.999999992               0.000070837              -0.000491176               0.999999992               0.000039168              -0.000449628               0.999999992               0.000034486              -0.000442026               0.999999992               0.000039185              -0.000452056               0.999999992               0.000047800              -0.000471996               0.999999992               0.000058727              -0.000498117               0.999999992               0.000070840              -0.000528316               0.999999992               0.000083256              -0.000560974               0.999999992               0.000095693              -0.000595364               0.999999992               0.000107891              -0.000631010               0.999999992               0.000120168              -0.000667587               0.999999992               0.000132439              -0.000704872               0.999999992               0.000144462              -0.000742458               0.999999992               0.000156080              -0.000780098               0.999999992               0.000167282              -0.000817567               0.999999992               0.000178143              -0.000854727               0.999999992               0.000188980              -0.000891407               0.999999992               0.000062331              -0.000528770               0.999999992               0.000029047              -0.000494195               0.999999992               0.000021967              -0.000485354               0.999999992               0.000024903              -0.000492059               0.999999992               0.000032130              -0.000508346               0.999999992               0.000041638              -0.000530855               0.999999992               0.000052440              -0.000557576               0.999999992               0.000063590              -0.000587061               0.999999992               0.000074521              -0.000618522               0.999999992               0.000085174              -0.000651326               0.999999992               0.000095676              -0.000685247               0.999999992               0.000106163              -0.000719904               0.999999992               0.000116542              -0.000755069               0.999999992               0.000126384              -0.000790380               0.999999992               0.000135694              -0.000825742               0.999999992               0.000144491              -0.000860987               0.999999992               0.000153010              -0.000896232               0.999999992               0.000053181              -0.000561391               0.999999992               0.000020841              -0.000535356               0.999999992               0.000012009              -0.000527186               0.999999992               0.000013060              -0.000531885               0.999999992               0.000018637              -0.000545442               0.999999992               0.000026523              -0.000565009               0.999999992               0.000035637              -0.000588894               0.999999992               0.000045258              -0.000615692               0.999999992               0.000054670              -0.000644506               0.999999992               0.000063725              -0.000674822               0.999999992               0.000072536              -0.000706292               0.999999992               0.000081211              -0.000738639               0.999999992               0.000089658              -0.000771573               0.999999992               0.000097517              -0.000804827               0.999999992               0.000104482              -0.000838202               0.999999992               0.000110553              -0.000871623               0.999999992               0.000115707              -0.000905196               0.999999992               0.000043421              -0.000588575               0.999999992               0.000014432              -0.000571584               0.999999992               0.000004908              -0.000565694               0.999999992               0.000004319              -0.000569665               0.999999992               0.000008178              -0.000581368               0.999999992               0.000014219              -0.000598791               0.999999992               0.000021537              -0.000620411               0.999999992               0.000029417              -0.000645125               0.999999992               0.000037125              -0.000671957               0.999999992               0.000044556              -0.000700344               0.999999992               0.000051715              -0.000729877               0.999999992               0.000058539              -0.000760379               0.999999992               0.000064991              -0.000791600               0.999999992               0.000070713              -0.000823251               0.999999992               0.000075267              -0.000855179               0.999999992               0.000078393              -0.000887259               0.999999992               0.000079740              -0.000919454               0.999999992               0.000033166              -0.000609956               0.999999992               0.000009500              -0.000601421               0.999999992               0.000000649              -0.000598728               0.999999992              -0.000000947              -0.000603078               0.999999992               0.000001356              -0.000613769               0.999999992               0.000005630              -0.000629623               0.999999992               0.000010999              -0.000649575               0.999999992               0.000016893              -0.000672687               0.999999992               0.000022790              -0.000698136               0.999999992               0.000028521              -0.000725223               0.999999992               0.000034058              -0.000753541               0.999999992               0.000039204              -0.000782888               0.999999992               0.000043711              -0.000813017               0.999999992               0.000047380              -0.000843711               0.999999992               0.000049849              -0.000874841               0.999999992               0.000050488              -0.000906237               0.999999992               0.000048824              -0.000937780               0.999999992               0.000022419              -0.000625517               0.999999992               0.000005686              -0.000623702               0.999999992              -0.000001128              -0.000624070               0.999999992              -0.000002854              -0.000629386               0.999999992              -0.000001704              -0.000639802               0.999999992               0.000000910              -0.000654793               0.999999992               0.000004276              -0.000673638               0.999999992               0.000008181              -0.000695609               0.999999992               0.000012161              -0.000719979               0.999999992               0.000016071              -0.000746226               0.999999992               0.000019889              -0.000773898               0.999999992               0.000023440              -0.000802692               0.999999992               0.000026387              -0.000832430               0.999999992               0.000028486              -0.000862802               0.999999992               0.000029390              -0.000893652               0.999999992               0.000028569              -0.000924897               0.999999992               0.000025382              -0.000956332               0.999999992               0.000011302              -0.000634997               0.999999992               0.000002656              -0.000637518               0.999999992              -0.000001074              -0.000640001               0.999999992              -0.000002115              -0.000646167               0.999999992              -0.000001706              -0.000656663               0.999999992              -0.000000474              -0.000671323               0.999999992               0.000001105              -0.000689559               0.999999992               0.000003019              -0.000710804               0.999999992               0.000004972              -0.000734525               0.999999992               0.000006999              -0.000760145               0.999999992               0.000008979              -0.000787399               0.999999992               0.000010832              -0.000816092               0.999999992               0.000012388              -0.000845929               0.999999992               0.000013353              -0.000876674               0.999999992               0.000013462              -0.000908002               0.999999992               0.000012399              -0.000939614               0.999999992               0.000009690              -0.000971234               0.999999992              -0.000000000              -0.000638140               0.999999992              -0.000000000              -0.000642191               0.999999992               0.000000000              -0.000645428               0.999999992               0.000000000              -0.000651937               0.999999992               0.000000000              -0.000662572               0.999999992               0.000000000              -0.000677131               0.999999992              -0.000000000              -0.000695183               0.999999992              -0.000000000              -0.000716160               0.999999992              -0.000000000              -0.000739566               0.999999992              -0.000000000              -0.000764997               0.999999992              -0.000000000              -0.000792095               0.999999992               0.000000000              -0.000820749               0.999999992              -0.000000000              -0.000850796               0.999999992              -0.000000000              -0.000881886               0.999999992               0.000000000              -0.000913662               0.999999992               0.000000000              -0.000945680               0.999999992               0.000000000              -0.000977506               0.999999992               0.000117757               0.000000000               0.999999992               0.000142841              -0.000000000               0.999999992               0.000154557               0.000000000               0.999999992               0.000161307              -0.000000000               0.999999992               0.000166396              -0.000000000               0.999999992               0.000171254               0.000000000               0.999999992               0.000176605              -0.000000000               0.999999992               0.000182735               0.000000000               0.999999992               0.000189778              -0.000000000               0.999999992               0.000197681               0.000000000               0.999999992               0.000206435               0.000000000               0.999999992               0.000216066              -0.000000000               0.999999992               0.000226610              -0.000000000               0.999999992               0.000238017              -0.000000000               0.999999992               0.000250244               0.000000000               0.999999992               0.000263319               0.000000000               0.999999992               0.000276999               0.000000000               0.999999992               0.000117046               0.000063120               0.999999992               0.000140852               0.000054738               0.999999992               0.000151806               0.000052142               0.999999992               0.000158123               0.000052698               0.999999992               0.000163017               0.000055109               0.999999992               0.000167841               0.000058550               0.999999992               0.000173183               0.000062760               0.999999992               0.000179279               0.000067470               0.999999992               0.000186281               0.000072570               0.999999992               0.000194193               0.000077886               0.999999992               0.000202959               0.000083295               0.999999992               0.000212594               0.000088773               0.999999992               0.000223110               0.000094253               0.999999992               0.000234477               0.000099677               0.999999992               0.000246689               0.000104938               0.999999992               0.000259630               0.000109713               0.999999992               0.000273122               0.000113558               0.999999992               0.000114969               0.000125541               0.999999992               0.000135033               0.000108858               0.999999992               0.000143838               0.000104018               0.999999992               0.000149108               0.000105427               0.999999992               0.000153590               0.000110392               0.999999992               0.000158373               0.000117413               0.999999992               0.000163867               0.000125865               0.999999992               0.000170185               0.000135364               0.999999992               0.000177416               0.000145522               0.999999992               0.000185539               0.000156020               0.999999992               0.000194495               0.000166794               0.999999992               0.000204293               0.000177757               0.999999992               0.000214953               0.000188774               0.999999992               0.000226376               0.000199749               0.999999992               0.000238539               0.000210468               0.999999992               0.000251324               0.000220503               0.999999992               0.000264554               0.000229281               0.999999992               0.000111478               0.000186589               0.999999992               0.000125664               0.000161929               0.999999992               0.000131521               0.000155450               0.999999992               0.000135566               0.000158205               0.999999992               0.000139766               0.000166020               0.999999992               0.000144732               0.000176828               0.999999992               0.000150659               0.000189621               0.999999992               0.000157578               0.000203808               0.999999992               0.000165432               0.000218849               0.999999992               0.000174150               0.000234487               0.999999992               0.000183662               0.000250548               0.999999992               0.000193959               0.000266999               0.999999992               0.000205031               0.000283657               0.999999992               0.000216725               0.000300278               0.999999992               0.000228955               0.000316600               0.999999992               0.000241614               0.000332178               0.999999992               0.000254567               0.000346537               0.999999992               0.000106719               0.000245562               0.999999992               0.000113364               0.000213656               0.999999992               0.000116122               0.000206332               0.999999992               0.000119245               0.000210950               0.999999992               0.000123501               0.000221973               0.999999992               0.000128977               0.000236735               0.999999992               0.000135739               0.000253875               0.999999992               0.000143634               0.000272679               0.999999992               0.000152482               0.000292547               0.999999992               0.000162154               0.000313135               0.999999992               0.000172493               0.000334364               0.999999992               0.000183449               0.000356225               0.999999992               0.000194961               0.000378404               0.999999992               0.000206923               0.000400604               0.999999992               0.000219177               0.000422532               0.999999992               0.000231631               0.000443688               0.999999992               0.000244287               0.000463888               0.999999992               0.000100888               0.000301877               0.999999992               0.000098984               0.000263755               0.999999992               0.000098962               0.000256501               0.999999992               0.000101651               0.000263424               0.999999992               0.000106478               0.000277777               0.999999992               0.000113011               0.000296555               0.999999992               0.000121085               0.000318065               0.999999992               0.000130359               0.000341459               0.999999992               0.000140469               0.000366042               0.999999992               0.000151239               0.000391357               0.999999992               0.000162478               0.000417579               0.999999992               0.000174168               0.000444595               0.999999992               0.000186265               0.000471898               0.999999992               0.000198603               0.000499292               0.999999992               0.000211091               0.000526300               0.999999992               0.000223621               0.000552735               0.999999992               0.000236212               0.000578511               0.999999992               0.000094030               0.000355076               0.999999992               0.000083284               0.000312113               0.999999992               0.000081234               0.000305678               0.999999992               0.000084228               0.000315153               0.999999992               0.000090296               0.000332822               0.999999992               0.000098498               0.000355564               0.999999992               0.000108261               0.000381367               0.999999992               0.000119065               0.000409131               0.999999992               0.000130499               0.000438076               0.999999992               0.000142367               0.000468103               0.999999992               0.000154604               0.000499082               0.999999992               0.000167162               0.000530811               0.999999992               0.000179934               0.000562842               0.999999992               0.000192793               0.000594793               0.999999992               0.000205581               0.000626347               0.999999992               0.000218267               0.000657352               0.999999992               0.000230762               0.000687775               0.999999992               0.000086434               0.000404487               0.999999992               0.000067161               0.000358531               0.999999992               0.000064149               0.000353403               0.999999992               0.000068402               0.000365383               0.999999992               0.000076286               0.000386305               0.999999992               0.000086417               0.000412870               0.999999992               0.000097886               0.000442805               0.999999992               0.000110129               0.000474750               0.999999992               0.000122792               0.000508081               0.999999992               0.000135788               0.000542509               0.999999992               0.000149020               0.000577846               0.999999992               0.000162398               0.000613896               0.999999992               0.000175734               0.000650069               0.999999992               0.000188875               0.000686063               0.999999992               0.000201712               0.000721718               0.999999992               0.000214152               0.000756730               0.999999992               0.000226156               0.000791055               0.999999992               0.000078489               0.000449301               0.999999992               0.000051298               0.000402873               0.999999992               0.000048857               0.000399037               0.999999992               0.000054878               0.000413422               0.999999992               0.000064742               0.000437618               0.999999992               0.000076729               0.000467918               0.999999992               0.000089873               0.000501822               0.999999992               0.000103463               0.000537792               0.999999992               0.000117234               0.000575250               0.999999992               0.000131071               0.000613913               0.999999992               0.000145039               0.000653395               0.999999992               0.000158899               0.000693333               0.999999992               0.000172402               0.000733350               0.999999992               0.000185520               0.000773070               0.999999992               0.000198208               0.000812297               0.999999992               0.000210509               0.000850860               0.999999992               0.000222530               0.000888695               0.999999992               0.000070837               0.000491176               0.999999992               0.000039168               0.000449628               0.999999992               0.000034486               0.000442026               0.999999992               0.000039185               0.000452056               0.999999992               0.000047800               0.000471996               0.999999992               0.000058727               0.000498117               0.999999992               0.000070840               0.000528316               0.999999992               0.000083256               0.000560974               0.999999992               0.000095693               0.000595364               0.999999992               0.000107891               0.000631010               0.999999992               0.000120168               0.000667587               0.999999992               0.000132439               0.000704872               0.999999992               0.000144462               0.000742458               0.999999992               0.000156080               0.000780098               0.999999992               0.000167282               0.000817567               0.999999992               0.000178143               0.000854727               0.999999992               0.000188980               0.000891407               0.999999992               0.000062331               0.000528770               0.999999992               0.000029047               0.000494195               0.999999992               0.000021967               0.000485354               0.999999992               0.000024903               0.000492059               0.999999992               0.000032130               0.000508346               0.999999992               0.000041638               0.000530855               0.999999992               0.000052440               0.000557576               0.999999992               0.000063590               0.000587061               0.999999992               0.000074521               0.000618522               0.999999992               0.000085174               0.000651326               0.999999992               0.000095676               0.000685247               0.999999992               0.000106163               0.000719904               0.999999992               0.000116542               0.000755069               0.999999992               0.000126384               0.000790380               0.999999992               0.000135694               0.000825742               0.999999992               0.000144491               0.000860987               0.999999992               0.000153010               0.000896232               0.999999992               0.000053181               0.000561391               0.999999992               0.000020841               0.000535356               0.999999992               0.000012009               0.000527186               0.999999992               0.000013060               0.000531885               0.999999992               0.000018637               0.000545442               0.999999992               0.000026523               0.000565009               0.999999992               0.000035637               0.000588894               0.999999992               0.000045258               0.000615692               0.999999992               0.000054670               0.000644506               0.999999992               0.000063725               0.000674822               0.999999992               0.000072536               0.000706292               0.999999992               0.000081211               0.000738639               0.999999992               0.000089658               0.000771573               0.999999992               0.000097517               0.000804827               0.999999992               0.000104482               0.000838202               0.999999992               0.000110553               0.000871623               0.999999992               0.000115707               0.000905196               0.999999992               0.000043421               0.000588575               0.999999992               0.000014432               0.000571584               0.999999992               0.000004908               0.000565694               0.999999992               0.000004319               0.000569665               0.999999992               0.000008178               0.000581368               0.999999992               0.000014219               0.000598791               0.999999992               0.000021537               0.000620411               0.999999992               0.000029417               0.000645125               0.999999992               0.000037125               0.000671957               0.999999992               0.000044556               0.000700344               0.999999992               0.000051715               0.000729877               0.999999992               0.000058539               0.000760379               0.999999992               0.000064991               0.000791600               0.999999992               0.000070713               0.000823251               0.999999992               0.000075267               0.000855179               0.999999992               0.000078393               0.000887259               0.999999992               0.000079740               0.000919454               0.999999992               0.000033166               0.000609956               0.999999992               0.000009500               0.000601421               0.999999992               0.000000649               0.000598728               0.999999992              -0.000000947               0.000603078               0.999999992               0.000001356               0.000613769               0.999999992               0.000005630               0.000629623               0.999999992               0.000010999               0.000649575               0.999999992               0.000016893               0.000672687               0.999999992               0.000022790               0.000698136               0.999999992               0.000028521               0.000725223               0.999999992               0.000034058               0.000753541               0.999999992               0.000039204               0.000782888               0.999999992               0.000043711               0.000813017               0.999999992               0.000047380               0.000843711               0.999999992               0.000049849               0.000874841               0.999999992               0.000050488               0.000906237               0.999999992               0.000048824               0.000937780               0.999999992               0.000022419               0.000625517               0.999999992               0.000005686               0.000623702               0.999999992              -0.000001128               0.000624070               0.999999992              -0.000002854               0.000629386               0.999999992              -0.000001704               0.000639802               0.999999992               0.000000910               0.000654793               0.999999992               0.000004276               0.000673638               0.999999992               0.000008181               0.000695609               0.999999992               0.000012161               0.000719979               0.999999992               0.000016071               0.000746226               0.999999992               0.000019889               0.000773898               0.999999992               0.000023440               0.000802692               0.999999992               0.000026387               0.000832430               0.999999992               0.000028486               0.000862802               0.999999992               0.000029390               0.000893652               0.999999992               0.000028569               0.000924897               0.999999992               0.000025382               0.000956332               0.999999992               0.000011302               0.000634997               0.999999992               0.000002656               0.000637518               0.999999992              -0.000001074               0.000640001               0.999999992              -0.000002115               0.000646167               0.999999992              -0.000001706               0.000656663               0.999999992              -0.000000474               0.000671323               0.999999992               0.000001105               0.000689559               0.999999992               0.000003019               0.000710804               0.999999992               0.000004972               0.000734525               0.999999992               0.000006999               0.000760145               0.999999992               0.000008979               0.000787399               0.999999992               0.000010832               0.000816092               0.999999992               0.000012388               0.000845929               0.999999992               0.000013353               0.000876674               0.999999992               0.000013462               0.000908002               0.999999992               0.000012399               0.000939614               0.999999992               0.000009690               0.000971234               0.999999992              -0.000000000               0.000638140               0.999999992               0.000000000               0.000642191               0.999999992               0.000000000               0.000645428               0.999999992              -0.000000000               0.000651937               0.999999992               0.000000000               0.000662572               0.999999992               0.000000000               0.000677131               0.999999992               0.000000000               0.000695183               0.999999992               0.000000000               0.000716160               0.999999992               0.000000000               0.000739566               0.999999992               0.000000000               0.000764997               0.999999992              -0.000000000               0.000792095               0.999999992              -0.000000000               0.000820749               0.999999992              -0.000000000               0.000850796               0.999999992              -0.000000000               0.000881886               0.999999992              -0.000000000               0.000913662               0.999999992               0.000000000               0.000945680               0.999999992               0.000000000               0.000977506               0.999999992 </DataArray>
<DataArray type="Float64"                                    Name="stress"                                                      NumberOfComponents="10" format="ascii">
              0.001046991               0.011747947               0.000000000              -0.001075869               0.004274566               0.003198697               0.000000000               0.000000000               0.000000000               0.000000000               0.001127506               0.009562711              -0.000000000              -0.000772522               0.003445046               0.002672524               0.000000000               0.000000000               0.000000000               0.000000000               0.001555192               0.007815298              -0.000000000              -0.000393714               0.002736311               0.002342597               0.000000000               0.000000000               0.000000000               0.000000000               0.001600381               0.006863802               0.000000000              -0.000257832               0.002373855               0.002116023               0.000000000               0.000000000               0.000000000               0.000000000               0.001513290               0.006304918               0.000000000              -0.000220630               0.002175162               0.001954531               0.000000000               0.000000000               0.000000000               0.000000000               0.001375667               0.005948654               0.000000000              -0.000227706               0.002058767               0.001831061               0.000000000               0.000000000               0.000000000               0.000000000               0.001224119               0.005712973              -0.000000000              -0.000255076               0.001989331               0.001734254               0.000000000               0.000000000               0.000000000               0.000000000               0.001073287               0.005550842               0.000000000              -0.000291372               0.001947386               0.001656014               0.000000000               0.000000000               0.000000000               0.000000000               0.000932573               0.005437108               0.000000000              -0.000329923               0.001922326               0.001592403               0.000000000               0.000000000               0.000000000               0.000000000               0.000804860               0.005352367               0.000000000              -0.000367222               0.001906512               0.001539289               0.000000000               0.000000000               0.000000000               0.000000000               0.000681780               0.005281701               0.000000000              -0.000404544               0.001895398               0.001490853               0.000000000               0.000000000               0.000000000               0.000000000               0.000558022               0.005218233              -0.000000000              -0.000443020               0.001887067               0.001444047               0.000000000               0.000000000               0.000000000               0.000000000               0.000436302               0.005158318               0.000000000              -0.000481175               0.001879814               0.001398638               0.000000000               0.000000000               0.000000000               0.000000000               0.000318942               0.005098890               0.000000000              -0.000517757               0.001872199               0.001354442               0.000000000               0.000000000               0.000000000               0.000000000               0.000202078               0.005032445              -0.000000000              -0.000553275               0.001861890               0.001308615               0.000000000               0.000000000               0.000000000               0.000000000               0.000093508               0.004948912              -0.000000000              -0.000583547               0.001844136               0.001260589               0.000000000               0.000000000               0.000000000               0.000000000               0.000038181               0.004883514              -0.000000000              -0.000596120               0.001826528               0.001230408               0.000000000               0.000000000               0.000000000               0.000000000               0.001101893               0.011532130              -0.000856519              -0.001028304               0.004186773               0.003158469               0.000000000               0.000000000               0.000000000               0.000000000               0.001132435               0.009412687              -0.000508466              -0.000751921               0.003388171               0.002636250               0.000000000               0.000000000               0.000000000               0.000000000               0.001506770               0.007737673              -0.000152887              -0.000402170               0.002713255               0.002311086               0.000000000               0.000000000               0.000000000               0.000000000               0.001528764               0.006823423               0.000007301              -0.000279641               0.002367665               0.002088025               0.000000000               0.000000000               0.000000000               0.000000000               0.001432138               0.006281218               0.000077766              -0.000248100               0.002176418               0.001928318               0.000000000               0.000000000               0.000000000               0.000000000               0.001295775               0.005935077               0.000107648              -0.000255968               0.002063662               0.001807694               0.000000000               0.000000000               0.000000000               0.000000000               0.001152524               0.005705637               0.000120744              -0.000281007               0.001995529               0.001714522               0.000000000               0.000000000               0.000000000               0.000000000               0.001011175               0.005548271               0.000125228              -0.000314343               0.001954186               0.001639844               0.000000000               0.000000000               0.000000000               0.000000000               0.000875538               0.005433778               0.000124213              -0.000350895               0.001928206               0.001577311               0.000000000               0.000000000               0.000000000               0.000000000               0.000750978               0.005345512               0.000118926              -0.000386571               0.001910677               0.001524106               0.000000000               0.000000000               0.000000000               0.000000000               0.000632788               0.005273998               0.000112557              -0.000421953               0.001898633               0.001476680               0.000000000               0.000000000               0.000000000               0.000000000               0.000514861               0.005211804               0.000105613              -0.000458401               0.001890051               0.001431650               0.000000000               0.000000000               0.000000000               0.000000000               0.000399559               0.005154843               0.000097678              -0.000494520               0.001883104               0.001388584               0.000000000               0.000000000               0.000000000               0.000000000               0.000287440               0.005099492               0.000088068              -0.000529645               0.001876362               0.001346717               0.000000000               0.000000000               0.000000000               0.000000000               0.000179599               0.005040612               0.000071780              -0.000562725               0.001867762               0.001305037               0.000000000               0.000000000               0.000000000               0.000000000               0.000084239               0.004972433               0.000043423              -0.000589963               0.001854115               0.001264152               0.000000000               0.000000000               0.000000000               0.000000000               0.000036965               0.004922286               0.000026556              -0.000601422               0.001841220               0.001239797               0.000000000               0.000000000               0.000000000               0.000000000               0.001246870               0.010915456              -0.001612781              -0.000896854               0.003937400               0.003040546               0.000000000               0.000000000               0.000000000               0.000000000               0.001140815               0.008991368              -0.000961125              -0.000696114               0.003229131               0.002533017               0.000000000               0.000000000               0.000000000               0.000000000               0.001366344               0.007521897              -0.000301242              -0.000427857               0.002649893               0.002222036               0.000000000               0.000000000               0.000000000               0.000000000               0.001327979               0.006711120              -0.000013247              -0.000340897               0.002350650               0.002009753               0.000000000               0.000000000               0.000000000               0.000000000               0.001214584               0.006219264               0.000112255              -0.000321938               0.002180380               0.001858442               0.000000000               0.000000000               0.000000000               0.000000000               0.001083615               0.005901283               0.000165960              -0.000331304               0.002077509               0.001746205               0.000000000               0.000000000               0.000000000               0.000000000               0.000956132               0.005685849               0.000189094              -0.000352181               0.002012658               0.001660477               0.000000000               0.000000000               0.000000000               0.000000000               0.000834767               0.005533007               0.000194617              -0.000378587               0.001970513               0.001591925               0.000000000               0.000000000               0.000000000               0.000000000               0.000717892               0.005415927               0.000189054              -0.000407780               0.001941218               0.001533437               0.000000000               0.000000000               0.000000000               0.000000000               0.000610259               0.005325057               0.000179126              -0.000436784               0.001920596               0.001483812               0.000000000               0.000000000               0.000000000               0.000000000               0.000508233               0.005253405               0.000169039              -0.000466087               0.001906480               0.001440393               0.000000000               0.000000000               0.000000000               0.000000000               0.000406169               0.005194800               0.000157535              -0.000497035               0.001897261               0.001400226               0.000000000               0.000000000               0.000000000               0.000000000               0.000309217               0.005145749               0.000143775              -0.000527261               0.001890986               0.001363725               0.000000000               0.000000000               0.000000000               0.000000000               0.000217847               0.005100900               0.000127012              -0.000555919               0.001885589               0.001329670               0.000000000               0.000000000               0.000000000               0.000000000               0.000132005               0.005056279               0.000101053              -0.000582532               0.001879587               0.001297055               0.000000000               0.000000000               0.000000000               0.000000000               0.000060533               0.005012793               0.000058281              -0.000603898               0.001872214               0.001268316               0.000000000               0.000000000               0.000000000               0.000000000               0.000028296               0.004987220               0.000032753              -0.000612790               0.001866654               0.001253863               0.000000000               0.000000000               0.000000000               0.000000000               0.001431705               0.009974384              -0.002190920              -0.000709908               0.003561397               0.002851489               0.000000000               0.000000000               0.000000000               0.000000000               0.001132311               0.008363329              -0.001319727              -0.000620799               0.002994681               0.002373882               0.000000000               0.000000000               0.000000000               0.000000000               0.001150116               0.007207127              -0.000446680              -0.000469596               0.002558884               0.002089287               0.000000000               0.000000000               0.000000000               0.000000000               0.001041670               0.006546781              -0.000078161              -0.000427720               0.002324812               0.001897092               0.000000000               0.000000000               0.000000000               0.000000000               0.000919243               0.006131425               0.000082197              -0.000421711               0.002184358               0.001762647               0.000000000               0.000000000               0.000000000               0.000000000               0.000802333               0.005852292               0.000152582              -0.000430661               0.002094298               0.001663637               0.000000000               0.000000000               0.000000000               0.000000000               0.000694718               0.005652456               0.000182587              -0.000446036               0.002032812               0.001586775               0.000000000               0.000000000               0.000000000               0.000000000               0.000597684               0.005501977               0.000189815              -0.000463614               0.001988512               0.001524898               0.000000000               0.000000000               0.000000000               0.000000000               0.000508964               0.005384269               0.000184455              -0.000482171               0.001955462               0.001473291               0.000000000               0.000000000               0.000000000               0.000000000               0.000428464               0.005292589               0.000175292              -0.000500899               0.001931145               0.001430246               0.000000000               0.000000000               0.000000000               0.000000000               0.000351722               0.005221526               0.000167256              -0.000520794               0.001914089               0.001393295               0.000000000               0.000000000               0.000000000               0.000000000               0.000274211               0.005166495               0.000158600              -0.000542981               0.001903141               0.001360160               0.000000000               0.000000000               0.000000000               0.000000000               0.000202237               0.005122914               0.000145750              -0.000564524               0.001895795               0.001331271               0.000000000               0.000000000               0.000000000               0.000000000               0.000139149               0.005086143               0.000127530              -0.000583585               0.001889892               0.001306307               0.000000000               0.000000000               0.000000000               0.000000000               0.000082439               0.005052660               0.000099245              -0.000600666               0.001884425               0.001283759               0.000000000               0.000000000               0.000000000               0.000000000               0.000035577               0.005023966               0.000055887              -0.000614653               0.001879523               0.001264870               0.000000000               0.000000000               0.000000000               0.000000000               0.000015781               0.005012067               0.000030520              -0.000620589               0.001877535               0.001256946               0.000000000               0.000000000               0.000000000               0.000000000               0.001603336               0.008818409              -0.002553687              -0.000501051               0.003106457               0.002605406               0.000000000               0.000000000               0.000000000               0.000000000               0.001093049               0.007604058              -0.001569672              -0.000540614               0.002714865               0.002174251               0.000000000               0.000000000               0.000000000               0.000000000               0.000886071               0.006832158              -0.000590546              -0.000521742               0.002451277               0.001929535               0.000000000               0.000000000               0.000000000               0.000000000               0.000721997               0.006344051              -0.000186378              -0.000522256               0.002288748               0.001766492               0.000000000               0.000000000               0.000000000               0.000000000               0.000606159               0.006011248              -0.000007749              -0.000524095               0.002178428               0.001654332               0.000000000               0.000000000               0.000000000               0.000000000               0.000512173               0.005772772               0.000072146              -0.000529530               0.002100748               0.001571218               0.000000000               0.000000000               0.000000000               0.000000000               0.000430979               0.005591880               0.000106965              -0.000537367               0.002043063               0.001505697               0.000000000               0.000000000               0.000000000               0.000000000               0.000365503               0.005451046               0.000118992              -0.000544316               0.001998436               0.001454120               0.000000000               0.000000000               0.000000000               0.000000000               0.000308654               0.005336759               0.000118957              -0.000551348               0.001962684               0.001411336               0.000000000               0.000000000               0.000000000               0.000000000               0.000257845               0.005242724               0.000118409              -0.000558647               0.001933773               0.001375126               0.000000000               0.000000000               0.000000000               0.000000000               0.000210734               0.005171330               0.000121894              -0.000567390               0.001912889               0.001345500               0.000000000               0.000000000               0.000000000               0.000000000               0.000161889               0.005114934               0.000122970              -0.000578657               0.001897847               0.001319190               0.000000000               0.000000000               0.000000000               0.000000000               0.000115631               0.005066386               0.000117188              -0.000589935               0.001885424               0.001295488               0.000000000               0.000000000               0.000000000               0.000000000               0.000078125               0.005025763               0.000103929              -0.000598922               0.001874878               0.001275956               0.000000000               0.000000000               0.000000000               0.000000000               0.000048367               0.004990199               0.000079119              -0.000605636               0.001865262               0.001259626               0.000000000               0.000000000               0.000000000               0.000000000               0.000022344               0.004963193               0.000042957              -0.000612019               0.001858387               0.001246369               0.000000000               0.000000000               0.000000000               0.000000000               0.000010349               0.004953541               0.000022922              -0.000615310               0.001856267               0.001240957               0.000000000               0.000000000               0.000000000               0.000000000               0.001703939               0.007567760              -0.002697642              -0.000306995               0.002624892               0.002317897               0.000000000               0.000000000               0.000000000               0.000000000               0.001014022               0.006792612              -0.001710939              -0.000468818               0.002420454               0.001951635               0.000000000               0.000000000               0.000000000               0.000000000               0.000610388               0.006427628              -0.000729933              -0.000574557               0.002334040               0.001759483               0.000000000               0.000000000               0.000000000               0.000000000               0.000416916               0.006107262              -0.000329170              -0.000607063               0.002238088               0.001631025               0.000000000               0.000000000               0.000000000               0.000000000               0.000320323               0.005849410              -0.000145072              -0.000611054               0.002153468               0.001542415               0.000000000               0.000000000               0.000000000               0.000000000               0.000259814               0.005651333              -0.000058321              -0.000608985               0.002086754               0.001477769               0.000000000               0.000000000               0.000000000               0.000000000               0.000212847               0.005492455              -0.000016100              -0.000606738               0.002033046               0.001426308               0.000000000               0.000000000               0.000000000               0.000000000               0.000181061               0.005360293               0.000006361              -0.000602137               0.001987459               0.001385322               0.000000000               0.000000000               0.000000000               0.000000000               0.000155684               0.005246872               0.000018638              -0.000597476               0.001948098               0.001350623               0.000000000               0.000000000               0.000000000               0.000000000               0.000134057               0.005156238               0.000032546              -0.000594257               0.001916814               0.001322558               0.000000000               0.000000000               0.000000000               0.000000000               0.000112454               0.005083393               0.000050958              -0.000593253               0.001892198               0.001298946               0.000000000               0.000000000               0.000000000               0.000000000               0.000085026               0.005017494               0.000062546              -0.000595301               0.001870915               0.001275614               0.000000000               0.000000000               0.000000000               0.000000000               0.000059464               0.004956424               0.000064940              -0.000597252               0.001851209               0.001253957               0.000000000               0.000000000               0.000000000               0.000000000               0.000040279               0.004899918               0.000058463              -0.000597384               0.001832417               0.001235034               0.000000000               0.000000000               0.000000000               0.000000000               0.000026317               0.004848601               0.000042101              -0.000596205               0.001814919               0.001218715               0.000000000               0.000000000               0.000000000               0.000000000               0.000014697               0.004807472               0.000020232              -0.000595421               0.001800948               0.001205527               0.000000000               0.000000000               0.000000000               0.000000000               0.000006782               0.004786075               0.000009726              -0.000595715               0.001793914               0.001198199               0.000000000               0.000000000               0.000000000               0.000000000               0.001698849               0.006312881              -0.002648939              -0.000152045               0.002154953               0.002002909               0.000000000               0.000000000               0.000000000               0.000000000               0.000896785               0.005988043              -0.001760965              -0.000412212               0.002133398               0.001721186               0.000000000               0.000000000               0.000000000               0.000000000               0.000355723               0.006007398              -0.000868431              -0.000617528               0.002208289               0.001590761               0.000000000               0.000000000               0.000000000               0.000000000               0.000168688               0.005834341              -0.000498421              -0.000666033               0.002166772               0.001500739               0.000000000               0.000000000               0.000000000               0.000000000               0.000103379               0.005646953              -0.000313602              -0.000667100               0.002104665               0.001437565               0.000000000               0.000000000               0.000000000               0.000000000               0.000078744               0.005487481              -0.000213464              -0.000656405               0.002047943               0.001391539               0.000000000               0.000000000               0.000000000               0.000000000               0.000066034               0.005348376              -0.000155708              -0.000643783               0.001997368               0.001353586               0.000000000               0.000000000               0.000000000               0.000000000               0.000061405               0.005223130              -0.000116911              -0.000629863               0.001950980               0.001321117               0.000000000               0.000000000               0.000000000               0.000000000               0.000060550               0.005115650              -0.000085725              -0.000616749               0.001910783               0.001294034               0.000000000               0.000000000               0.000000000               0.000000000               0.000057939               0.005027014              -0.000054781              -0.000606648               0.001877871               0.001271223               0.000000000               0.000000000               0.000000000               0.000000000               0.000049398               0.004945907              -0.000024408              -0.000599713               0.001848523               0.001248811               0.000000000               0.000000000               0.000000000               0.000000000               0.000036044               0.004866887              -0.000001982              -0.000594843               0.001820560               0.001225717               0.000000000               0.000000000               0.000000000               0.000000000               0.000022707               0.004789290               0.000010100              -0.000590145               0.001793129               0.001202984               0.000000000               0.000000000               0.000000000               0.000000000               0.000013650               0.004714909               0.000013979              -0.000584244               0.001766369               0.001182125               0.000000000               0.000000000               0.000000000               0.000000000               0.000007728               0.004648158               0.000010475              -0.000578120               0.001742077               0.001163957               0.000000000               0.000000000               0.000000000               0.000000000               0.000001897               0.004587379               0.000004650              -0.000572710               0.001720014               0.001147305               0.000000000               0.000000000               0.000000000               0.000000000              -0.000006653               0.004548423               0.000005538              -0.000571046               0.001706475               0.001135428               0.000000000               0.000000000               0.000000000               0.000000000               0.001596453               0.005124215              -0.002444234              -0.000041860               0.001722007               0.001680147               0.000000000               0.000000000               0.000000000               0.000000000               0.000755186               0.005229461              -0.001742481              -0.000370489               0.001866632               0.001496143               0.000000000               0.000000000               0.000000000               0.000000000               0.000149707               0.005574147              -0.001008732              -0.000640627               0.002071573               0.001430945               0.000000000               0.000000000               0.000000000               0.000000000              -0.000002495               0.005528629              -0.000673475              -0.000692013               0.002073529               0.001381516               0.000000000               0.000000000               0.000000000               0.000000000              -0.000030841               0.005414138              -0.000481604              -0.000688331               0.002034138               0.001345807               0.000000000               0.000000000               0.000000000               0.000000000              -0.000026569               0.005293176              -0.000360417              -0.000671609               0.001988244               0.001316635               0.000000000               0.000000000               0.000000000               0.000000000              -0.000011963               0.005173017              -0.000282095              -0.000651112               0.001941359               0.001290247               0.000000000               0.000000000               0.000000000               0.000000000               0.000002789               0.005057874              -0.000223464              -0.000631187               0.001896337               0.001265150               0.000000000               0.000000000               0.000000000               0.000000000               0.000012527               0.004956275              -0.000173471              -0.000614835               0.001857020               0.001242185               0.000000000               0.000000000               0.000000000               0.000000000               0.000011890               0.004863103              -0.000127402              -0.000603428               0.001822161               0.001218733               0.000000000               0.000000000               0.000000000               0.000000000               0.000005052               0.004771851              -0.000084609              -0.000594586               0.001788796               0.001194211               0.000000000               0.000000000               0.000000000               0.000000000              -0.000002840               0.004679623              -0.000049885              -0.000586016               0.001755198               0.001169181               0.000000000               0.000000000               0.000000000               0.000000000              -0.000009573               0.004588787              -0.000025964              -0.000577187               0.001721976               0.001144789               0.000000000               0.000000000               0.000000000               0.000000000              -0.000013767               0.004502361              -0.000008757              -0.000567956               0.001690091               0.001122134               0.000000000               0.000000000               0.000000000               0.000000000              -0.000013831               0.004423023               0.000000624              -0.000558063               0.001660347               0.001102284               0.000000000               0.000000000               0.000000000               0.000000000              -0.000011063               0.004350268               0.000003794              -0.000547931               0.001632718               0.001084788               0.000000000               0.000000000               0.000000000               0.000000000              -0.000015306               0.004302564               0.000009257              -0.000543559               0.001615360               0.001071801               0.000000000               0.000000000               0.000000000               0.000000000               0.001429425               0.004093153              -0.002141532               0.000024387               0.001356241               0.001380628               0.000000000               0.000000000               0.000000000               0.000000000               0.000630022               0.004545220              -0.001693623              -0.000331895               0.001625689               0.001293794               0.000000000               0.000000000               0.000000000               0.000000000               0.000019154               0.005157759              -0.001163806              -0.000637536               0.001931748               0.001294212               0.000000000               0.000000000               0.000000000               0.000000000              -0.000094623               0.005247103              -0.000850714              -0.000691370               0.001979473               0.001288103               0.000000000               0.000000000               0.000000000               0.000000000              -0.000096550               0.005212977              -0.000647134              -0.000687827               0.001966917               0.001279090               0.000000000               0.000000000               0.000000000               0.000000000              -0.000071268               0.005132737              -0.000506835              -0.000668316               0.001933667               0.001265351               0.000000000               0.000000000               0.000000000               0.000000000              -0.000038563               0.005030798              -0.000407241              -0.000643309               0.001891352               0.001248043               0.000000000               0.000000000               0.000000000               0.000000000              -0.000012285               0.004925956              -0.000328012              -0.000620350               0.001848752               0.001228402               0.000000000               0.000000000               0.000000000               0.000000000               0.000002386               0.004831889              -0.000258858              -0.000603090               0.001811643               0.001208554               0.000000000               0.000000000               0.000000000               0.000000000              -0.000001793               0.004740251              -0.000197867              -0.000593202               0.001777802               0.001184600               0.000000000               0.000000000               0.000000000               0.000000000              -0.000012737               0.004647004              -0.000145672              -0.000585650               0.001744203               0.001158552               0.000000000               0.000000000               0.000000000               0.000000000              -0.000020401               0.004551109              -0.000099759              -0.000576538               0.001709200               0.001132663               0.000000000               0.000000000               0.000000000               0.000000000              -0.000028054               0.004451960              -0.000062077              -0.000567014               0.001672976               0.001105962               0.000000000               0.000000000               0.000000000               0.000000000              -0.000037861               0.004352708              -0.000032161              -0.000558285               0.001636983               0.001078698               0.000000000               0.000000000               0.000000000               0.000000000              -0.000047751               0.004256269              -0.000010183              -0.000549939               0.001602055               0.001052116               0.000000000               0.000000000               0.000000000               0.000000000              -0.000055235               0.004166344               0.000001353              -0.000541505               0.001569269               0.001027764               0.000000000               0.000000000               0.000000000               0.000000000              -0.000057422               0.004116856               0.000006044              -0.000536139               0.001550985               0.001014846               0.000000000               0.000000000               0.000000000               0.000000000               0.001187305               0.003102464              -0.001798141               0.000057428               0.001015001               0.001072429               0.000000000               0.000000000               0.000000000               0.000000000               0.000550270               0.003755224              -0.001630736              -0.000263053               0.001339412               0.001076360               0.000000000               0.000000000               0.000000000               0.000000000              -0.000013786               0.004564806              -0.001335720              -0.000575770               0.001713510               0.001137740               0.000000000               0.000000000               0.000000000               0.000000000              -0.000115175               0.004825189              -0.001053130              -0.000646338               0.001823826               0.001177488               0.000000000               0.000000000               0.000000000               0.000000000              -0.000106631               0.004897710              -0.000843144              -0.000652199               0.001849953               0.001197754               0.000000000               0.000000000               0.000000000               0.000000000              -0.000075423               0.004890367              -0.000687512              -0.000639578               0.001843299               0.001203720               0.000000000               0.000000000               0.000000000               0.000000000              -0.000039182               0.004838805              -0.000563786              -0.000619542               0.001819433               0.001199890               0.000000000               0.000000000               0.000000000               0.000000000              -0.000010877               0.004768418              -0.000460066              -0.000600130               0.001789500               0.001189370               0.000000000               0.000000000               0.000000000               0.000000000               0.000001975               0.004697355              -0.000369137              -0.000586428               0.001761245               0.001174818               0.000000000               0.000000000               0.000000000               0.000000000              -0.000002342               0.004622311              -0.000292389              -0.000578666               0.001733644               0.001154978               0.000000000               0.000000000               0.000000000               0.000000000              -0.000016789               0.004547146              -0.000230324              -0.000574688               0.001707263               0.001132575               0.000000000               0.000000000               0.000000000               0.000000000              -0.000031942               0.004466301              -0.000175014              -0.000570265               0.001678840               0.001108576               0.000000000               0.000000000               0.000000000               0.000000000              -0.000046927               0.004375924              -0.000123646              -0.000564587               0.001646822               0.001082236               0.000000000               0.000000000               0.000000000               0.000000000              -0.000067793               0.004279364              -0.000076269              -0.000560341               0.001613221               0.001052879               0.000000000               0.000000000               0.000000000               0.000000000              -0.000093647               0.004181787              -0.000036423              -0.000557840               0.001579862               0.001022022               0.000000000               0.000000000               0.000000000               0.000000000              -0.000122395               0.004086666              -0.000009222              -0.000556730               0.001547785               0.000991055               0.000000000               0.000000000               0.000000000               0.000000000              -0.000137438               0.004037694               0.000001188              -0.000556250               0.001531301               0.000975051               0.000000000               0.000000000               0.000000000               0.000000000               0.000824852               0.002186599              -0.001421312               0.000035993               0.000716861               0.000752853               0.000000000               0.000000000               0.000000000               0.000000000               0.000459923               0.002965452              -0.001516651              -0.000198212               0.001054544               0.000856332               0.000000000               0.000000000               0.000000000               0.000000000               0.000019970               0.003898078              -0.001462647              -0.000479771               0.001459270               0.000979498               0.000000000               0.000000000               0.000000000               0.000000000              -0.000074246               0.004316047              -0.001245256              -0.000567348               0.001627783               0.001060436               0.000000000               0.000000000               0.000000000               0.000000000              -0.000064252               0.004511569              -0.001043918              -0.000588040               0.001699854               0.001111814               0.000000000               0.000000000               0.000000000               0.000000000              -0.000038868               0.004596822              -0.000879663              -0.000589177               0.001728651               0.001139474               0.000000000               0.000000000               0.000000000               0.000000000              -0.000012915               0.004616651              -0.000741219              -0.000581923               0.001732843               0.001150919               0.000000000               0.000000000               0.000000000               0.000000000               0.000012935               0.004600736              -0.000618751              -0.000570240               0.001723643               0.001153403               0.000000000               0.000000000               0.000000000               0.000000000               0.000026272               0.004564311              -0.000509837              -0.000560686               0.001708317               0.001147631               0.000000000               0.000000000               0.000000000               0.000000000               0.000027264               0.004519521              -0.000419488              -0.000554715               0.001691397               0.001136682               0.000000000               0.000000000               0.000000000               0.000000000               0.000015462               0.004468965              -0.000346238              -0.000552821               0.001673914               0.001121093               0.000000000               0.000000000               0.000000000               0.000000000              -0.000004603               0.004407147              -0.000283037              -0.000552618               0.001653240               0.001100622               0.000000000               0.000000000               0.000000000               0.000000000              -0.000029393               0.004332160              -0.000219849              -0.000552541               0.001628219               0.001075678               0.000000000               0.000000000               0.000000000               0.000000000              -0.000062673               0.004246448              -0.000154973              -0.000554307               0.001600237               0.001045930               0.000000000               0.000000000               0.000000000               0.000000000              -0.000108464               0.004155561              -0.000093528              -0.000560118               0.001571879               0.001011761               0.000000000               0.000000000               0.000000000               0.000000000              -0.000165157               0.004070459              -0.000039789              -0.000570740               0.001547053               0.000976313               0.000000000               0.000000000               0.000000000               0.000000000              -0.000207446               0.004023479              -0.000010672              -0.000580726               0.001534721               0.000953996               0.000000000               0.000000000               0.000000000               0.000000000               0.000356565               0.001405024              -0.001028396              -0.000041918               0.000482308               0.000440391               0.000000000               0.000000000               0.000000000               0.000000000               0.000316102               0.002213580              -0.001329015              -0.000158161               0.000790572               0.000632412               0.000000000               0.000000000               0.000000000               0.000000000               0.000087336               0.003163033              -0.001484732              -0.000362629               0.001175209               0.000812581               0.000000000               0.000000000               0.000000000               0.000000000               0.000029170               0.003696939              -0.001354727              -0.000451178               0.001382693               0.000931515               0.000000000               0.000000000               0.000000000               0.000000000               0.000037137               0.004009184              -0.001181024              -0.000487221               0.001498788               0.001011567               0.000000000               0.000000000               0.000000000               0.000000000               0.000054430               0.004193946              -0.001020704              -0.000503831               0.001565911               0.001062080               0.000000000               0.000000000               0.000000000               0.000000000               0.000069073               0.004297712              -0.000880504              -0.000511311               0.001602993               0.001091682               0.000000000               0.000000000               0.000000000               0.000000000               0.000083476               0.004345149              -0.000753615              -0.000511839               0.001618981               0.001107142               0.000000000               0.000000000               0.000000000               0.000000000               0.000092989               0.004358346              -0.000638191              -0.000509921               0.001622741               0.001112820               0.000000000               0.000000000               0.000000000               0.000000000               0.000095281               0.004354413              -0.000541173              -0.000508570               0.001620980               0.001112410               0.000000000               0.000000000               0.000000000               0.000000000               0.000087677               0.004337474              -0.000460472              -0.000509304               0.001615578               0.001106274               0.000000000               0.000000000               0.000000000               0.000000000               0.000067668               0.004306860              -0.000389851              -0.000512981               0.001606599               0.001093618               0.000000000               0.000000000               0.000000000               0.000000000               0.000036532               0.004258806              -0.000318390              -0.000518650               0.001592471               0.001073821               0.000000000               0.000000000               0.000000000               0.000000000              -0.000004404               0.004196739              -0.000240616              -0.000526243               0.001574313               0.001048071               0.000000000               0.000000000               0.000000000               0.000000000              -0.000061373               0.004125845              -0.000159780              -0.000538744               0.001554849               0.001016105               0.000000000               0.000000000               0.000000000               0.000000000              -0.000137016               0.004057675              -0.000078155              -0.000558589               0.001538741               0.000980152               0.000000000               0.000000000               0.000000000               0.000000000              -0.000199952               0.004012694              -0.000029338              -0.000576567               0.001529741               0.000953173               0.000000000               0.000000000               0.000000000               0.000000000              -0.000174390               0.000796694              -0.000662528              -0.000164983               0.000320556               0.000155573               0.000000000               0.000000000               0.000000000               0.000000000               0.000126682               0.001544022              -0.001084255              -0.000145498               0.000563167               0.000417670               0.000000000               0.000000000               0.000000000               0.000000000               0.000164551               0.002422331              -0.001387500              -0.000241086               0.000887797               0.000646711               0.000000000               0.000000000               0.000000000               0.000000000               0.000176398               0.003015916              -0.001347042              -0.000310841               0.001108909               0.000798068               0.000000000               0.000000000               0.000000000               0.000000000               0.000192731               0.003421088              -0.001214086              -0.000355362               0.001258805               0.000903443               0.000000000               0.000000000               0.000000000               0.000000000               0.000202615               0.003696726              -0.001070565              -0.000386110               0.001360933               0.000974823               0.000000000               0.000000000               0.000000000               0.000000000               0.000204745               0.003883730              -0.000939394              -0.000408686               0.001430792               0.001022106               0.000000000               0.000000000               0.000000000               0.000000000               0.000203475               0.004003446              -0.000817724              -0.000424127               0.001475844               0.001051717               0.000000000               0.000000000               0.000000000               0.000000000               0.000202218               0.004075566              -0.000708464              -0.000433613               0.001503046               0.001069433               0.000000000               0.000000000               0.000000000               0.000000000               0.000200123               0.004117895              -0.000616639              -0.000439690               0.001519181               0.001079491               0.000000000               0.000000000               0.000000000               0.000000000               0.000195088               0.004143995              -0.000537229              -0.000444841               0.001529598               0.001084757               0.000000000               0.000000000               0.000000000               0.000000000               0.000180521               0.004156274              -0.000464436              -0.000451838               0.001536023               0.001084185               0.000000000               0.000000000               0.000000000               0.000000000               0.000151523               0.004146734              -0.000390447              -0.000461520               0.001536071               0.001074551               0.000000000               0.000000000               0.000000000               0.000000000               0.000112805               0.004120858              -0.000307784              -0.000472804               0.001531207               0.001058403               0.000000000               0.000000000               0.000000000               0.000000000               0.000063812               0.004085202              -0.000215981              -0.000486720               0.001523960               0.001037241               0.000000000               0.000000000               0.000000000               0.000000000              -0.000005916               0.004041089              -0.000112819              -0.000507353               0.001516134               0.001008781               0.000000000               0.000000000               0.000000000               0.000000000              -0.000066158               0.004005876              -0.000051619              -0.000525542               0.001510460               0.000984917               0.000000000               0.000000000               0.000000000               0.000000000              -0.000707259               0.000373633              -0.000369190              -0.000311926               0.000228518              -0.000083408               0.000000000               0.000000000               0.000000000               0.000000000              -0.000086199               0.000998001              -0.000809428              -0.000157075               0.000385021               0.000227946               0.000000000               0.000000000               0.000000000               0.000000000               0.000233568               0.001741621              -0.001166789              -0.000130116               0.000623906               0.000493790               0.000000000               0.000000000               0.000000000               0.000000000               0.000343795               0.002341571              -0.001195192              -0.000163774               0.000835107               0.000671333               0.000000000               0.000000000               0.000000000               0.000000000               0.000381994               0.002804901              -0.001110938              -0.000207365               0.001004079               0.000796714               0.000000000               0.000000000               0.000000000               0.000000000               0.000389090               0.003156650              -0.000996039              -0.000248673               0.001135097               0.000886424               0.000000000               0.000000000               0.000000000               0.000000000               0.000376540               0.003420518              -0.000883483              -0.000286362               0.001235615               0.000949253               0.000000000               0.000000000               0.000000000               0.000000000               0.000360001               0.003612383              -0.000777958              -0.000316547               0.001309631               0.000993084               0.000000000               0.000000000               0.000000000               0.000000000               0.000345944               0.003745782              -0.000683765              -0.000338493               0.001361413               0.001022919               0.000000000               0.000000000               0.000000000               0.000000000               0.000333955               0.003838486              -0.000605803              -0.000354577               0.001397675               0.001043098               0.000000000               0.000000000               0.000000000               0.000000000               0.000326069               0.003910599              -0.000538074              -0.000366548               0.001425703               0.001059154               0.000000000               0.000000000               0.000000000               0.000000000               0.000318223               0.003966833              -0.000471731              -0.000376520               0.001447771               0.001071251               0.000000000               0.000000000               0.000000000               0.000000000               0.000301894               0.004001088              -0.000402907              -0.000386925               0.001462657               0.001075733               0.000000000               0.000000000               0.000000000               0.000000000               0.000279765               0.004018455              -0.000327179              -0.000397394               0.001471936               0.001074542               0.000000000               0.000000000               0.000000000               0.000000000               0.000254059               0.004023861              -0.000236694              -0.000407710               0.001477177               0.001069467               0.000000000               0.000000000               0.000000000               0.000000000               0.000218650               0.004015381              -0.000127439              -0.000419928               0.001478423               0.001058495               0.000000000               0.000000000               0.000000000               0.000000000               0.000187561               0.004001410              -0.000065300              -0.000429840               0.001477070               0.001047230               0.000000000               0.000000000               0.000000000               0.000000000              -0.001174550               0.000102667              -0.000173603              -0.000453289               0.000185317              -0.000267972               0.000000000               0.000000000               0.000000000               0.000000000              -0.000285677               0.000591287              -0.000532269              -0.000181040               0.000257440               0.000076400               0.000000000               0.000000000               0.000000000               0.000000000               0.000282982               0.001187563              -0.000840006              -0.000042328               0.000409959               0.000367631               0.000000000               0.000000000               0.000000000               0.000000000               0.000497320               0.001764688              -0.000895256              -0.000034092               0.000599587               0.000565495               0.000000000               0.000000000               0.000000000               0.000000000               0.000566414               0.002257562              -0.000853143              -0.000069791               0.000775777               0.000705986               0.000000000               0.000000000               0.000000000               0.000000000               0.000576950               0.002663166              -0.000775788              -0.000116540               0.000926560               0.000810020               0.000000000               0.000000000               0.000000000               0.000000000               0.000557772               0.002985744              -0.000694868              -0.000164054               0.001049923               0.000885869               0.000000000               0.000000000               0.000000000               0.000000000               0.000529337               0.003234902              -0.000617659              -0.000205861               0.001146910               0.000941049               0.000000000               0.000000000               0.000000000               0.000000000               0.000501167               0.003423219              -0.000546552              -0.000239965               0.001221050               0.000981085               0.000000000               0.000000000               0.000000000               0.000000000               0.000478448               0.003567898              -0.000487796              -0.000266569               0.001278144               0.001011575               0.000000000               0.000000000               0.000000000               0.000000000               0.000461781               0.003684158              -0.000437994              -0.000287351               0.001323824               0.001036473               0.000000000               0.000000000               0.000000000               0.000000000               0.000453958               0.003782652              -0.000389217              -0.000302597               0.001361737               0.001059140               0.000000000               0.000000000               0.000000000               0.000000000               0.000452498               0.003860208              -0.000337370              -0.000312839               0.001391003               0.001078164               0.000000000               0.000000000               0.000000000               0.000000000               0.000453720               0.003916046              -0.000279291              -0.000319360               0.001411789               0.001092429               0.000000000               0.000000000               0.000000000               0.000000000               0.000460848               0.003958137              -0.000206879              -0.000321948               0.001426682               0.001104734               0.000000000               0.000000000               0.000000000               0.000000000               0.000476433               0.003984906              -0.000113292              -0.000319450               0.001434772               0.001115322               0.000000000               0.000000000               0.000000000               0.000000000               0.000489868               0.003993303              -0.000060204              -0.000315462               0.001436241               0.001120780               0.000000000               0.000000000               0.000000000               0.000000000              -0.001495695              -0.000048377              -0.000061452              -0.000554838               0.000168819              -0.000386019               0.000000000               0.000000000               0.000000000               0.000000000              -0.000428917               0.000336390              -0.000262373              -0.000202892               0.000179759              -0.000023133               0.000000000               0.000000000               0.000000000               0.000000000               0.000311449               0.000822468              -0.000439121               0.000013984               0.000269492               0.000283476               0.000000000               0.000000000               0.000000000               0.000000000               0.000601220               0.001375457              -0.000479105               0.000053525               0.000440639               0.000494164               0.000000000               0.000000000               0.000000000               0.000000000               0.000698795               0.001880843              -0.000464249               0.000026942               0.000617961               0.000644903               0.000000000               0.000000000               0.000000000               0.000000000               0.000716808               0.002313553              -0.000426274              -0.000020392               0.000777974               0.000757582               0.000000000               0.000000000               0.000000000               0.000000000               0.000699841               0.002669360              -0.000384194              -0.000071230               0.000913521               0.000842291               0.000000000               0.000000000               0.000000000               0.000000000               0.000665454               0.002956029              -0.000342707              -0.000119958               0.001025319               0.000905361               0.000000000               0.000000000               0.000000000               0.000000000               0.000627799               0.003181629              -0.000304301              -0.000162279               0.001114625               0.000952346               0.000000000               0.000000000               0.000000000               0.000000000               0.000594020               0.003362726              -0.000272582              -0.000197583               0.001186758               0.000989175               0.000000000               0.000000000               0.000000000               0.000000000               0.000569312               0.003520413              -0.000245194              -0.000226559               0.001248979               0.001022420               0.000000000               0.000000000               0.000000000               0.000000000               0.000556703               0.003658786              -0.000220405              -0.000248584               0.001302445               0.001053860               0.000000000               0.000000000               0.000000000               0.000000000               0.000559470               0.003774492              -0.000194064              -0.000262009               0.001345488               0.001083478               0.000000000               0.000000000               0.000000000               0.000000000               0.000579532               0.003864760              -0.000163153              -0.000265770               0.001376830               0.001111061               0.000000000               0.000000000               0.000000000               0.000000000               0.000620765               0.003928731              -0.000123879              -0.000258304               0.001395665               0.001137361               0.000000000               0.000000000               0.000000000               0.000000000               0.000690692               0.003968437              -0.000069450              -0.000237045               0.001401814               0.001164769               0.000000000               0.000000000               0.000000000               0.000000000               0.000756326               0.003989719              -0.000038133              -0.000215092               0.001401591               0.001186498               0.000000000               0.000000000               0.000000000               0.000000000              -0.001609676              -0.000094908               0.000000000              -0.000591765               0.000165618              -0.000426147               0.000000000               0.000000000               0.000000000               0.000000000              -0.000481418               0.000249679               0.000000000              -0.000211742               0.000153805              -0.000057936               0.000000000               0.000000000               0.000000000               0.000000000               0.000321192               0.000695274              -0.000000000               0.000033537               0.000220576               0.000254114               0.000000000               0.000000000               0.000000000               0.000000000               0.000637297               0.001240072              -0.000000000               0.000083977               0.000385361               0.000469338               0.000000000               0.000000000               0.000000000               0.000000000               0.000746462               0.001747570               0.000000000               0.000061476               0.000562025               0.000623502               0.000000000               0.000000000               0.000000000               0.000000000               0.000766794               0.002186083              -0.000000000               0.000014287               0.000723925               0.000738212               0.000000000               0.000000000               0.000000000               0.000000000               0.000752013               0.002552386              -0.000000000              -0.000037043               0.000863135               0.000826091               0.000000000               0.000000000               0.000000000               0.000000000               0.000716738               0.002850127               0.000000000              -0.000087489               0.000979196               0.000891707               0.000000000               0.000000000               0.000000000               0.000000000               0.000677931               0.003091045               0.000000000              -0.000132156               0.001074390               0.000942234               0.000000000               0.000000000               0.000000000               0.000000000               0.000639075               0.003287149              -0.000000000              -0.000171240               0.001152785               0.000981545               0.000000000               0.000000000               0.000000000               0.000000000               0.000609590               0.003460054              -0.000000000              -0.000203910               0.001221310               0.001017400               0.000000000               0.000000000               0.000000000               0.000000000               0.000594686               0.003618157              -0.000000000              -0.000229262               0.001282461               0.001053199               0.000000000               0.000000000               0.000000000               0.000000000               0.000597063               0.003752420              -0.000000000              -0.000245153               0.001332512               0.001087359               0.000000000               0.000000000               0.000000000               0.000000000               0.000623810               0.003856955              -0.000000000              -0.000248190               0.001368369               0.001120179               0.000000000               0.000000000               0.000000000               0.000000000               0.000681470               0.003928824               0.000000000              -0.000235551               0.001388112               0.001152561               0.000000000               0.000000000               0.000000000               0.000000000               0.000778700               0.003968691              -0.000000000              -0.000204073               0.001390908               0.001186835               0.000000000               0.000000000               0.000000000               0.000000000               0.000871284               0.003992438              -0.000000000              -0.000172323               0.001388240               0.001215917               0.000000000               0.000000000               0.000000000               0.000000000               0.000000000               0.000000000               0.000000000               0.000000000               0.000000000               0.000000000               0.000000000               0.000000000               0.000000000               0.000000000               0.000000000               0.000000000               0.000000000               0.000000000               0.000000000               0.000000000               0.000000000               0.000000000               0.000000000               0.000000000               0.000000000               0.000000000               0.000000000               0.000000000               0.000000000               0.000000000               0.000000000               0.000000000               0.000000000               0.000000000               0.000000000               0.000000000               0.000000000               0.000000000               0.000000000               0.000000000               0.000000000               0.000000000               0.000000000               0.000000000               0.000000000               0.000000000               0.000000000               0.000000000               0.000000000               0.000000000               0.000000000               0.000000000               0.000000000               0.000000000               0.000000000               0.000000000               0.000000000               0.000000000               0.000000000               0.000000000               0.000000000               0.000000000               0.000000000               0.000000000               0.000000000               0.000000000               0.000000000               0.000000000               0.000000000               0.000000000               0.000000000               0.000000000               0.000000000               0.000000000               0.000000000               0.000000000               0.000000000               0.000000000               0.000000000               0.000000000               0.000000000               0.000000000               0.000000000               0.000000000               0.000000000               0.000000000               0.000000000               0.000000000               0.000000000               0.000000000               0.000000000               0.000000000               0.000000000               0.000000000               0.000000000               0.000000000               0.000000000               0.000000000               0.000000000               0.000000000               0.000000000               0.000000000               0.000000000               0.000000000               0.000000000               0.000000000               0.000000000               0.000000000               0.000000000               0.000000000               0.000000000               0.000000000               0.000000000               0.000000000               0.000000000               0.000000000               0.000000000               0.000000000               0.000000000               0.000000000               0.000000000               0.000000000               0.000000000               0.000000000               0.000000000               0.000000000               0.000000000               0.000000000               0.000000000               0.000000000               0.000000000               0.000000000               0.000000000               0.000000000               0.000000000               0.000000000               0.000000000               0.000000000               0.000000000               0.000000000               0.000000000               0.000000000               0.000000000               0.000000000               0.000000000               0.000000000               0.000000000               0.000000000               0.000000000               0.000000000               0.000000000               0.000000000               0.000000000               0.000000000               0.000000000               0.000000000               0.000000000               0.000000000               0.000000000               0.000000000               0.000000000               0.000000000               0.000000000               0.000000000               0.000000000               0.000000000               0.000000000               0.000000000               0.000000000               0.000000000               0.000000000               0.000000000               0.000000000               0.000000000               0.001101893               0.011532130               0.000856519              -0.001028304               0.004186773               0.003158469               0.000000000               0.000000000               0.000000000               0.000000000               0.001132435               0.009412687               0.000508466              -0.000751921               0.003388171               0.002636250               0.000000000               0.000000000               0.000000000               0.000000000               0.001506770               0.007737673               0.000152887              -0.000402170               0.002713255               0.002311086               0.000000000               0.000000000               0.000000000               0.000000000               0.001528764               0.006823423              -0.000007301              -0.000279641               0.002367665               0.002088025               0.000000000               0.000000000               0.000000000               0.000000000               0.001432138               0.006281218              -0.000077766              -0.000248100               0.002176418               0.001928318               0.000000000               0.000000000               0.000000000               0.000000000               0.001295775               0.005935077              -0.000107648              -0.000255968               0.002063662               0.001807694               0.000000000               0.000000000               0.000000000               0.000000000               0.001152524               0.005705637              -0.000120744              -0.000281007               0.001995529               0.001714522               0.000000000               0.000000000               0.000000000               0.000000000               0.001011175               0.005548271              -0.000125228              -0.000314343               0.001954186               0.001639844               0.000000000               0.000000000               0.000000000               0.000000000               0.000875538               0.005433778              -0.000124213              -0.000350895               0.001928206               0.001577311               0.000000000               0.000000000               0.000000000               0.000000000               0.000750978               0.005345512              -0.000118926              -0.000386571               0.001910677               0.001524106               0.000000000               0.000000000               0.000000000               0.000000000               0.000632788               0.005273998              -0.000112557              -0.000421953               0.001898633               0.001476680               0.000000000               0.000000000               0.000000000               0.000000000               0.000514861               0.005211804              -0.000105613              -0.000458401               0.001890051               0.001431650               0.000000000               0.000000000               0.000000000               0.000000000               0.000399559               0.005154843              -0.000097678              -0.000494520               0.001883104               0.001388584               0.000000000               0.000000000               0.000000000               0.000000000               0.000287440               0.005099492              -0.000088068              -0.000529645               0.001876362               0.001346717               0.000000000               0.000000000               0.000000000               0.000000000               0.000179599               0.005040612              -0.000071780              -0.000562725               0.001867762               0.001305037               0.000000000               0.000000000               0.000000000               0.000000000               0.000084239               0.004972433              -0.000043423              -0.000589963               0.001854115               0.001264152               0.000000000               0.000000000               0.000000000               0.000000000               0.000036965               0.004922286              -0.000026556              -0.000601422               0.001841220               0.001239797               0.000000000               0.000000000               0.000000000               0.000000000               0.001246870               0.010915456               0.001612781              -0.000896854               0.003937400               0.003040546               0.000000000               0.000000000               0.000000000               0.000000000               0.001140815               0.008991368               0.000961125              -0.000696114               0.003229131               0.002533017               0.000000000               0.000000000               0.000000000               0.000000000               0.001366344               0.007521897               0.000301242              -0.000427857               0.002649893               0.002222036               0.000000000               0.000000000               0.000000000               0.000000000               0.001327979               0.006711120               0.000013247              -0.000340897               0.002350650               0.002009753               0.000000000               0.000000000               0.000000000               0.000000000               0.001214584               0.006219264              -0.000112255              -0.000321938               0.002180380               0.001858442               0.000000000               0.000000000               0.000000000               0.000000000               0.001083615               0.005901283              -0.000165960              -0.000331304               0.002077509               0.001746205               0.000000000               0.000000000               0.000000000               0.000000000               0.000956132               0.005685849              -0.000189094              -0.000352181               0.002012658               0.001660477               0.000000000               0.000000000               0.000000000               0.000000000               0.000834767               0.005533007              -0.000194617              -0.000378587               0.001970513               0.001591925               0.000000000               0.000000000               0.000000000               0.000000000               0.000717892               0.005415927              -0.000189054              -0.000407780               0.001941218               0.001533437               0.000000000               0.000000000               0.000000000               0.000000000               0.000610259               0.005325057              -0.000179126              -0.000436784               0.001920596               0.001483812               0.000000000               0.000000000               0.000000000               0.000000000               0.000508233               0.005253405              -0.000169039              -0.000466087               0.001906480               0.001440393               0.000000000               0.000000000               0.000000000               0.000000000               0.000406169               0.005194800              -0.000157535              -0.000497035               0.001897261               0.001400226               0.000000000               0.000000000               0.000000000               0.000000000               0.000309217               0.005145749              -0.000143775              -0.000527261               0.001890986               0.001363725               0.000000000               0.000000000               0.000000000               0.000000000               0.000217847               0.005100900              -0.000127012              -0.000555919               0.001885589               0.001329670               0.000000000               0.000000000               0.000000000               0.000000000               0.000132005               0.005056279              -0.000101053              -0.000582532               0.001879587               0.001297055               0.000000000               0.000000000               0.000000000               0.000000000               0.000060533               0.005012793              -0.000058281              -0.000603898               0.001872214               0.001268316               0.000000000               0.000000000               0.000000000               0.000000000               0.000028296               0.004987220              -0.000032753              -0.000612790               0.001866654               0.001253863               0.000000000               0.000000000               0.000000000               0.000000000               0.001431705               0.009974384               0.002190920              -0.000709908               0.003561397               0.002851489               0.000000000               0.000000000               0.000000000               0.000000000               0.001132311               0.008363329               0.001319727              -0.000620799               0.002994681               0.002373882               0.000000000               0.000000000               0.000000000               0.000000000               0.001150116               0.007207127               0.000446680              -0.000469596               0.002558884               0.002089287               0.000000000               0.000000000               0.000000000               0.000000000               0.001041670               0.006546781               0.000078161              -0.000427720               0.002324812               0.001897092               0.000000000               0.000000000               0.000000000               0.000000000               0.000919243               0.006131425              -0.000082197              -0.000421711               0.002184358               0.001762647               0.000000000               0.000000000               0.000000000               0.000000000               0.000802333               0.005852292              -0.000152582              -0.000430661               0.002094298               0.001663637               0.000000000               0.000000000               0.000000000               0.000000000               0.000694718               0.005652456              -0.000182587              -0.000446036               0.002032812               0.001586775               0.000000000               0.000000000               0.000000000               0.000000000               0.000597684               0.005501977              -0.000189815              -0.000463614               0.001988512               0.001524898               0.000000000               0.000000000               0.000000000               0.000000000               0.000508964               0.005384269              -0.000184455              -0.000482171               0.001955462               0.001473291               0.000000000               0.000000000               0.000000000               0.000000000               0.000428464               0.005292589              -0.000175292              -0.000500899               0.001931145               0.001430246               0.000000000               0.000000000               0.000000000               0.000000000               0.000351722               0.005221526              -0.000167256              -0.000520794               0.001914089               0.001393295               0.000000000               0.000000000               0.000000000               0.000000000               0.000274211               0.005166495              -0.000158600              -0.000542981               0.001903141               0.001360160               0.000000000               0.000000000               0.000000000               0.000000000               0.000202237               0.005122914              -0.000145750              -0.000564524               0.001895795               0.001331271               0.000000000               0.000000000               0.000000000               0.000000000               0.000139149               0.005086143              -0.000127530              -0.000583585               0.001889892               0.001306307               0.000000000               0.000000000               0.000000000               0.000000000               0.000082439               0.005052660              -0.000099245              -0.000600666               0.001884425               0.001283759               0.000000000               0.000000000               0.000000000               0.000000000               0.000035577               0.005023966              -0.000055887              -0.000614653               0.001879523               0.001264870               0.000000000               0.000000000               0.000000000               0.000000000               0.000015781               0.005012067              -0.000030520              -0.000620589               0.001877535               0.001256946               0.000000000               0.000000000               0.000000000               0.000000000               0.001603336               0.008818409               0.002553687              -0.000501051               0.003106457               0.002605406               0.000000000               0.000000000               0.000000000               0.000000000               0.001093049               0.007604058               0.001569672              -0.000540614               0.002714865               0.002174251               0.000000000               0.000000000               0.000000000               0.000000000               0.000886071               0.006832158               0.000590546              -0.000521742               0.002451277               0.001929535               0.000000000               0.000000000               0.000000000               0.000000000               0.000721997               0.006344051               0.000186378              -0.000522256               0.002288748               0.001766492               0.000000000               0.000000000               0.000000000               0.000000000               0.000606159               0.006011248               0.000007749              -0.000524095               0.002178428               0.001654332               0.000000000               0.000000000               0.000000000               0.000000000               0.000512173               0.005772772              -0.000072146              -0.000529530               0.002100748               0.001571218               0.000000000               0.000000000               0.000000000               0.000000000               0.000430979               0.005591880              -0.000106965              -0.000537367               0.002043063               0.001505697               0.000000000               0.000000000               0.000000000               0.000000000               0.000365503               0.005451046              -0.000118992              -0.000544316               0.001998436               0.001454120               0.000000000               0.000000000               0.000000000               0.000000000               0.000308654               0.005336759              -0.000118957              -0.000551348               0.001962684               0.001411336               0.000000000               0.000000000               0.000000000               0.000000000               0.000257845               0.005242724              -0.000118409              -0.000558647               0.001933773               0.001375126               0.000000000               0.000000000               0.000000000               0.000000000               0.000210734               0.005171330              -0.000121894              -0.000567390               0.001912889               0.001345500               0.000000000               0.000000000               0.000000000               0.000000000               0.000161889               0.005114934              -0.000122970              -0.000578657               0.001897847               0.001319190               0.000000000               0.000000000               0.000000000               0.000000000               0.000115631               0.005066386              -0.000117188              -0.000589935               0.001885424               0.001295488               0.000000000               0.000000000               0.000000000               0.000000000               0.000078125               0.005025763              -0.000103929              -0.000598922               0.001874878               0.001275956               0.000000000               0.000000000               0.000000000               0.000000000               0.000048367               0.004990199              -0.000079119              -0.000605636               0.001865262               0.001259626               0.000000000               0.000000000               0.000000000               0.000000000               0.000022344               0.004963193              -0.000042957              -0.000612019               0.001858387               0.001246369               0.000000000               0.000000000               0.000000000               0.000000000               0.000010349               0.004953541              -0.000022922              -0.000615310               0.001856267               0.001240957               0.000000000               0.000000000               0.000000000               0.000000000               0.001703939               0.007567760               0.002697642              -0.000306995               0.002624892               0.002317897               0.000000000               0.000000000               0.000000000               0.000000000               0.001014022               0.006792612               0.001710939              -0.000468818               0.002420454               0.001951635               0.000000000               0.000000000               0.000000000               0.000000000               0.000610388               0.006427628               0.000729933              -0.000574557               0.002334040               0.001759483               0.000000000               0.000000000               0.000000000               0.000000000               0.000416916               0.006107262               0.000329170              -0.000607063               0.002238088               0.001631025               0.000000000               0.000000000               0.000000000               0.000000000               0.000320323               0.005849410               0.000145072              -0.000611054               0.002153468               0.001542415               0.000000000               0.000000000               0.000000000               0.000000000               0.000259814               0.005651333               0.000058321              -0.000608985               0.002086754               0.001477769               0.000000000               0.000000000               0.000000000               0.000000000               0.000212847               0.005492455               0.000016100              -0.000606738               0.002033046               0.001426308               0.000000000               0.000000000               0.000000000               0.000000000               0.000181061               0.005360293              -0.000006361              -0.000602137               0.001987459               0.001385322               0.000000000               0.000000000               0.000000000               0.000000000               0.000155684               0.005246872              -0.000018638              -0.000597476               0.001948098               0.001350623               0.000000000               0.000000000               0.000000000               0.000000000               0.000134057               0.005156238              -0.000032546              -0.000594257               0.001916814               0.001322558               0.000000000               0.000000000               0.000000000               0.000000000               0.000112454               0.005083393              -0.000050958              -0.000593253               0.001892198               0.001298946               0.000000000               0.000000000               0.000000000               0.000000000               0.000085026               0.005017494              -0.000062546              -0.000595301               0.001870915               0.001275614               0.000000000               0.000000000               0.000000000               0.000000000               0.000059464               0.004956424              -0.000064940              -0.000597252               0.001851209               0.001253957               0.000000000               0.000000000               0.000000000               0.000000000               0.000040279               0.004899918              -0.000058463              -0.000597384               0.001832417               0.001235034               0.000000000               0.000000000               0.000000000               0.000000000               0.000026317               0.004848601              -0.000042101              -0.000596205               0.001814919               0.001218715               0.000000000               0.000000000               0.000000000               0.000000000               0.000014697               0.004807472              -0.000020232              -0.000595421               0.001800948               0.001205527               0.000000000               0.000000000               0.000000000               0.000000000               0.000006782               0.004786075              -0.000009726              -0.000595715               0.001793914               0.001198199               0.000000000               0.000000000               0.000000000               0.000000000               0.001698849               0.006312881               0.002648939              -0.000152045               0.002154953               0.002002909               0.000000000               0.000000000               0.000000000               0.000000000               0.000896785               0.005988043               0.001760965              -0.000412212               0.002133398               0.001721186               0.000000000               0.000000000               0.000000000               0.000000000               0.000355723               0.006007398               0.000868431              -0.000617528               0.002208289               0.001590761               0.000000000               0.000000000               0.000000000               0.000000000               0.000168688               0.005834341               0.000498421              -0.000666033               0.002166772               0.001500739               0.000000000               0.000000000               0.000000000               0.000000000               0.000103379               0.005646953               0.000313602              -0.000667100               0.002104665               0.001437565               0.000000000               0.000000000               0.000000000               0.000000000               0.000078744               0.005487481               0.000213464              -0.000656405               0.002047943               0.001391539               0.000000000               0.000000000               0.000000000               0.000000000               0.000066034               0.005348376               0.000155708              -0.000643783               0.001997368               0.001353586               0.000000000               0.000000000               0.000000000               0.000000000               0.000061405               0.005223130               0.000116911              -0.000629863               0.001950980               0.001321117               0.000000000               0.000000000               0.000000000               0.000000000               0.000060550               0.005115650               0.000085725              -0.000616749               0.001910783               0.001294034               0.000000000               0.000000000               0.000000000               0.000000000               0.000057939               0.005027014               0.000054781              -0.000606648               0.001877871               0.001271223               0.000000000               0.000000000               0.000000000               0.000000000               0.000049398               0.004945907               0.000024408              -0.000599713               0.001848523               0.001248811               0.000000000               0.000000000               0.000000000               0.000000000               0.000036044               0.004866887               0.000001982              -0.000594843               0.001820560               0.001225717               0.000000000               0.000000000               0.000000000               0.000000000               0.000022707               0.004789290              -0.000010100              -0.000590145               0.001793129               0.001202984               0.000000000               0.000000000               0.000000000               0.000000000               0.000013650               0.004714909              -0.000013979              -0.000584244               0.001766369               0.001182125               0.000000000               0.000000000               0.000000000               0.000000000               0.000007728               0.004648158              -0.000010475              -0.000578120               0.001742077               0.001163957               0.000000000               0.000000000               0.000000000               0.000000000               0.000001897               0.004587379              -0.000004650              -0.000572710               0.001720014               0.001147305               0.000000000               0.000000000               0.000000000               0.000000000              -0.000006653               0.004548423              -0.000005538              -0.000571046               0.001706475               0.001135428               0.000000000               0.000000000               0.000000000               0.000000000               0.001596453               0.005124215               0.002444234              -0.000041860               0.001722007               0.001680147               0.000000000               0.000000000               0.000000000               0.000000000               0.000755186               0.005229461               0.001742481              -0.000370489               0.001866632               0.001496143               0.000000000               0.000000000               0.000000000               0.000000000               0.000149707               0.005574147               0.001008732              -0.000640627               0.002071573               0.001430945               0.000000000               0.000000000               0.000000000               0.000000000              -0.000002495               0.005528629               0.000673475              -0.000692013               0.002073529               0.001381516               0.000000000               0.000000000               0.000000000               0.000000000              -0.000030841               0.005414138               0.000481604              -0.000688331               0.002034138               0.001345807               0.000000000               0.000000000               0.000000000               0.000000000              -0.000026569               0.005293176               0.000360417              -0.000671609               0.001988244               0.001316635               0.000000000               0.000000000               0.000000000               0.000000000              -0.000011963               0.005173017               0.000282095              -0.000651112               0.001941359               0.001290247               0.000000000               0.000000000               0.000000000               0.000000000               0.000002789               0.005057874               0.000223464              -0.000631187               0.001896337               0.001265150               0.000000000               0.000000000               0.000000000               0.000000000               0.000012527               0.004956275               0.000173471              -0.000614835               0.001857020               0.001242185               0.000000000               0.000000000               0.000000000               0.000000000               0.000011890               0.004863103               0.000127402              -0.000603428               0.001822161               0.001218733               0.000000000               0.000000000               0.000000000               0.000000000               0.000005052               0.004771851               0.000084609              -0.000594586               0.001788796               0.001194211               0.000000000               0.000000000               0.000000000               0.000000000              -0.000002840               0.004679623               0.000049885              -0.000586016               0.001755198               0.001169181               0.000000000               0.000000000               0.000000000               0.000000000              -0.000009573               0.004588787               0.000025964              -0.000577187               0.001721976               0.001144789               0.000000000               0.000000000               0.000000000               0.000000000              -0.000013767               0.004502361               0.000008757              -0.000567956               0.001690091               0.001122134               0.000000000               0.000000000               0.000000000               0.000000000              -0.000013831               0.004423023              -0.000000624              -0.000558063               0.001660347               0.001102284               0.000000000               0.000000000               0.000000000               0.000000000              -0.000011063               0.004350268              -0.000003794              -0.000547931               0.001632718               0.001084788               0.000000000               0.000000000               0.000000000               0.000000000              -0.000015306               0.004302564              -0.000009257              -0.000543559               0.001615360               0.001071801               0.000000000               0.000000000               0.000000000               0.000000000               0.001429425               0.004093153               0.002141532               0.000024387               0.001356241               0.001380628               0.000000000               0.000000000               0.000000000               0.000000000               0.000630022               0.004545220               0.001693623              -0.000331895               0.001625689               0.001293794               0.000000000               0.000000000               0.000000000               0.000000000               0.000019154               0.005157759               0.001163806              -0.000637536               0.001931748               0.001294212               0.000000000               0.000000000               0.000000000               0.000000000              -0.000094623               0.005247103               0.000850714              -0.000691370               0.001979473               0.001288103               0.000000000               0.000000000               0.000000000               0.000000000              -0.000096550               0.005212977               0.000647134              -0.000687827               0.001966917               0.001279090               0.000000000               0.000000000               0.000000000               0.000000000              -0.000071268               0.005132737               0.000506835              -0.000668316               0.001933667               0.001265351               0.000000000               0.000000000               0.000000000               0.000000000              -0.000038563               0.005030798               0.000407241              -0.000643309               0.001891352               0.001248043               0.000000000               0.000000000               0.000000000               0.000000000              -0.000012285               0.004925956               0.000328012              -0.000620350               0.001848752               0.001228402               0.000000000               0.000000000               0.000000000               0.000000000               0.000002386               0.004831889               0.000258858              -0.000603090               0.001811643               0.001208554               0.000000000               0.000000000               0.000000000               0.000000000              -0.000001793               0.004740251               0.000197867              -0.000593202               0.001777802               0.001184600               0.000000000               0.000000000               0.000000000               0.000000000              -0.000012737               0.004647004               0.000145672              -0.000585650               0.001744203               0.001158552               0.000000000               0.000000000               0.000000000               0.000000000              -0.000020401               0.004551109               0.000099759              -0.000576538               0.001709200               0.001132663               0.000000000               0.000000000               0.000000000               0.000000000              -0.000028054               0.004451960               0.000062077              -0.000567014               0.001672976               0.001105962               0.000000000               0.000000000               0.000000000               0.000000000              -0.000037861               0.004352708               0.000032161              -0.000558285               0.001636983               0.001078698               0.000000000               0.000000000               0.000000000               0.000000000              -0.000047751               0.004256269               0.000010183              -0.000549939               0.001602055               0.001052116               0.000000000               0.000000000               0.000000000               0.000000000              -0.000055235               0.004166344              -0.000001353              -0.000541505               0.001569269               0.001027764               0.000000000               0.000000000               0.000000000               0.000000000              -0.000057422               0.004116856              -0.000006044              -0.000536139               0.001550985               0.001014846               0.000000000               0.000000000               0.000000000               0.000000000               0.001187305               0.003102464               0.001798141               0.000057428               0.001015001               0.001072429               0.000000000               0.000000000               0.000000000               0.000000000               0.000550270               0.003755224               0.001630736              -0.000263053               0.001339412               0.001076360               0.000000000               0.000000000               0.000000000               0.000000000              -0.000013786               0.004564806               0.001335720              -0.000575770               0.001713510               0.001137740               0.000000000               0.000000000               0.000000000               0.000000000              -0.000115175               0.004825189               0.001053130              -0.000646338               0.001823826               0.001177488               0.000000000               0.000000000               0.000000000               0.000000000              -0.000106631               0.004897710               0.000843144              -0.000652199               0.001849953               0.001197754               0.000000000               0.000000000               0.000000000               0.000000000              -0.000075423               0.004890367               0.000687512              -0.000639578               0.001843299               0.001203720               0.000000000               0.000000000               0.000000000               0.000000000              -0.000039182               0.004838805               0.000563786              -0.000619542               0.001819433               0.001199890               0.000000000               0.000000000               0.000000000               0.000000000              -0.000010877               0.004768418               0.000460066              -0.000600130               0.001789500               0.001189370               0.000000000               0.000000000               0.000000000               0.000000000               0.000001975               0.004697355               0.000369137              -0.000586428               0.001761245               0.001174818               0.000000000               0.000000000               0.000000000               0.000000000              -0.000002342               0.004622311               0.000292389              -0.000578666               0.001733644               0.001154978               0.000000000               0.000000000               0.000000000               0.000000000              -0.000016789               0.004547146               0.000230324              -0.000574688               0.001707263               0.001132575               0.000000000               0.000000000               0.000000000               0.000000000              -0.000031942               0.004466301               0.000175014              -0.000570265               0.001678840               0.001108576               0.000000000               0.000000000               0.000000000               0.000000000              -0.000046927               0.004375924               0.000123646              -0.000564587               0.001646822               0.001082236               0.000000000               0.000000000               0.000000000               0.000000000              -0.000067793               0.004279364               0.000076269              -0.000560341               0.001613221               0.001052879               0.000000000               0.000000000               0.000000000               0.000000000              -0.000093647               0.004181787               0.000036423              -0.000557840               0.001579862               0.001022022               0.000000000               0.000000000               0.000000000               0.000000000              -0.000122395               0.004086666               0.000009222              -0.000556730               0.001547785               0.000991055               0.000000000               0.000000000               0.000000000               0.000000000              -0.000137438               0.004037694              -0.000001188              -0.000556250               0.001531301               0.000975051               0.000000000               0.000000000               0.000000000               0.000000000               0.000824852               0.002186599               0.001421312               0.000035993               0.000716861               0.000752853               0.000000000               0.000000000               0.000000000               0.000000000               0.000459923               0.002965452               0.001516651              -0.000198212               0.001054544               0.000856332               0.000000000               0.000000000               0.000000000               0.000000000               0.000019970               0.003898078               0.001462647              -0.000479771               0.001459270               0.000979498               0.000000000               0.000000000               0.000000000               0.000000000              -0.000074246               0.004316047               0.001245256              -0.000567348               0.001627783               0.001060436               0.000000000               0.000000000               0.000000000               0.000000000              -0.000064252               0.004511569               0.001043918              -0.000588040               0.001699854               0.001111814               0.000000000               0.000000000               0.000000000               0.000000000              -0.000038868               0.004596822               0.000879663              -0.000589177               0.001728651               0.001139474               0.000000000               0.000000000               0.000000000               0.000000000              -0.000012915               0.004616651               0.000741219              -0.000581923               0.001732843               0.001150919               0.000000000               0.000000000               0.000000000               0.000000000               0.000012935               0.004600736               0.000618751              -0.000570240               0.001723643               0.001153403               0.000000000               0.000000000               0.000000000               0.000000000               0.000026272               0.004564311               0.000509837              -0.000560686               0.001708317               0.001147631               0.000000000               0.000000000               0.000000000               0.000000000               0.000027264               0.004519521               0.000419488              -0.000554715               0.001691397               0.001136682               0.000000000               0.000000000               0.000000000               0.000000000               0.000015462               0.004468965               0.000346238              -0.000552821               0.001673914               0.001121093               0.000000000               0.000000000               0.000000000               0.000000000              -0.000004603               0.004407147               0.000283037              -0.000552618               0.001653240               0.001100622               0.000000000               0.000000000               0.000000000               0.000000000              -0.000029393               0.004332160               0.000219849              -0.000552541               0.001628219               0.001075678               0.000000000               0.000000000               0.000000000               0.000000000              -0.000062673               0.004246448               0.000154973              -0.000554307               0.001600237               0.001045930               0.000000000               0.000000000               0.000000000               0.000000000              -0.000108464               0.004155561               0.000093528              -0.000560118               0.001571879               0.001011761               0.000000000               0.000000000               0.000000000               0.000000000              -0.000165157               0.004070459               0.000039789              -0.000570740               0.001547053               0.000976313               0.000000000               0.000000000               0.000000000               0.000000000              -0.000207446               0.004023479               0.000010672              -0.000580726               0.001534721               0.000953996               0.000000000               0.000000000               0.000000000               0.000000000               0.000356565               0.001405024               0.001028396              -0.000041918               0.000482308               0.000440391               0.000000000               0.000000000               0.000000000               0.000000000               0.000316102               0.002213580               0.001329015              -0.000158161               0.000790572               0.000632412               0.000000000               0.000000000               0.000000000               0.000000000               0.000087336               0.003163033               0.001484732              -0.000362629               0.001175209               0.000812581               0.000000000               0.000000000               0.000000000               0.000000000               0.000029170               0.003696939               0.001354727              -0.000451178               0.001382693               0.000931515               0.000000000               0.000000000               0.000000000               0.000000000               0.000037137               0.004009184               0.001181024              -0.000487221               0.001498788               0.001011567               0.000000000               0.000000000               0.000000000               0.000000000               0.000054430               0.004193946               0.001020704              -0.000503831               0.001565911               0.001062080               0.000000000               0.000000000               0.000000000               0.000000000               0.000069073               0.004297712               0.000880504              -0.000511311               0.001602993               0.001091682               0.000000000               0.000000000               0.000000000               0.000000000               0.000083476               0.004345149               0.000753615              -0.000511839               0.001618981               0.001107142               0.000000000               0.000000000               0.000000000               0.000000000               0.000092989               0.004358346               0.000638191              -0.000509921               0.001622741               0.001112820               0.000000000               0.000000000               0.000000000               0.000000000               0.000095281               0.004354413               0.000541173              -0.000508570               0.001620980               0.001112410               0.000000000               0.000000000               0.000000000               0.000000000               0.000087677               0.004337474               0.000460472              -0.000509304               0.001615578               0.001106274               0.000000000               0.000000000               0.000000000               0.000000000               0.000067668               0.004306860               0.000389851              -0.000512981               0.001606599               0.001093618               0.000000000               0.000000000               0.000000000               0.000000000               0.000036532               0.004258806               0.000318390              -0.000518650               0.001592471               0.001073821               0.000000000               0.000000000               0.000000000               0.000000000              -0.000004404               0.004196739               0.000240616              -0.000526243               0.001574313               0.001048071               0.000000000               0.000000000               0.000000000               0.000000000              -0.000061373               0.004125845               0.000159780              -0.000538744               0.001554849               0.001016105               0.000000000               0.000000000               0.000000000               0.000000000              -0.000137016               0.004057675               0.000078155              -0.000558589               0.001538741               0.000980152               0.000000000               0.000000000               0.000000000               0.000000000              -0.000199952               0.004012694               0.000029338              -0.000576567               0.001529741               0.000953173               0.000000000               0.000000000               0.000000000               0.000000000              -0.000174390               0.000796694               0.000662528              -0.000164983               0.000320556               0.000155573               0.000000000               0.000000000               0.000000000               0.000000000               0.000126682               0.001544022               0.001084255              -0.000145498               0.000563167               0.000417670               0.000000000               0.000000000               0.000000000               0.000000000               0.000164551               0.002422331               0.001387500              -0.000241086               0.000887797               0.000646711               0.000000000               0.000000000               0.000000000               0.000000000               0.000176398               0.003015916               0.001347042              -0.000310841               0.001108909               0.000798068               0.000000000               0.000000000               0.000000000               0.000000000               0.000192731               0.003421088               0.001214086              -0.000355362               0.001258805               0.000903443               0.000000000               0.000000000               0.000000000               0.000000000               0.000202615               0.003696726               0.001070565              -0.000386110               0.001360933               0.000974823               0.000000000               0.000000000               0.000000000               0.000000000               0.000204745               0.003883730               0.000939394              -0.000408686               0.001430792               0.001022106               0.000000000               0.000000000               0.000000000               0.000000000               0.000203475               0.004003446               0.000817724              -0.000424127               0.001475844               0.001051717               0.000000000               0.000000000               0.000000000               0.000000000               0.000202218               0.004075566               0.000708464              -0.000433613               0.001503046               0.001069433               0.000000000               0.000000000               0.000000000               0.000000000               0.000200123               0.004117895               0.000616639              -0.000439690               0.001519181               0.001079491               0.000000000               0.000000000               0.000000000               0.000000000               0.000195088               0.004143995               0.000537229              -0.000444841               0.001529598               0.001084757               0.000000000               0.000000000               0.000000000               0.000000000               0.000180521               0.004156274               0.000464436              -0.000451838               0.001536023               0.001084185               0.000000000               0.000000000               0.000000000               0.000000000               0.000151523               0.004146734               0.000390447              -0.000461520               0.001536071               0.001074551               0.000000000               0.000000000               0.000000000               0.000000000               0.000112805               0.004120858               0.000307784              -0.000472804               0.001531207               0.001058403               0.000000000               0.000000000               0.000000000               0.000000000               0.000063812               0.004085202               0.000215981              -0.000486720               0.001523960               0.001037241               0.000000000               0.000000000               0.000000000               0.000000000              -0.000005916               0.004041089               0.000112819              -0.000507353               0.001516134               0.001008781               0.000000000               0.000000000               0.000000000               0.000000000              -0.000066158               0.004005876               0.000051619              -0.000525542               0.001510460               0.000984917               0.000000000               0.000000000               0.000000000               0.000000000              -0.000707259               0.000373633               0.000369190              -0.000311926               0.000228518              -0.000083408               0.000000000               0.000000000               0.000000000               0.000000000              -0.000086199               0.000998001               0.000809428              -0.000157075               0.000385021               0.000227946               0.000000000               0.000000000               0.000000000               0.000000000               0.000233568               0.001741621               0.001166789              -0.000130116               0.000623906               0.000493790               0.000000000               0.000000000               0.000000000               0.000000000               0.000343795               0.002341571               0.001195192              -0.000163774               0.000835107               0.000671333               0.000000000               0.000000000               0.000000000               0.000000000               0.000381994               0.002804901               0.001110938              -0.000207365               0.001004079               0.000796714               0.000000000               0.000000000               0.000000000               0.000000000               0.000389090               0.003156650               0.000996039              -0.000248673               0.001135097               0.000886424               0.000000000               0.000000000               0.000000000               0.000000000               0.000376540               0.003420518               0.000883483              -0.000286362               0.001235615               0.000949253               0.000000000               0.000000000               0.000000000               0.000000000               0.000360001               0.003612383               0.000777958              -0.000316547               0.001309631               0.000993084               0.000000000               0.000000000               0.000000000               0.000000000               0.000345944               0.003745782               0.000683765              -0.000338493               0.001361413               0.001022919               0.000000000               0.000000000               0.000000000               0.000000000               0.000333955               0.003838486               0.000605803              -0.000354577               0.001397675               0.001043098               0.000000000               0.000000000               0.000000000               0.000000000               0.000326069               0.003910599               0.000538074              -0.000366548               0.001425703               0.001059154               0.000000000               0.000000000               0.000000000               0.000000000               0.000318223               0.003966833               0.000471731              -0.000376520               0.001447771               0.001071251               0.000000000               0.000000000               0.000000000               0.000000000               0.000301894               0.004001088               0.000402907              -0.000386925               0.001462657               0.001075733               0.000000000               0.000000000               0.000000000               0.000000000               0.000279765               0.004018455               0.000327179              -0.000397394               0.001471936               0.001074542               0.000000000               0.000000000               0.000000000               0.000000000               0.000254059               0.004023861               0.000236694              -0.000407710               0.001477177               0.001069467               0.000000000               0.000000000               0.000000000               0.000000000               0.000218650               0.004015381               0.000127439              -0.000419928               0.001478423               0.001058495               0.000000000               0.000000000               0.000000000               0.000000000               0.000187561               0.004001410               0.000065300              -0.000429840               0.001477070               0.001047230               0.000000000               0.000000000               0.000000000               0.000000000              -0.001174550               0.000102667               0.000173603              -0.000453289               0.000185317              -0.000267972               0.000000000               0.000000000               0.000000000               0.000000000              -0.000285677               0.000591287               0.000532269              -0.000181040               0.000257440               0.000076400               0.000000000               0.000000000               0.000000000               0.000000000               0.000282982               0.001187563               0.000840006              -0.000042328               0.000409959               0.000367631               0.000000000               0.000000000               0.000000000               0.000000000               0.000497320               0.001764688               0.000895256              -0.000034092               0.000599587               0.000565495               0.000000000               0.000000000               0.000000000               0.000000000               0.000566414               0.002257562               0.000853143              -0.000069791               0.000775777               0.000705986               0.000000000               0.000000000               0.000000000               0.000000000               0.000576950               0.002663166               0.000775788              -0.000116540               0.000926560               0.000810020               0.000000000               0.000000000               0.000000000               0.000000000               0.000557772               0.002985744               0.000694868              -0.000164054               0.001049923               0.000885869               0.000000000               0.000000000               0.000000000               0.000000000               0.000529337               0.003234902               0.000617659              -0.000205861               0.001146910               0.000941049               0.000000000               0.000000000               0.000000000               0.000000000               0.000501167               0.003423219               0.000546552              -0.000239965               0.001221050               0.000981085               0.000000000               0.000000000               0.000000000               0.000000000               0.000478448               0.003567898               0.000487796              -0.000266569               0.001278144               0.001011575               0.000000000               0.000000000               0.000000000               0.000000000               0.000461781               0.003684158               0.000437994              -0.000287351               0.001323824               0.001036473               0.000000000               0.000000000               0.000000000               0.000000000               0.000453958               0.003782652               0.000389217              -0.000302597               0.001361737               0.001059140               0.000000000               0.000000000               0.000000000               0.000000000               0.000452498               0.003860208               0.000337370              -0.000312839               0.001391003               0.001078164               0.000000000               0.000000000               0.000000000               0.000000000               0.000453720               0.003916046               0.000279291              -0.000319360               0.001411789               0.001092429               0.000000000               0.000000000               0.000000000               0.000000000               0.000460848               0.003958137               0.000206879              -0.000321948               0.001426682               0.001104734               0.000000000               0.000000000               0.000000000               0.000000000               0.000476433               0.003984906               0.000113292              -0.000319450               0.001434772               0.001115322               0.000000000               0.000000000               0.000000000               0.000000000               0.000489868               0.003993303               0.000060204              -0.000315462               0.001436241               0.001120780               0.000000000               0.000000000               0.000000000               0.000000000              -0.001495695              -0.000048377               0.000061452              -0.000554838               0.000168819              -0.000386019               0.000000000               0.000000000               0.000000000               0.000000000              -0.000428917               0.000336390               0.000262373              -0.000202892               0.000179759              -0.000023133               0.000000000               0.000000000               0.000000000               0.000000000               0.000311449               0.000822468               0.000439121               0.000013984               0.000269492               0.000283476               0.000000000               0.000000000               0.000000000               0.000000000               0.000601220               0.001375457               0.000479105               0.000053525               0.000440639               0.000494164               0.000000000               0.000000000               0.000000000               0.000000000               0.000698795               0.001880843               0.000464249               0.000026942               0.000617961               0.000644903               0.000000000               0.000000000               0.000000000               0.000000000               0.000716808               0.002313553               0.000426274              -0.000020392               0.000777974               0.000757582               0.000000000               0.000000000               0.000000000               0.000000000               0.000699841               0.002669360               0.000384194              -0.000071230               0.000913521               0.000842291               0.000000000               0.000000000               0.000000000               0.000000000               0.000665454               0.002956029               0.000342707              -0.000119958               0.001025319               0.000905361               0.000000000               0.000000000               0.000000000               0.000000000               0.000627799               0.003181629               0.000304301              -0.000162279               0.001114625               0.000952346               0.000000000               0.000000000               0.000000000               0.000000000               0.000594020               0.003362726               0.000272582              -0.000197583               0.001186758               0.000989175               0.000000000               0.000000000               0.000000000               0.000000000               0.000569312               0.003520413               0.000245194              -0.000226559               0.001248979               0.001022420               0.000000000               0.000000000               0.000000000               0.000000000               0.000556703               0.003658786               0.000220405              -0.000248584               0.001302445               0.001053860               0.000000000               0.000000000               0.000000000               0.000000000               0.000559470               0.003774492               0.000194064              -0.000262009               0.001345488               0.001083478               0.000000000               0.000000000               0.000000000               0.000000000               0.000579532               0.003864760               0.000163153              -0.000265770               0.001376830               0.001111061               0.000000000               0.000000000               0.000000000               0.000000000               0.000620765               0.003928731               0.000123879              -0.000258304               0.001395665               0.001137361               0.000000000               0.000000000               0.000000000               0.000000000               0.000690692               0.003968437               0.000069450              -0.000237045               0.001401814               0.001164769               0.000000000               0.000000000               0.000000000               0.000000000               0.000756326               0.003989719               0.000038133              -0.000215092               0.001401591               0.001186498               0.000000000               0.000000000               0.000000000               0.000000000              -0.001609676              -0.000094908              -0.000000000              -0.000591765               0.000165618              -0.000426147               0.000000000               0.000000000               0.000000000               0.000000000              -0.000481418               0.000249679              -0.000000000              -0.000211742               0.000153805              -0.000057936               0.000000000               0.000000000               0.000000000               0.000000000               0.000321192               0.000695274               0.000000000               0.000033537               0.000220576               0.000254114               0.000000000               0.000000000               0.000000000               0.000000000               0.000637297               0.001240072               0.000000000               0.000083977               0.000385361               0.000469338               0.000000000               0.000000000               0.000000000               0.000000000               0.000746462               0.001747570               0.000000000               0.000061476               0.000562025               0.000623502               0.000000000               0.000000000               0.000000000               0.000000000               0.000766794               0.002186083               0.000000000               0.000014287               0.000723925               0.000738212               0.000000000               0.000000000               0.000000000               0.000000000               0.000752013               0.002552386               0.000000000              -0.000037043               0.000863135               0.000826091               0.000000000               0.000000000               0.000000000               0.000000000               0.000716738               0.002850127               0.000000000              -0.000087489               0.000979196               0.000891707               0.000000000               0.000000000               0.000000000               0.000000000               0.000677931               0.003091045               0.000000000              -0.000132156               0.001074390               0.000942234               0.000000000               0.000000000               0.000000000               0.000000000               0.000639075               0.003287149               0.000000000              -0.000171240               0.001152785               0.000981545               0.000000000               0.000000000               0.000000000               0.000000000               0.000609590               0.003460054               0.000000000              -0.000203910               0.001221310               0.001017400               0.000000000               0.000000000               0.000000000               0.000000000               0.000594686               0.003618157               0.000000000              -0.000229262               0.001282461               0.001053199               0.000000000               0.000000000               0.000000000               0.000000000               0.000597063               0.003752420               0.000000000              -0.000245153               0.001332512               0.001087359               0.000000000               0.000000000               0.000000000               0.000000000               0.000623810               0.003856955               0.000000000              -0.000248190               0.001368369               0.001120179               0.000000000               0.000000000               0.000000000               0.000000000               0.000681470               0.003928824              -0.000000000              -0.000235551               0.001388112               0.001152561               0.000000000               0.000000000               0.000000000               0.000000000               0.000778700               0.003968691               0.000000000              -0.000204073               0.001390908               0.001186835               0.000000000               0.000000000               0.000000000               0.000000000               0.000871284               0.003992438               0.000000000              -0.000172323               0.001388240               0.001215917               0.000000000               0.000000000               0.000000000               0.000000000               0.001046991               0.011747947               0.000000000              -0.001075869               0.004274566               0.003198697               0.000000000               0.000000000               0.000000000               0.000000000               0.001127506               0.009562711               0.000000000              -0.000772522               0.003445046               0.002672524               0.000000000               0.000000000               0.000000000               0.000000000               0.001555192               0.007815298               0.000000000              -0.000393714               0.002736311               0.002342597               0.000000000               0.000000000               0.000000000               0.000000000               0.001600381               0.006863802              -0.000000000              -0.000257832               0.002373855               0.002116023               0.000000000               0.000000000               0.000000000               0.000000000               0.001513290               0.006304918              -0.000000000              -0.000220630               0.002175162               0.001954531               0.000000000               0.000000000               0.000000000               0.000000000               0.001375667               0.005948654              -0.000000000              -0.000227706               0.002058767               0.001831061               0.000000000               0.000000000               0.000000000               0.000000000               0.001224119               0.005712973              -0.000000000              -0.000255076               0.001989331               0.001734254               0.000000000               0.000000000               0.000000000               0.000000000               0.001073287               0.005550842               0.000000000              -0.000291372               0.001947386               0.001656014               0.000000000               0.000000000               0.000000000               0.000000000               0.000932573               0.005437108               0.000000000              -0.000329923               0.001922326               0.001592403               0.000000000               0.000000000               0.000000000               0.000000000               0.000804860               0.005352367              -0.000000000              -0.000367222               0.001906512               0.001539289               0.000000000               0.000000000               0.000000000               0.000000000               0.000681780               0.005281701               0.000000000              -0.000404544               0.001895398               0.001490853               0.000000000               0.000000000               0.000000000               0.000000000               0.000558022               0.005218233               0.000000000              -0.000443020               0.001887067               0.001444047               0.000000000               0.000000000               0.000000000               0.000000000               0.000436302               0.005158318              -0.000000000              -0.000481175               0.001879814               0.001398638               0.000000000               0.000000000               0.000000000               0.000000000               0.000318942               0.005098890              -0.000000000              -0.000517757               0.001872199               0.001354442               0.000000000               0.000000000               0.000000000               0.000000000               0.000202078               0.005032445              -0.000000000              -0.000553275               0.001861890               0.001308615               0.000000000               0.000000000               0.000000000               0.000000000               0.000093508               0.004948912               0.000000000              -0.000583547               0.001844136               0.001260589               0.000000000               0.000000000               0.000000000               0.000000000               0.000038181               0.004883514               0.000000000              -0.000596120               0.001826528               0.001230408               0.000000000               0.000000000               0.000000000               0.000000000               0.001101893               0.011532130              -0.000856519              -0.001028304               0.004186773               0.003158469               0.000000000               0.000000000               0.000000000               0.000000000               0.001132435               0.009412687              -0.000508466              -0.000751921               0.003388171               0.002636250               0.000000000               0.000000000               0.000000000               0.000000000               0.001506770               0.007737673              -0.000152887              -0.000402170               0.002713255               0.002311086               0.000000000               0.000000000               0.000000000               0.000000000               0.001528764               0.006823423               0.000007301              -0.000279641               0.002367665               0.002088025               0.000000000               0.000000000               0.000000000               0.000000000               0.001432138               0.006281218               0.000077766              -0.000248100               0.002176418               0.001928318               0.000000000               0.000000000               0.000000000               0.000000000               0.001295775               0.005935077               0.000107648              -0.000255968               0.002063662               0.001807694               0.000000000               0.000000000               0.000000000               0.000000000               0.001152524               0.005705637               0.000120744              -0.000281007               0.001995529               0.001714522               0.000000000               0.000000000               0.000000000               0.000000000               0.001011175               0.005548271               0.000125228              -0.000314343               0.001954186               0.001639844               0.000000000               0.000000000               0.000000000               0.000000000               0.000875538               0.005433778               0.000124213              -0.000350895               0.001928206               0.001577311               0.000000000               0.000000000               0.000000000               0.000000000               0.000750978               0.005345512               0.000118926              -0.000386571               0.001910677               0.001524106               0.000000000               0.000000000               0.000000000               0.000000000               0.000632788               0.005273998               0.000112557              -0.000421953               0.001898633               0.001476680               0.000000000               0.000000000               0.000000000               0.000000000               0.000514861               0.005211804               0.000105613              -0.000458401               0.001890051               0.001431650               0.000000000               0.000000000               0.000000000               0.000000000               0.000399559               0.005154843               0.000097678              -0.000494520               0.001883104               0.001388584               0.000000000               0.000000000               0.000000000               0.000000000               0.000287440               0.005099492               0.000088068              -0.000529645               0.001876362               0.001346717               0.000000000               0.000000000               0.000000000               0.000000000               0.000179599               0.005040612               0.000071780              -0.000562725               0.001867762               0.001305037               0.000000000               0.000000000               0.000000000               0.000000000               0.000084239               0.004972433               0.000043423              -0.000589963               0.001854115               0.001264152               0.000000000               0.000000000               0.000000000               0.000000000               0.000036965               0.004922286               0.000026556              -0.000601422               0.001841220               0.001239797               0.000000000               0.000000000               0.000000000               0.000000000               0.001246870               0.010915456              -0.001612781              -0.000896854               0.003937400               0.003040546               0.000000000               0.000000000               0.000000000               0.000000000               0.001140815               0.008991368              -0.000961125              -0.000696114               0.003229131               0.002533017               0.000000000               0.000000000               0.000000000               0.000000000               0.001366344               0.007521897              -0.000301242              -0.000427857               0.002649893               0.002222036               0.000000000               0.000000000               0.000000000               0.000000000               0.001327979               0.006711120              -0.000013247              -0.000340897               0.002350650               0.002009753               0.000000000               0.000000000               0.000000000               0.000000000               0.001214584               0.006219264               0.000112255              -0.000321938               0.002180380               0.001858442               0.000000000               0.000000000               0.000000000               0.000000000               0.001083615               0.005901283               0.000165960              -0.000331304               0.002077509               0.001746205               0.000000000               0.000000000               0.000000000               0.000000000               0.000956132               0.005685849               0.000189094              -0.000352181               0.002012658               0.001660477               0.000000000               0.000000000               0.000000000               0.000000000               0.000834767               0.005533007               0.000194617              -0.000378587               0.001970513               0.001591925               0.000000000               0.000000000               0.000000000               0.000000000               0.000717892               0.005415927               0.000189054              -0.000407780               0.001941218               0.001533437               0.000000000               0.000000000               0.000000000               0.000000000               0.000610259               0.005325057               0.000179126              -0.000436784               0.001920596               0.001483812               0.000000000               0.000000000               0.000000000               0.000000000               0.000508233               0.005253405               0.000169039              -0.000466087               0.001906480               0.001440393               0.000000000               0.000000000               0.000000000               0.000000000               0.000406169               0.005194800               0.000157535              -0.000497035               0.001897261               0.001400226               0.000000000               0.000000000               0.000000000               0.000000000               0.000309217               0.005145749               0.000143775              -0.000527261               0.001890986               0.001363725               0.000000000               0.000000000               0.000000000               0.000000000               0.000217847               0.005100900               0.000127012              -0.000555919               0.001885589               0.001329670               0.000000000               0.000000000               0.000000000               0.000000000               0.000132005               0.005056279               0.000101053              -0.000582532               0.001879587               0.001297055               0.000000000               0.000000000               0.000000000               0.000000000               0.000060533               0.005012793               0.000058281              -0.000603898               0.001872214               0.001268316               0.000000000               0.000000000               0.000000000               0.000000000               0.000028296               0.004987220               0.000032753              -0.000612790               0.001866654               0.001253863               0.000000000               0.000000000               0.000000000               0.000000000               0.001431705               0.009974384              -0.002190920              -0.000709908               0.003561397               0.002851489               0.000000000               0.000000000               0.000000000               0.000000000               0.001132311               0.008363329              -0.001319727              -0.000620799               0.002994681               0.002373882               0.000000000               0.000000000               0.000000000               0.000000000               0.001150116               0.007207127              -0.000446680              -0.000469596               0.002558884               0.002089287               0.000000000               0.000000000               0.000000000               0.000000000               0.001041670               0.006546781              -0.000078161              -0.000427720               0.002324812               0.001897092               0.000000000               0.000000000               0.000000000               0.000000000               0.000919243               0.006131425               0.000082197              -0.000421711               0.002184358               0.001762647               0.000000000               0.000000000               0.000000000               0.000000000               0.000802333               0.005852292               0.000152582              -0.000430661               0.002094298               0.001663637               0.000000000               0.000000000               0.000000000               0.000000000               0.000694718               0.005652456               0.000182587              -0.000446036               0.002032812               0.001586775               0.000000000               0.000000000               0.000000000               0.000000000               0.000597684               0.005501977               0.000189815              -0.000463614               0.001988512               0.001524898               0.000000000               0.000000000               0.000000000               0.000000000               0.000508964               0.005384269               0.000184455              -0.000482171               0.001955462               0.001473291               0.000000000               0.000000000               0.000000000               0.000000000               0.000428464               0.005292589               0.000175292              -0.000500899               0.001931145               0.001430246               0.000000000               0.000000000               0.000000000               0.000000000               0.000351722               0.005221526               0.000167256              -0.000520794               0.001914089               0.001393295               0.000000000               0.000000000               0.000000000               0.000000000               0.000274211               0.005166495               0.000158600              -0.000542981               0.001903141               0.001360160               0.000000000               0.000000000               0.000000000               0.000000000               0.000202237               0.005122914               0.000145750              -0.000564524               0.001895795               0.001331271               0.000000000               0.000000000               0.000000000               0.000000000               0.000139149               0.005086143               0.000127530              -0.000583585               0.001889892               0.001306307               0.000000000               0.000000000               0.000000000               0.000000000               0.000082439               0.005052660               0.000099245              -0.000600666               0.001884425               0.001283759               0.000000000               0.000000000               0.000000000               0.000000000               0.000035577               0.005023966               0.000055887              -0.000614653               0.001879523               0.001264870               0.000000000               0.000000000               0.000000000               0.000000000               0.000015781               0.005012067               0.000030520              -0.000620589               0.001877535               0.001256946               0.000000000               0.000000000               0.000000000               0.000000000               0.001603336               0.008818409              -0.002553687              -0.000501051               0.003106457               0.002605406               0.000000000               0.000000000               0.000000000               0.000000000               0.001093049               0.007604058              -0.001569672              -0.000540614               0.002714865               0.002174251               0.000000000               0.000000000               0.000000000               0.000000000               0.000886071               0.006832158              -0.000590546              -0.000521742               0.002451277               0.001929535               0.000000000               0.000000000               0.000000000               0.000000000               0.000721997               0.006344051              -0.000186378              -0.000522256               0.002288748               0.001766492               0.000000000               0.000000000               0.000000000               0.000000000               0.000606159               0.006011248              -0.000007749              -0.000524095               0.002178428               0.001654332               0.000000000               0.000000000               0.000000000               0.000000000               0.000512173               0.005772772               0.000072146              -0.000529530               0.002100748               0.001571218               0.000000000               0.000000000               0.000000000               0.000000000               0.000430979               0.005591880               0.000106965              -0.000537367               0.002043063               0.001505697               0.000000000               0.000000000               0.000000000               0.000000000               0.000365503               0.005451046               0.000118992              -0.000544316               0.001998436               0.001454120               0.000000000               0.000000000               0.000000000               0.000000000               0.000308654               0.005336759               0.000118957              -0.000551348               0.001962684               0.001411336               0.000000000               0.000000000               0.000000000               0.000000000               0.000257845               0.005242724               0.000118409              -0.000558647               0.001933773               0.001375126               0.000000000               0.000000000               0.000000000               0.000000000               0.000210734               0.005171330               0.000121894              -0.000567390               0.001912889               0.001345500               0.000000000               0.000000000               0.000000000               0.000000000               0.000161889               0.005114934               0.000122970              -0.000578657               0.001897847               0.001319190               0.000000000               0.000000000               0.000000000               0.000000000               0.000115631               0.005066386               0.000117188              -0.000589935               0.001885424               0.001295488               0.000000000               0.000000000               0.000000000               0.000000000               0.000078125               0.005025763               0.000103929              -0.000598922               0.001874878               0.001275956               0.000000000               0.000000000               0.000000000               0.000000000               0.000048367               0.004990199               0.000079119              -0.000605636               0.001865262               0.001259626               0.000000000               0.000000000               0.000000000               0.000000000               0.000022344               0.004963193               0.000042957              -0.000612019               0.001858387               0.001246369               0.000000000               0.000000000               0.000000000               0.000000000               0.000010349               0.004953541               0.000022922              -0.000615310               0.001856267               0.001240957               0.000000000               0.000000000               0.000000000               0.000000000               0.001703939               0.007567760              -0.002697642              -0.000306995               0.002624892               0.002317897               0.000000000               0.000000000               0.000000000               0.000000000               0.001014022               0.006792612              -0.001710939              -0.000468818               0.002420454               0.001951635               0.000000000               0.000000000               0.000000000               0.000000000               0.000610388               0.006427628              -0.000729933              -0.000574557               0.002334040               0.001759483               0.000000000               0.000000000               0.000000000               0.000000000               0.000416916               0.006107262              -0.000329170              -0.000607063               0.002238088               0.001631025               0.000000000               0.000000000               0.000000000               0.000000000               0.000320323               0.005849410              -0.000145072              -0.000611054               0.002153468               0.001542415               0.000000000               0.000000000               0.000000000               0.000000000               0.000259814               0.005651333              -0.000058321              -0.000608985               0.002086754               0.001477769               0.000000000               0.000000000               0.000000000               0.000000000               0.000212847               0.005492455              -0.000016100              -0.000606738               0.002033046               0.001426308               0.000000000               0.000000000               0.000000000               0.000000000               0.000181061               0.005360293               0.000006361              -0.000602137               0.001987459               0.001385322               0.000000000               0.000000000               0.000000000               0.000000000               0.000155684               0.005246872               0.000018638              -0.000597476               0.001948098               0.001350623               0.000000000               0.000000000               0.000000000               0.000000000               0.000134057               0.005156238               0.000032546              -0.000594257               0.001916814               0.001322558               0.000000000               0.000000000               0.000000000               0.000000000               0.000112454               0.005083393               0.000050958              -0.000593253               0.001892198               0.001298946               0.000000000               0.000000000               0.000000000               0.000000000               0.000085026               0.005017494               0.000062546              -0.000595301               0.001870915               0.001275614               0.000000000               0.000000000               0.000000000               0.000000000               0.000059464               0.004956424               0.000064940              -0.000597252               0.001851209               0.001253957               0.000000000               0.000000000               0.000000000               0.000000000               0.000040279               0.004899918               0.000058463              -0.000597384               0.001832417               0.001235034               0.000000000               0.000000000               0.000000000               0.000000000               0.000026317               0.004848601               0.000042101              -0.000596205               0.001814919               0.001218715               0.000000000               0.000000000               0.000000000               0.000000000               0.000014697               0.004807472               0.000020232              -0.000595421               0.001800948               0.001205527               0.000000000               0.000000000               0.000000000               0.000000000               0.000006782               0.004786075               0.000009726              -0.000595715               0.001793914               0.001198199               0.000000000               0.000000000               0.000000000               0.000000000               0.001698849               0.006312881              -0.002648939              -0.000152045               0.002154953               0.002002909               0.000000000               0.000000000               0.000000000               0.000000000               0.000896785               0.005988043              -0.001760965              -0.000412212               0.002133398               0.001721186               0.000000000               0.000000000               0.000000000               0.000000000               0.000355723               0.006007398              -0.000868431              -0.000617528               0.002208289               0.001590761               0.000000000               0.000000000               0.000000000               0.000000000               0.000168688               0.005834341              -0.000498421              -0.000666033               0.002166772               0.001500739               0.000000000               0.000000000               0.000000000               0.000000000               0.000103379               0.005646953              -0.000313602              -0.000667100               0.002104665               0.001437565               0.000000000               0.000000000               0.000000000               0.000000000               0.000078744               0.005487481              -0.000213464              -0.000656405               0.002047943               0.001391539               0.000000000               0.000000000               0.000000000               0.000000000               0.000066034               0.005348376              -0.000155708              -0.000643783               0.001997368               0.001353586               0.000000000               0.000000000               0.000000000               0.000000000               0.000061405               0.005223130              -0.000116911              -0.000629863               0.001950980               0.001321117               0.000000000               0.000000000               0.000000000               0.000000000               0.000060550               0.005115650              -0.000085725              -0.000616749               0.001910783               0.001294034               0.000000000               0.000000000               0.000000000               0.000000000               0.000057939               0.005027014              -0.000054781              -0.000606648               0.001877871               0.001271223               0.000000000               0.000000000               0.000000000               0.000000000               0.000049398               0.004945907              -0.000024408              -0.000599713               0.001848523               0.001248811               0.000000000               0.000000000               0.000000000               0.000000000               0.000036044               0.004866887              -0.000001982              -0.000594843               0.001820560               0.001225717               0.000000000               0.000000000               0.000000000               0.000000000               0.000022707               0.004789290               0.000010100              -0.000590145               0.001793129               0.001202984               0.000000000               0.000000000               0.000000000               0.000000000               0.000013650               0.004714909               0.000013979              -0.000584244               0.001766369               0.001182125               0.000000000               0.000000000               0.000000000               0.000000000               0.000007728               0.004648158               0.000010475              -0.000578120               0.001742077               0.001163957               0.000000000               0.000000000               0.000000000               0.000000000               0.000001897               0.004587379               0.000004650              -0.000572710               0.001720014               0.001147305               0.000000000               0.000000000               0.000000000               0.000000000              -0.000006653               0.004548423               0.000005538              -0.000571046               0.001706475               0.001135428               0.000000000               0.000000000               0.000000000               0.000000000               0.001596453               0.005124215              -0.002444234              -0.000041860               0.001722007               0.001680147               0.000000000               0.000000000               0.000000000               0.000000000               0.000755186               0.005229461              -0.001742481              -0.000370489               0.001866632               0.001496143               0.000000000               0.000000000               0.000000000               0.000000000               0.000149707               0.005574147              -0.001008732              -0.000640627               0.002071573               0.001430945               0.000000000               0.000000000               0.000000000               0.000000000              -0.000002495               0.005528629              -0.000673475              -0.000692013               0.002073529               0.001381516               0.000000000               0.000000000               0.000000000               0.000000000              -0.000030841               0.005414138              -0.000481604              -0.000688331               0.002034138               0.001345807               0.000000000               0.000000000               0.000000000               0.000000000              -0.000026569               0.005293176              -0.000360417              -0.000671609               0.001988244               0.001316635               0.000000000               0.000000000               0.000000000               0.000000000              -0.000011963               0.005173017              -0.000282095              -0.000651112               0.001941359               0.001290247               0.000000000               0.000000000               0.000000000               0.000000000               0.000002789               0.005057874              -0.000223464              -0.000631187               0.001896337               0.001265150               0.000000000               0.000000000               0.000000000               0.000000000               0.000012527               0.004956275              -0.000173471              -0.000614835               0.001857020               0.001242185               0.000000000               0.000000000               0.000000000               0.000000000               0.000011890               0.004863103              -0.000127402              -0.000603428               0.001822161               0.001218733               0.000000000               0.000000000               0.000000000               0.000000000               0.000005052               0.004771851              -0.000084609              -0.000594586               0.001788796               0.001194211               0.000000000               0.000000000               0.000000000               0.000000000              -0.000002840               0.004679623              -0.000049885              -0.000586016               0.001755198               0.001169181               0.000000000               0.000000000               0.000000000               0.000000000              -0.000009573               0.004588787              -0.000025964              -0.000577187               0.001721976               0.001144789               0.000000000               0.000000000               0.000000000               0.000000000              -0.000013767               0.004502361              -0.000008757              -0.000567956               0.001690091               0.001122134               0.000000000               0.000000000               0.000000000               0.000000000              -0.000013831               0.004423023               0.000000624              -0.000558063               0.001660347               0.001102284               0.000000000               0.000000000               0.000000000               0.000000000              -0.000011063               0.004350268               0.000003794              -0.000547931               0.001632718               0.001084788               0.000000000               0.000000000               0.000000000               0.000000000              -0.000015306               0.004302564               0.000009257              -0.000543559               0.001615360               0.001071801               0.000000000               0.000000000               0.000000000               0.000000000               0.001429425               0.004093153              -0.002141532               0.000024387               0.001356241               0.001380628               0.000000000               0.000000000               0.000000000               0.000000000               0.000630022               0.004545220              -0.001693623              -0.000331895               0.001625689               0.001293794               0.000000000               0.000000000               0.000000000               0.000000000               0.000019154               0.005157759              -0.001163806              -0.000637536               0.001931748               0.001294212               0.000000000               0.000000000               0.000000000               0.000000000              -0.000094623               0.005247103              -0.000850714              -0.000691370               0.001979473               0.001288103               0.000000000               0.000000000               0.000000000               0.000000000              -0.000096550               0.005212977              -0.000647134              -0.000687827               0.001966917               0.001279090               0.000000000               0.000000000               0.000000000               0.000000000              -0.000071268               0.005132737              -0.000506835              -0.000668316               0.001933667               0.001265351               0.000000000               0.000000000               0.000000000               0.000000000              -0.000038563               0.005030798              -0.000407241              -0.000643309               0.001891352               0.001248043               0.000000000               0.000000000               0.000000000               0.000000000              -0.000012285               0.004925956              -0.000328012              -0.000620350               0.001848752               0.001228402               0.000000000               0.000000000               0.000000000               0.000000000               0.000002386               0.004831889              -0.000258858              -0.000603090               0.001811643               0.001208554               0.000000000               0.000000000               0.000000000               0.000000000              -0.000001793               0.004740251              -0.000197867              -0.000593202               0.001777802               0.001184600               0.000000000               0.000000000               0.000000000               0.000000000              -0.000012737               0.004647004              -0.000145672              -0.000585650               0.001744203               0.001158552               0.000000000               0.000000000               0.000000000               0.000000000              -0.000020401               0.004551109              -0.000099759              -0.000576538               0.001709200               0.001132663               0.000000000               0.000000000               0.000000000               0.000000000              -0.000028054               0.004451960              -0.000062077              -0.000567014               0.001672976               0.001105962               0.000000000               0.000000000               0.000000000               0.000000000              -0.000037861               0.004352708              -0.000032161              -0.000558285               0.001636983               0.001078698               0.000000000               0.000000000               0.000000000               0.000000000              -0.000047751               0.004256269              -0.000010183              -0.000549939               0.001602055               0.001052116               0.000000000               0.000000000               0.000000000               0.000000000              -0.000055235               0.004166344               0.000001353              -0.000541505               0.001569269               0.001027764               0.000000000               0.000000000               0.000000000               0.000000000              -0.000057422               0.004116856               0.000006044              -0.000536139               0.001550985               0.001014846               0.000000000               0.000000000               0.000000000               0.000000000               0.001187305               0.003102464              -0.001798141               0.000057428               0.001015001               0.001072429               0.000000000               0.000000000               0.000000000               0.000000000               0.000550270               0.003755224              -0.001630736              -0.000263053               0.001339412               0.001076360               0.000000000               0.000000000               0.000000000               0.000000000              -0.000013786               0.004564806              -0.001335720              -0.000575770               0.001713510               0.001137740               0.000000000               0.000000000               0.000000000               0.000000000              -0.000115175               0.004825189              -0.001053130              -0.000646338               0.001823826               0.001177488               0.000000000               0.000000000               0.000000000               0.000000000              -0.000106631               0.004897710              -0.000843144              -0.000652199               0.001849953               0.001197754               0.000000000               0.000000000               0.000000000               0.000000000              -0.000075423               0.004890367              -0.000687512              -0.000639578               0.001843299               0.001203720               0.000000000               0.000000000               0.000000000               0.000000000              -0.000039182               0.004838805              -0.000563786              -0.000619542               0.001819433               0.001199890               0.000000000               0.000000000               0.000000000               0.000000000              -0.000010877               0.004768418              -0.000460066              -0.000600130               0.001789500               0.001189370               0.000000000               0.000000000               0.000000000               0.000000000               0.000001975               0.004697355              -0.000369137              -0.000586428               0.001761245               0.001174818               0.000000000               0.000000000               0.000000000               0.000000000              -0.000002342               0.004622311              -0.000292389              -0.000578666               0.001733644               0.001154978               0.000000000               0.000000000               0.000000000               0.000000000              -0.000016789               0.004547146              -0.000230324              -0.000574688               0.001707263               0.001132575               0.000000000               0.000000000               0.000000000               0.000000000              -0.000031942               0.004466301              -0.000175014              -0.000570265               0.001678840               0.001108576               0.000000000               0.000000000               0.000000000               0.000000000              -0.000046927               0.004375924              -0.000123646              -0.000564587               0.001646822               0.001082236               0.000000000               0.000000000               0.000000000               0.000000000              -0.000067793               0.004279364              -0.000076269              -0.000560341               0.001613221               0.001052879               0.000000000               0.000000000               0.000000000               0.000000000              -0.000093647               0.004181787              -0.000036423              -0.000557840               0.001579862               0.001022022               0.000000000               0.000000000               0.000000000               0.000000000              -0.000122395               0.004086666              -0.000009222              -0.000556730               0.001547785               0.000991055               0.000000000               0.000000000               0.000000000               0.000000000              -0.000137438               0.004037694               0.000001188              -0.000556250               0.001531301               0.000975051               0.000000000               0.000000000               0.000000000               0.000000000               0.000824852               0.002186599              -0.001421312               0.000035993               0.000716861               0.000752853               0.000000000               0.000000000               0.000000000               0.000000000               0.000459923               0.002965452              -0.001516651              -0.000198212               0.001054544               0.000856332               0.000000000               0.000000000               0.000000000               0.000000000               0.000019970               0.003898078              -0.001462647              -0.000479771               0.001459270               0.000979498               0.000000000               0.000000000               0.000000000               0.000000000              -0.000074246               0.004316047              -0.001245256              -0.000567348               0.001627783               0.001060436               0.000000000               0.000000000               0.000000000               0.000000000              -0.000064252               0.004511569              -0.001043918              -0.000588040               0.001699854               0.001111814               0.000000000               0.000000000               0.000000000               0.000000000              -0.000038868               0.004596822              -0.000879663              -0.000589177               0.001728651               0.001139474               0.000000000               0.000000000               0.000000000               0.000000000              -0.000012915               0.004616651              -0.000741219              -0.000581923               0.001732843               0.001150919               0.000000000               0.000000000               0.000000000               0.000000000               0.000012935               0.004600736              -0.000618751              -0.000570240               0.001723643               0.001153403               0.000000000               0.000000000               0.000000000               0.000000000               0.000026272               0.004564311              -0.000509837              -0.000560686               0.001708317               0.001147631               0.000000000               0.000000000               0.000000000               0.000000000               0.000027264               0.004519521              -0.000419488              -0.000554715               0.001691397               0.001136682               0.000000000               0.000000000               0.000000000               0.000000000               0.000015462               0.004468965              -0.000346238              -0.000552821               0.001673914               0.001121093               0.000000000               0.000000000               0.000000000               0.000000000              -0.000004603               0.004407147              -0.000283037              -0.000552618               0.001653240               0.001100622               0.000000000               0.000000000               0.000000000               0.000000000              -0.000029393               0.004332160              -0.000219849              -0.000552541               0.001628219               0.001075678               0.000000000               0.000000000               0.000000000               0.000000000              -0.000062673               0.004246448              -0.000154973              -0.000554307               0.001600237               0.001045930               0.000000000               0.000000000               0.000000000               0.000000000              -0.000108464               0.004155561              -0.000093528              -0.000560118               0.001571879               0.001011761               0.000000000               0.000000000               0.000000000               0.000000000              -0.000165157               0.004070459              -0.000039789              -0.000570740               0.001547053               0.000976313               0.000000000               0.000000000               0.000000000               0.000000000              -0.000207446               0.004023479              -0.000010672              -0.000580726               0.001534721               0.000953996               0.000000000               0.000000000               0.000000000               0.000000000               0.000356565               0.001405024              -0.001028396              -0.000041918               0.000482308               0.000440391               0.000000000               0.000000000               0.000000000               0.000000000               0.000316102               0.002213580              -0.001329015              -0.000158161               0.000790572               0.000632412               0.000000000               0.000000000               0.000000000               0.000000000               0.000087336               0.003163033              -0.001484732              -0.000362629               0.001175209               0.000812581               0.000000000               0.000000000               0.000000000               0.000000000               0.000029170               0.003696939              -0.001354727              -0.000451178               0.001382693               0.000931515               0.000000000               0.000000000               0.000000000               0.000000000               0.000037137               0.004009184              -0.001181024              -0.000487221               0.001498788               0.001011567               0.000000000               0.000000000               0.000000000               0.000000000               0.000054430               0.004193946              -0.001020704              -0.000503831               0.001565911               0.001062080               0.000000000               0.000000000               0.000000000               0.000000000               0.000069073               0.004297712              -0.000880504              -0.000511311               0.001602993               0.001091682               0.000000000               0.000000000               0.000000000               0.000000000               0.000083476               0.004345149              -0.000753615              -0.000511839               0.001618981               0.001107142               0.000000000               0.000000000               0.000000000               0.000000000               0.000092989               0.004358346              -0.000638191              -0.000509921               0.001622741               0.001112820               0.000000000               0.000000000               0.000000000               0.000000000               0.000095281               0.004354413              -0.000541173              -0.000508570               0.001620980               0.001112410               0.000000000               0.000000000               0.000000000               0.000000000               0.000087677               0.004337474              -0.000460472              -0.000509304               0.001615578               0.001106274               0.000000000               0.000000000               0.000000000               0.000000000               0.000067668               0.004306860              -0.000389851              -0.000512981               0.001606599               0.001093618               0.000000000               0.000000000               0.000000000               0.000000000               0.000036532               0.004258806              -0.000318390              -0.000518650               0.001592471               0.001073821               0.000000000               0.000000000               0.000000000               0.000000000              -0.000004404               0.004196739              -0.000240616              -0.000526243               0.001574313               0.001048071               0.000000000               0.000000000               0.000000000               0.000000000              -0.000061373               0.004125845              -0.000159780              -0.000538744               0.001554849               0.001016105               0.000000000               0.000000000               0.000000000               0.000000000              -0.000137016               0.004057675              -0.000078155              -0.000558589               0.001538741               0.000980152               0.000000000               0.000000000               0.000000000               0.000000000              -0.000199952               0.004012694              -0.000029338              -0.000576567               0.001529741               0.000953173               0.000000000               0.000000000               0.000000000               0.000000000              -0.000174390               0.000796694              -0.000662528              -0.000164983               0.000320556               0.000155573               0.000000000               0.000000000               0.000000000               0.000000000               0.000126682               0.001544022              -0.001084255              -0.000145498               0.000563167               0.000417670               0.000000000               0.000000000               0.000000000               0.000000000               0.000164551               0.002422331              -0.001387500              -0.000241086               0.000887797               0.000646711               0.000000000               0.000000000               0.000000000               0.000000000               0.000176398               0.003015916              -0.001347042              -0.000310841               0.001108909               0.000798068               0.000000000               0.000000000               0.000000000               0.000000000               0.000192731               0.003421088              -0.001214086              -0.000355362               0.001258805               0.000903443               0.000000000               0.000000000               0.000000000               0.000000000               0.000202615               0.003696726              -0.001070565              -0.000386110               0.001360933               0.000974823               0.000000000               0.000000000               0.000000000               0.000000000               0.000204745               0.003883730              -0.000939394              -0.000408686               0.001430792               0.001022106               0.000000000               0.000000000               0.000000000               0.000000000               0.000203475               0.004003446              -0.000817724              -0.000424127               0.001475844               0.001051717               0.000000000               0.000000000               0.000000000               0.000000000               0.000202218               0.004075566              -0.000708464              -0.000433613               0.001503046               0.001069433               0.000000000               0.000000000               0.000000000               0.000000000               0.000200123               0.004117895              -0.000616639              -0.000439690               0.001519181               0.001079491               0.000000000               0.000000000               0.000000000               0.000000000               0.000195088               0.004143995              -0.000537229              -0.000444841               0.001529598               0.001084757               0.000000000               0.000000000               0.000000000               0.000000000               0.000180521               0.004156274              -0.000464436              -0.000451838               0.001536023               0.001084185               0.000000000               0.000000000               0.000000000               0.000000000               0.000151523               0.004146734              -0.000390447              -0.000461520               0.001536071               0.001074551               0.000000000               0.000000000               0.000000000               0.000000000               0.000112805               0.004120858              -0.000307784              -0.000472804               0.001531207               0.001058403               0.000000000               0.000000000               0.000000000               0.000000000               0.000063812               0.004085202              -0.000215981              -0.000486720               0.001523960               0.001037241               0.000000000               0.000000000               0.000000000               0.000000000              -0.000005916               0.004041089              -0.000112819              -0.000507353               0.001516134               0.001008781               0.000000000               0.000000000               0.000000000               0.000000000              -0.000066158               0.004005876              -0.000051619              -0.000525542               0.001510460               0.000984917               0.000000000               0.000000000               0.000000000               0.000000000              -0.000707259               0.000373633              -0.000369190              -0.000311926               0.000228518              -0.000083408               0.000000000               0.000000000               0.000000000               0.000000000              -0.000086199               0.000998001              -0.000809428              -0.000157075               0.000385021               0.000227946               0.000000000               0.000000000               0.000000000               0.000000000               0.000233568               0.001741621              -0.001166789              -0.000130116               0.000623906               0.000493790               0.000000000               0.000000000               0.000000000               0.000000000               0.000343795               0.002341571              -0.001195192              -0.000163774               0.000835107               0.000671333               0.000000000               0.000000000               0.000000000               0.000000000               0.000381994               0.002804901              -0.001110938              -0.000207365               0.001004079               0.000796714               0.000000000               0.000000000               0.000000000               0.000000000               0.000389090               0.003156650              -0.000996039              -0.000248673               0.001135097               0.000886424               0.000000000               0.000000000               0.000000000               0.000000000               0.000376540               0.003420518              -0.000883483              -0.000286362               0.001235615               0.000949253               0.000000000               0.000000000               0.000000000               0.000000000               0.000360001               0.003612383              -0.000777958              -0.000316547               0.001309631               0.000993084               0.000000000               0.000000000               0.000000000               0.000000000               0.000345944               0.003745782              -0.000683765              -0.000338493               0.001361413               0.001022919               0.000000000               0.000000000               0.000000000               0.000000000               0.000333955               0.003838486              -0.000605803              -0.000354577               0.001397675               0.001043098               0.000000000               0.000000000               0.000000000               0.000000000               0.000326069               0.003910599              -0.000538074              -0.000366548               0.001425703               0.001059154               0.000000000               0.000000000               0.000000000               0.000000000               0.000318223               0.003966833              -0.000471731              -0.000376520               0.001447771               0.001071251               0.000000000               0.000000000               0.000000000               0.000000000               0.000301894               0.004001088              -0.000402907              -0.000386925               0.001462657               0.001075733               0.000000000               0.000000000               0.000000000               0.000000000               0.000279765               0.004018455              -0.000327179              -0.000397394               0.001471936               0.001074542               0.000000000               0.000000000               0.000000000               0.000000000               0.000254059               0.004023861              -0.000236694              -0.000407710               0.001477177               0.001069467               0.000000000               0.000000000               0.000000000               0.000000000               0.000218650               0.004015381              -0.000127439              -0.000419928               0.001478423               0.001058495               0.000000000               0.000000000               0.000000000               0.000000000               0.000187561               0.004001410              -0.000065300              -0.000429840               0.001477070               0.001047230               0.000000000               0.000000000               0.000000000               0.000000000              -0.001174550               0.000102667              -0.000173603              -0.000453289               0.000185317              -0.000267972               0.000000000               0.000000000               0.000000000               0.000000000              -0.000285677               0.000591287              -0.000532269              -0.000181040               0.000257440               0.000076400               0.000000000               0.000000000               0.000000000               0.000000000               0.000282982               0.001187563              -0.000840006              -0.000042328               0.000409959               0.000367631               0.000000000               0.000000000               0.000000000               0.000000000               0.000497320               0.001764688              -0.000895256              -0.000034092               0.000599587               0.000565495               0.000000000               0.000000000               0.000000000               0.000000000               0.000566414               0.002257562              -0.000853143              -0.000069791               0.000775777               0.000705986               0.000000000               0.000000000               0.000000000               0.000000000               0.000576950               0.002663166              -0.000775788              -0.000116540               0.000926560               0.000810020               0.000000000               0.000000000               0.000000000               0.000000000               0.000557772               0.002985744              -0.000694868              -0.000164054               0.001049923               0.000885869               0.000000000               0.000000000               0.000000000               0.000000000               0.000529337               0.003234902              -0.000617659              -0.000205861               0.001146910               0.000941049               0.000000000               0.000000000               0.000000000               0.000000000               0.000501167               0.003423219              -0.000546552              -0.000239965               0.001221050               0.000981085               0.000000000               0.000000000               0.000000000               0.000000000               0.000478448               0.003567898              -0.000487796              -0.000266569               0.001278144               0.001011575               0.000000000               0.000000000               0.000000000               0.000000000               0.000461781               0.003684158              -0.000437994              -0.000287351               0.001323824               0.001036473               0.000000000               0.000000000               0.000000000               0.000000000               0.000453958               0.003782652              -0.000389217              -0.000302597               0.001361737               0.001059140               0.000000000               0.000000000               0.000000000               0.000000000               0.000452498               0.003860208              -0.000337370              -0.000312839               0.001391003               0.001078164               0.000000000               0.000000000               0.000000000               0.000000000               0.000453720               0.003916046              -0.000279291              -0.000319360               0.001411789               0.001092429               0.000000000               0.000000000               0.000000000               0.000000000               0.000460848               0.003958137              -0.000206879              -0.000321948               0.001426682               0.001104734               0.000000000               0.000000000               0.000000000               0.000000000               0.000476433               0.003984906              -0.000113292              -0.000319450               0.001434772               0.001115322               0.000000000               0.000000000               0.000000000               0.000000000               0.000489868               0.003993303              -0.000060204              -0.000315462               0.001436241               0.001120780               0.000000000               0.000000000               0.000000000               0.000000000              -0.001495695              -0.000048377              -0.000061452              -0.000554838               0.000168819              -0.000386019               0.000000000               0.000000000               0.000000000               0.000000000              -0.000428917               0.000336390              -0.000262373              -0.000202892               0.000179759              -0.000023133               0.000000000               0.000000000               0.000000000               0.000000000               0.000311449               0.000822468              -0.000439121               0.000013984               0.000269492               0.000283476               0.000000000               0.000000000               0.000000000               0.000000000               0.000601220               0.001375457              -0.000479105               0.000053525               0.000440639               0.000494164               0.000000000               0.000000000               0.000000000               0.000000000               0.000698795               0.001880843              -0.000464249               0.000026942               0.000617961               0.000644903               0.000000000               0.000000000               0.000000000               0.000000000               0.000716808               0.002313553              -0.000426274              -0.000020392               0.000777974               0.000757582               0.000000000               0.000000000               0.000000000               0.000000000               0.000699841               0.002669360              -0.000384194              -0.000071230               0.000913521               0.000842291               0.000000000               0.000000000               0.000000000               0.000000000               0.000665454               0.002956029              -0.000342707              -0.000119958               0.001025319               0.000905361               0.000000000               0.000000000               0.000000000               0.000000000               0.000627799               0.003181629              -0.000304301              -0.000162279               0.001114625               0.000952346               0.000000000               0.000000000               0.000000000               0.000000000               0.000594020               0.003362726              -0.000272582              -0.000197583               0.001186758               0.000989175               0.000000000               0.000000000               0.000000000               0.000000000               0.000569312               0.003520413              -0.000245194              -0.000226559               0.001248979               0.001022420               0.000000000               0.000000000               0.000000000               0.000000000               0.000556703               0.003658786              -0.000220405              -0.000248584               0.001302445               0.001053860               0.000000000               0.000000000               0.000000000               0.000000000               0.000559470               0.003774492              -0.000194064              -0.000262009               0.001345488               0.001083478               0.000000000               0.000000000               0.000000000               0.000000000               0.000579532               0.003864760              -0.000163153              -0.000265770               0.001376830               0.001111061               0.000000000               0.000000000               0.000000000               0.000000000               0.000620765               0.003928731              -0.000123879              -0.000258304               0.001395665               0.001137361               0.000000000               0.000000000               0.000000000               0.000000000               0.000690692               0.003968437              -0.000069450              -0.000237045               0.001401814               0.001164769               0.000000000               0.000000000               0.000000000               0.000000000               0.000756326               0.003989719              -0.000038133              -0.000215092               0.001401591               0.001186498               0.000000000               0.000000000               0.000000000               0.000000000               0.000000000               0.000000000               0.000000000               0.000000000               0.000000000               0.000000000               0.000000000               0.000000000               0.000000000               0.000000000               0.000000000               0.000000000               0.000000000               0.000000000               0.000000000               0.000000000               0.000000000               0.000000000               0.000000000               0.000000000               0.000000000               0.000000000               0.000000000               0.000000000               0.000000000               0.000000000               0.000000000               0.000000000               0.000000000               0.000000000               0.000000000               0.000000000               0.000000000               0.000000000               0.000000000               0.000000000               0.000000000               0.000000000               0.000000000               0.000000000               0.000000000               0.000000000               0.000000000               0.000000000               0.000000000               0.000000000               0.000000000               0.000000000               0.000000000               0.000000000               0.000000000               0.000000000               0.000000000               0.000000000               0.000000000               0.000000000               0.000000000               0.000000000               0.000000000               0.000000000               0.000000000               0.000000000               0.000000000               0.000000000               0.000000000               0.000000000               0.000000000               0.000000000               0.000000000               0.000000000               0.000000000               0.000000000               0.000000000               0.000000000               0.000000000               0.000000000               0.000000000               0.000000000               0.000000000               0.000000000               0.000000000               0.000000000               0.000000000               0.000000000               0.000000000               0.000000000               0.000000000               0.000000000               0.000000000               0.000000000               0.000000000               0.000000000               0.000000000               0.000000000               0.000000000               0.000000000               0.000000000               0.000000000               0.000000000               0.000000000               0.000000000               0.000000000               0.000000000               0.000000000               0.000000000               0.000000000               0.000000000               0.000000000               0.000000000               0.000000000               0.000000000               0.000000000               0.000000000               0.000000000               0.000000000               0.000000000               0.000000000               0.000000000               0.000000000               0.000000000               0.000000000               0.000000000               0.000000000               0.000000000               0.000000000               0.000000000               0.000000000               0.000000000               0.000000000               0.000000000               0.000000000               0.000000000               0.000000000               0.000000000               0.000000000               0.000000000               0.000000000               0.000000000               0.000000000               0.000000000               0.000000000               0.000000000               0.000000000               0.000000000               0.000000000               0.000000000               0.000000000               0.000000000               0.000000000               0.000000000               0.000000000               0.000000000               0.000000000               0.000000000               0.000000000               0.000000000               0.000000000               0.000000000               0.000000000               0.000000000               0.000000000               0.000000000               0.000000000               0.000000000               0.000000000               0.000000000               0.000000000               0.000000000               0.000000000               0.000000000               0.000000000               0.000000000               0.000000000               0.000000000               0.000000000               0.000000000               0.000000000               0.000000000               0.000000000               0.000000000               0.000000000               0.000000000               0.000000000               0.000000000               0.000000000               0.000000000               0.000000000               0.000000000               0.000000000               0.000000000               0.000000000               0.000000000               0.000000000               0.000000000               0.000000000               0.000000000               0.000000000               0.000000000               0.000000000               0.000000000               0.000000000               0.000000000               0.000000000               0.000000000               0.000000000               0.000000000               0.000000000               0.000000000               0.000000000               0.000000000               0.000000000               0.000000000               0.000000000               0.000000000               0.000000000               0.000000000               0.000000000               0.000000000               0.000000000               0.000000000               0.000000000               0.000000000               0.000000000               0.000000000               0.000000000               0.000000000               0.000000000               0.000000000               0.000000000               0.000000000               0.000000000               0.000000000               0.000000000               0.000000000               0.000000000               0.000000000               0.000000000               0.000000000               0.000000000               0.000000000               0.000000000               0.000000000               0.000000000               0.000000000               0.000000000               0.000000000               0.000000000               0.000000000               0.000000000               0.000000000               0.000000000               0.000000000               0.000000000               0.000000000               0.000000000               0.000000000               0.000000000               0.000000000               0.000000000               0.000000000               0.000000000               0.000000000               0.000000000               0.000000000               0.000000000               0.000000000               0.000000000               0.000000000               0.000000000               0.000000000               0.000000000               0.000000000               0.000000000               0.000000000               0.000000000               0.000000000               0.000000000               0.000000000               0.000000000               0.000000000               0.000000000               0.000000000               0.000000000               0.000000000               0.000000000               0.000000000               0.000000000               0.000000000               0.000000000               0.000000000               0.000000000               0.000000000               0.000000000               0.000000000               0.000000000               0.000000000               0.000000000               0.000000000               0.000000000               0.000000000               0.000000000               0.000000000               0.000000000               0.000000000               0.000000000               0.000000000               0.000000000               0.000000000               0.000000000               0.000000000               0.000000000               0.000000000               0.000000000               0.000000000               0.000000000               0.000000000               0.000000000               0.000000000               0.000000000               0.000000000               0.000000000               0.000000000               0.000000000               0.000000000               0.000000000               0.000000000               0.000000000               0.000000000               0.000000000               0.000000000               0.000000000               0.000000000               0.000000000               0.000000000               0.000000000               0.000000000               0.000000000               0.000000000               0.000000000               0.000000000               0.001101893               0.011532130               0.000856519              -0.001028304               0.004186773               0.003158469               0.000000000               0.000000000               0.000000000               0.000000000               0.001132435               0.009412687               0.000508466              -0.000751921               0.003388171               0.002636250               0.000000000               0.000000000               0.000000000               0.000000000               0.001506770               0.007737673               0.000152887              -0.000402170               0.002713255               0.002311086               0.000000000               0.000000000               0.000000000               0.000000000               0.001528764               0.006823423              -0.000007301              -0.000279641               0.002367665               0.002088025               0.000000000               0.000000000               0.000000000               0.000000000               0.001432138               0.006281218              -0.000077766              -0.000248100               0.002176418               0.001928318               0.000000000               0.000000000               0.000000000               0.000000000               0.001295775               0.005935077              -0.000107648              -0.000255968               0.002063662               0.001807694               0.000000000               0.000000000               0.000000000               0.000000000               0.001152524               0.005705637              -0.000120744              -0.000281007               0.001995529               0.001714522               0.000000000               0.000000000               0.000000000               0.000000000               0.001011175               0.005548271              -0.000125228              -0.000314343               0.001954186               0.001639844               0.000000000               0.000000000               0.000000000               0.000000000               0.000875538               0.005433778              -0.000124213              -0.000350895               0.001928206               0.001577311               0.000000000               0.000000000               0.000000000               0.000000000               0.000750978               0.005345512              -0.000118926              -0.000386571               0.001910677               0.001524106               0.000000000               0.000000000               0.000000000               0.000000000               0.000632788               0.005273998              -0.000112557              -0.000421953               0.001898633               0.001476680               0.000000000               0.000000000               0.000000000               0.000000000               0.000514861               0.005211804              -0.000105613              -0.000458401               0.001890051               0.001431650               0.000000000               0.000000000               0.000000000               0.000000000               0.000399559               0.005154843              -0.000097678              -0.000494520               0.001883104               0.001388584               0.000000000               0.000000000               0.000000000               0.000000000               0.000287440               0.005099492              -0.000088068              -0.000529645               0.001876362               0.001346717               0.000000000               0.000000000               0.000000000               0.000000000               0.000179599               0.005040612              -0.000071780              -0.000562725               0.001867762               0.001305037               0.000000000               0.000000000               0.000000000               0.000000000               0.000084239               0.004972433              -0.000043423              -0.000589963               0.001854115               0.001264152               0.000000000               0.000000000               0.000000000               0.000000000               0.000036965               0.004922286              -0.000026556              -0.000601422               0.001841220               0.001239797               0.000000000               0.000000000               0.000000000               0.000000000               0.001246870               0.010915456               0.001612781              -0.000896854               0.003937400               0.003040546               0.000000000               0.000000000               0.000000000               0.000000000               0.001140815               0.008991368               0.000961125              -0.000696114               0.003229131               0.002533017               0.000000000               0.000000000               0.000000000               0.000000000               0.001366344               0.007521897               0.000301242              -0.000427857               0.002649893               0.002222036               0.000000000               0.000000000               0.000000000               0.000000000               0.001327979               0.006711120               0.000013247              -0.000340897               0.002350650               0.002009753               0.000000000               0.000000000               0.000000000               0.000000000               0.001214584               0.006219264              -0.000112255              -0.000321938               0.002180380               0.001858442               0.000000000               0.000000000               0.000000000               0.000000000               0.001083615               0.005901283              -0.000165960              -0.000331304               0.002077509               0.001746205               0.000000000               0.000000000               0.000000000               0.000000000               0.000956132               0.005685849              -0.000189094              -0.000352181               0.002012658               0.001660477               0.000000000               0.000000000               0.000000000               0.000000000               0.000834767               0.005533007              -0.000194617              -0.000378587               0.001970513               0.001591925               0.000000000               0.000000000               0.000000000               0.000000000               0.000717892               0.005415927              -0.000189054              -0.000407780               0.001941218               0.001533437               0.000000000               0.000000000               0.000000000               0.000000000               0.000610259               0.005325057              -0.000179126              -0.000436784               0.001920596               0.001483812               0.000000000               0.000000000               0.000000000               0.000000000               0.000508233               0.005253405              -0.000169039              -0.000466087               0.001906480               0.001440393               0.000000000               0.000000000               0.000000000               0.000000000               0.000406169               0.005194800              -0.000157535              -0.000497035               0.001897261               0.001400226               0.000000000               0.000000000               0.000000000               0.000000000               0.000309217               0.005145749              -0.000143775              -0.000527261               0.001890986               0.001363725               0.000000000               0.000000000               0.000000000               0.000000000               0.000217847               0.005100900              -0.000127012              -0.000555919               0.001885589               0.001329670               0.000000000               0.000000000               0.000000000               0.000000000               0.000132005               0.005056279              -0.000101053              -0.000582532               0.001879587               0.001297055               0.000000000               0.000000000               0.000000000               0.000000000               0.000060533               0.005012793              -0.000058281              -0.000603898               0.001872214               0.001268316               0.000000000               0.000000000               0.000000000               0.000000000               0.000028296               0.004987220              -0.000032753              -0.000612790               0.001866654               0.001253863               0.000000000               0.000000000               0.000000000               0.000000000               0.001431705               0.009974384               0.002190920              -0.000709908               0.003561397               0.002851489               0.000000000               0.000000000               0.000000000               0.000000000               0.001132311               0.008363329               0.001319727              -0.000620799               0.002994681               0.002373882               0.000000000               0.000000000               0.000000000               0.000000000               0.001150116               0.007207127               0.000446680              -0.000469596               0.002558884               0.002089287               0.000000000               0.000000000               0.000000000               0.000000000               0.001041670               0.006546781               0.000078161              -0.000427720               0.002324812               0.001897092               0.000000000               0.000000000               0.000000000               0.000000000               0.000919243               0.006131425              -0.000082197              -0.000421711               0.002184358               0.001762647               0.000000000               0.000000000               0.000000000               0.000000000               0.000802333               0.005852292              -0.000152582              -0.000430661               0.002094298               0.001663637               0.000000000               0.000000000               0.000000000               0.000000000               0.000694718               0.005652456              -0.000182587              -0.000446036               0.002032812               0.001586775               0.000000000               0.000000000               0.000000000               0.000000000               0.000597684               0.005501977              -0.000189815              -0.000463614               0.001988512               0.001524898               0.000000000               0.000000000               0.000000000               0.000000000               0.000508964               0.005384269              -0.000184455              -0.000482171               0.001955462               0.001473291               0.000000000               0.000000000               0.000000000               0.000000000               0.000428464               0.005292589              -0.000175292              -0.000500899               0.001931145               0.001430246               0.000000000               0.000000000               0.000000000               0.000000000               0.000351722               0.005221526              -0.000167256              -0.000520794               0.001914089               0.001393295               0.000000000               0.000000000               0.000000000               0.000000000               0.000274211               0.005166495              -0.000158600              -0.000542981               0.001903141               0.001360160               0.000000000               0.000000000               0.000000000               0.000000000               0.000202237               0.005122914              -0.000145750              -0.000564524               0.001895795               0.001331271               0.000000000               0.000000000               0.000000000               0.000000000               0.000139149               0.005086143              -0.000127530              -0.000583585               0.001889892               0.001306307               0.000000000               0.000000000               0.000000000               0.000000000               0.000082439               0.005052660              -0.000099245              -0.000600666               0.001884425               0.001283759               0.000000000               0.000000000               0.000000000               0.000000000               0.000035577               0.005023966              -0.000055887              -0.000614653               0.001879523               0.001264870               0.000000000               0.000000000               0.000000000               0.000000000               0.000015781               0.005012067              -0.000030520              -0.000620589               0.001877535               0.001256946               0.000000000               0.000000000               0.000000000               0.000000000               0.001603336               0.008818409               0.002553687              -0.000501051               0.003106457               0.002605406               0.000000000               0.000000000               0.000000000               0.000000000               0.001093049               0.007604058               0.001569672              -0.000540614               0.002714865               0.002174251               0.000000000               0.000000000               0.000000000               0.000000000               0.000886071               0.006832158               0.000590546              -0.000521742               0.002451277               0.001929535               0.000000000               0.000000000               0.000000000               0.000000000               0.000721997               0.006344051               0.000186378              -0.000522256               0.002288748               0.001766492               0.000000000               0.000000000               0.000000000               0.000000000               0.000606159               0.006011248               0.000007749              -0.000524095               0.002178428               0.001654332               0.000000000               0.000000000               0.000000000               0.000000000               0.000512173               0.005772772              -0.000072146              -0.000529530               0.002100748               0.001571218               0.000000000               0.000000000               0.000000000               0.000000000               0.000430979               0.005591880              -0.000106965              -0.000537367               0.002043063               0.001505697               0.000000000               0.000000000               0.000000000               0.000000000               0.000365503               0.005451046              -0.000118992              -0.000544316               0.001998436               0.001454120               0.000000000               0.000000000               0.000000000               0.000000000               0.000308654               0.005336759              -0.000118957              -0.000551348               0.001962684               0.001411336               0.000000000               0.000000000               0.000000000               0.000000000               0.000257845               0.005242724              -0.000118409              -0.000558647               0.001933773               0.001375126               0.000000000               0.000000000               0.000000000               0.000000000               0.000210734               0.005171330              -0.000121894              -0.000567390               0.001912889               0.001345500               0.000000000               0.000000000               0.000000000               0.000000000               0.000161889               0.005114934              -0.000122970              -0.000578657               0.001897847               0.001319190               0.000000000               0.000000000               0.000000000               0.000000000               0.000115631               0.005066386              -0.000117188              -0.000589935               0.001885424               0.001295488               0.000000000               0.000000000               0.000000000               0.000000000               0.000078125               0.005025763              -0.000103929              -0.000598922               0.001874878               0.001275956               0.000000000               0.000000000               0.000000000               0.000000000               0.000048367               0.004990199              -0.000079119              -0.000605636               0.001865262               0.001259626               0.000000000               0.000000000               0.000000000               0.000000000               0.000022344               0.004963193              -0.000042957              -0.000612019               0.001858387               0.001246369               0.000000000               0.000000000               0.000000000               0.000000000               0.000010349               0.004953541              -0.000022922              -0.000615310               0.001856267               0.001240957               0.000000000               0.000000000               0.000000000               0.000000000               0.001703939               0.007567760               0.002697642              -0.000306995               0.002624892               0.002317897               0.000000000               0.000000000               0.000000000               0.000000000               0.001014022               0.006792612               0.001710939              -0.000468818               0.002420454               0.001951635               0.000000000               0.000000000               0.000000000               0.000000000               0.000610388               0.006427628               0.000729933              -0.000574557               0.002334040               0.001759483               0.000000000               0.000000000               0.000000000               0.000000000               0.000416916               0.006107262               0.000329170              -0.000607063               0.002238088               0.001631025               0.000000000               0.000000000               0.000000000               0.000000000               0.000320323               0.005849410               0.000145072              -0.000611054               0.002153468               0.001542415               0.000000000               0.000000000               0.000000000               0.000000000               0.000259814               0.005651333               0.000058321              -0.000608985               0.002086754               0.001477769               0.000000000               0.000000000               0.000000000               0.000000000               0.000212847               0.005492455               0.000016100              -0.000606738               0.002033046               0.001426308               0.000000000               0.000000000               0.000000000               0.000000000               0.000181061               0.005360293              -0.000006361              -0.000602137               0.001987459               0.001385322               0.000000000               0.000000000               0.000000000               0.000000000               0.000155684               0.005246872              -0.000018638              -0.000597476               0.001948098               0.001350623               0.000000000               0.000000000               0.000000000               0.000000000               0.000134057               0.005156238              -0.000032546              -0.000594257               0.001916814               0.001322558               0.000000000               0.000000000               0.000000000               0.000000000               0.000112454               0.005083393              -0.000050958              -0.000593253               0.001892198               0.001298946               0.000000000               0.000000000               0.000000000               0.000000000               0.000085026               0.005017494              -0.000062546              -0.000595301               0.001870915               0.001275614               0.000000000               0.000000000               0.000000000               0.000000000               0.000059464               0.004956424              -0.000064940              -0.000597252               0.001851209               0.001253957               0.000000000               0.000000000               0.000000000               0.000000000               0.000040279               0.004899918              -0.000058463              -0.000597384               0.001832417               0.001235034               0.000000000               0.000000000               0.000000000               0.000000000               0.000026317               0.004848601              -0.000042101              -0.000596205               0.001814919               0.001218715               0.000000000               0.000000000               0.000000000               0.000000000               0.000014697               0.004807472              -0.000020232              -0.000595421               0.001800948               0.001205527               0.000000000               0.000000000               0.000000000               0.000000000               0.000006782               0.004786075              -0.000009726              -0.000595715               0.001793914               0.001198199               0.000000000               0.000000000               0.000000000               0.000000000               0.001698849               0.006312881               0.002648939              -0.000152045               0.002154953               0.002002909               0.000000000               0.000000000               0.000000000               0.000000000               0.000896785               0.005988043               0.001760965              -0.000412212               0.002133398               0.001721186               0.000000000               0.000000000               0.000000000               0.000000000               0.000355723               0.006007398               0.000868431              -0.000617528               0.002208289               0.001590761               0.000000000               0.000000000               0.000000000               0.000000000               0.000168688               0.005834341               0.000498421              -0.000666033               0.002166772               0.001500739               0.000000000               0.000000000               0.000000000               0.000000000               0.000103379               0.005646953               0.000313602              -0.000667100               0.002104665               0.001437565               0.000000000               0.000000000               0.000000000               0.000000000               0.000078744               0.005487481               0.000213464              -0.000656405               0.002047943               0.001391539               0.000000000               0.000000000               0.000000000               0.000000000               0.000066034               0.005348376               0.000155708              -0.000643783               0.001997368               0.001353586               0.000000000               0.000000000               0.000000000               0.000000000               0.000061405               0.005223130               0.000116911              -0.000629863               0.001950980               0.001321117               0.000000000               0.000000000               0.000000000               0.000000000               0.000060550               0.005115650               0.000085725              -0.000616749               0.001910783               0.001294034               0.000000000               0.000000000               0.000000000               0.000000000               0.000057939               0.005027014               0.000054781              -0.000606648               0.001877871               0.001271223               0.000000000               0.000000000               0.000000000               0.000000000               0.000049398               0.004945907               0.000024408              -0.000599713               0.001848523               0.001248811               0.000000000               0.000000000               0.000000000               0.000000000               0.000036044               0.004866887               0.000001982              -0.000594843               0.001820560               0.001225717               0.000000000               0.000000000               0.000000000               0.000000000               0.000022707               0.004789290              -0.000010100              -0.000590145               0.001793129               0.001202984               0.000000000               0.000000000               0.000000000               0.000000000               0.000013650               0.004714909              -0.000013979              -0.000584244               0.001766369               0.001182125               0.000000000               0.000000000               0.000000000               0.000000000               0.000007728               0.004648158              -0.000010475              -0.000578120               0.001742077               0.001163957               0.000000000               0.000000000               0.000000000               0.000000000               0.000001897               0.004587379              -0.000004650              -0.000572710               0.001720014               0.001147305               0.000000000               0.000000000               0.000000000               0.000000000              -0.000006653               0.004548423              -0.000005538              -0.000571046               0.001706475               0.001135428               0.000000000               0.000000000               0.000000000               0.000000000               0.001596453               0.005124215               0.002444234              -0.000041860               0.001722007               0.001680147               0.000000000               0.000000000               0.000000000               0.000000000               0.000755186               0.005229461               0.001742481              -0.000370489               0.001866632               0.001496143               0.000000000               0.000000000               0.000000000               0.000000000               0.000149707               0.005574147               0.001008732              -0.000640627               0.002071573               0.001430945               0.000000000               0.000000000               0.000000000               0.000000000              -0.000002495               0.005528629               0.000673475              -0.000692013               0.002073529               0.001381516               0.000000000               0.000000000               0.000000000               0.000000000              -0.000030841               0.005414138               0.000481604              -0.000688331               0.002034138               0.001345807               0.000000000               0.000000000               0.000000000               0.000000000              -0.000026569               0.005293176               0.000360417              -0.000671609               0.001988244               0.001316635               0.000000000               0.000000000               0.000000000               0.000000000              -0.000011963               0.005173017               0.000282095              -0.000651112               0.001941359               0.001290247               0.000000000               0.000000000               0.000000000               0.000000000               0.000002789               0.005057874               0.000223464              -0.000631187               0.001896337               0.001265150               0.000000000               0.000000000               0.000000000               0.000000000               0.000012527               0.004956275               0.000173471              -0.000614835               0.001857020               0.001242185               0.000000000               0.000000000               0.000000000               0.000000000               0.000011890               0.004863103               0.000127402              -0.000603428               0.001822161               0.001218733               0.000000000               0.000000000               0.000000000               0.000000000               0.000005052               0.004771851               0.000084609              -0.000594586               0.001788796               0.001194211               0.000000000               0.000000000               0.000000000               0.000000000              -0.000002840               0.004679623               0.000049885              -0.000586016               0.001755198               0.001169181               0.000000000               0.000000000               0.000000000               0.000000000              -0.000009573               0.004588787               0.000025964              -0.000577187               0.001721976               0.001144789               0.000000000               0.000000000               0.000000000               0.000000000              -0.000013767               0.004502361               0.000008757              -0.000567956               0.001690091               0.001122134               0.000000000               0.000000000               0.000000000               0.000000000              -0.000013831               0.004423023              -0.000000624              -0.000558063               0.001660347               0.001102284               0.000000000               0.000000000               0.000000000               0.000000000              -0.000011063               0.004350268              -0.000003794              -0.000547931               0.001632718               0.001084788               0.000000000               0.000000000               0.000000000               0.000000000              -0.000015306               0.004302564              -0.000009257              -0.000543559               0.001615360               0.001071801               0.000000000               0.000000000               0.000000000               0.000000000               0.001429425               0.004093153               0.002141532               0.000024387               0.001356241               0.001380628               0.000000000               0.000000000               0.000000000               0.000000000               0.000630022               0.004545220               0.001693623              -0.000331895               0.001625689               0.001293794               0.000000000               0.000000000               0.000000000               0.000000000               0.000019154               0.005157759               0.001163806              -0.000637536               0.001931748               0.001294212               0.000000000               0.000000000               0.000000000               0.000000000              -0.000094623               0.005247103               0.000850714              -0.000691370               0.001979473               0.001288103               0.000000000               0.000000000               0.000000000               0.000000000              -0.000096550               0.005212977               0.000647134              -0.000687827               0.001966917               0.001279090               0.000000000               0.000000000               0.000000000               0.000000000              -0.000071268               0.005132737               0.000506835              -0.000668316               0.001933667               0.001265351               0.000000000               0.000000000               0.000000000               0.000000000              -0.000038563               0.005030798               0.000407241              -0.000643309               0.001891352               0.001248043               0.000000000               0.000000000               0.000000000               0.000000000              -0.000012285               0.004925956               0.000328012              -0.000620350               0.001848752               0.001228402               0.000000000               0.000000000               0.000000000               0.000000000               0.000002386               0.004831889               0.000258858              -0.000603090               0.001811643               0.001208554               0.000000000               0.000000000               0.000000000               0.000000000              -0.000001793               0.004740251               0.000197867              -0.000593202               0.001777802               0.001184600               0.000000000               0.000000000               0.000000000               0.000000000              -0.000012737               0.004647004               0.000145672              -0.000585650               0.001744203               0.001158552               0.000000000               0.000000000               0.000000000               0.000000000              -0.000020401               0.004551109               0.000099759              -0.000576538               0.001709200               0.001132663               0.000000000               0.000000000               0.000000000               0.000000000              -0.000028054               0.004451960               0.000062077              -0.000567014               0.001672976               0.001105962               0.000000000               0.000000000               0.000000000               0.000000000              -0.000037861               0.004352708               0.000032161              -0.000558285               0.001636983               0.001078698               0.000000000               0.000000000               0.000000000               0.000000000              -0.000047751               0.004256269               0.000010183              -0.000549939               0.001602055               0.001052116               0.000000000               0.000000000               0.000000000               0.000000000              -0.000055235               0.004166344              -0.000001353              -0.000541505               0.001569269               0.001027764               0.000000000               0.000000000               0.000000000               0.000000000              -0.000057422               0.004116856              -0.000006044              -0.000536139               0.001550985               0.001014846               0.000000000               0.000000000               0.000000000               0.000000000               0.001187305               0.003102464               0.001798141               0.000057428               0.001015001               0.001072429               0.000000000               0.000000000               0.000000000               0.000000000               0.000550270               0.003755224               0.001630736              -0.000263053               0.001339412               0.001076360               0.000000000               0.000000000               0.000000000               0.000000000              -0.000013786               0.004564806               0.001335720              -0.000575770               0.001713510               0.001137740               0.000000000               0.000000000               0.000000000               0.000000000              -0.000115175               0.004825189               0.001053130              -0.000646338               0.001823826               0.001177488               0.000000000               0.000000000               0.000000000               0.000000000              -0.000106631               0.004897710               0.000843144              -0.000652199               0.001849953               0.001197754               0.000000000               0.000000000               0.000000000               0.000000000              -0.000075423               0.004890367               0.000687512              -0.000639578               0.001843299               0.001203720               0.000000000               0.000000000               0.000000000               0.000000000              -0.000039182               0.004838805               0.000563786              -0.000619542               0.001819433               0.001199890               0.000000000               0.000000000               0.000000000               0.000000000              -0.000010877               0.004768418               0.000460066              -0.000600130               0.001789500               0.001189370               0.000000000               0.000000000               0.000000000               0.000000000               0.000001975               0.004697355               0.000369137              -0.000586428               0.001761245               0.001174818               0.000000000               0.000000000               0.000000000               0.000000000              -0.000002342               0.004622311               0.000292389              -0.000578666               0.001733644               0.001154978               0.000000000               0.000000000               0.000000000               0.000000000              -0.000016789               0.004547146               0.000230324              -0.000574688               0.001707263               0.001132575               0.000000000               0.000000000               0.000000000               0.000000000              -0.000031942               0.004466301               0.000175014              -0.000570265               0.001678840               0.001108576               0.000000000               0.000000000               0.000000000               0.000000000              -0.000046927               0.004375924               0.000123646              -0.000564587               0.001646822               0.001082236               0.000000000               0.000000000               0.000000000               0.000000000              -0.000067793               0.004279364               0.000076269              -0.000560341               0.001613221               0.001052879               0.000000000               0.000000000               0.000000000               0.000000000              -0.000093647               0.004181787               0.000036423              -0.000557840               0.001579862               0.001022022               0.000000000               0.000000000               0.000000000               0.000000000              -0.000122395               0.004086666               0.000009222              -0.000556730               0.001547785               0.000991055               0.000000000               0.000000000               0.000000000               0.000000000              -0.000137438               0.004037694              -0.000001188              -0.000556250               0.001531301               0.000975051               0.000000000               0.000000000               0.000000000               0.000000000               0.000824852               0.002186599               0.001421312               0.000035993               0.000716861               0.000752853               0.000000000               0.000000000               0.000000000               0.000000000               0.000459923               0.002965452               0.001516651              -0.000198212               0.001054544               0.000856332               0.000000000               0.000000000               0.000000000               0.000000000               0.000019970               0.003898078               0.001462647              -0.000479771               0.001459270               0.000979498               0.000000000               0.000000000               0.000000000               0.000000000              -0.000074246               0.004316047               0.001245256              -0.000567348               0.001627783               0.001060436               0.000000000               0.000000000               0.000000000               0.000000000              -0.000064252               0.004511569               0.001043918              -0.000588040               0.001699854               0.001111814               0.000000000               0.000000000               0.000000000               0.000000000              -0.000038868               0.004596822               0.000879663              -0.000589177               0.001728651               0.001139474               0.000000000               0.000000000               0.000000000               0.000000000              -0.000012915               0.004616651               0.000741219              -0.000581923               0.001732843               0.001150919               0.000000000               0.000000000               0.000000000               0.000000000               0.000012935               0.004600736               0.000618751              -0.000570240               0.001723643               0.001153403               0.000000000               0.000000000               0.000000000               0.000000000               0.000026272               0.004564311               0.000509837              -0.000560686               0.001708317               0.001147631               0.000000000               0.000000000               0.000000000               0.000000000               0.000027264               0.004519521               0.000419488              -0.000554715               0.001691397               0.001136682               0.000000000               0.000000000               0.000000000               0.000000000               0.000015462               0.004468965               0.000346238              -0.000552821               0.001673914               0.001121093               0.000000000               0.000000000               0.000000000               0.000000000              -0.000004603               0.004407147               0.000283037              -0.000552618               0.001653240               0.001100622               0.000000000               0.000000000               0.000000000               0.000000000              -0.000029393               0.004332160               0.000219849              -0.000552541               0.001628219               0.001075678               0.000000000               0.000000000               0.000000000               0.000000000              -0.000062673               0.004246448               0.000154973              -0.000554307               0.001600237               0.001045930               0.000000000               0.000000000               0.000000000               0.000000000              -0.000108464               0.004155561               0.000093528              -0.000560118               0.001571879               0.001011761               0.000000000               0.000000000               0.000000000               0.000000000              -0.000165157               0.004070459               0.000039789              -0.000570740               0.001547053               0.000976313               0.000000000               0.000000000               0.000000000               0.000000000              -0.000207446               0.004023479               0.000010672              -0.000580726               0.001534721               0.000953996               0.000000000               0.000000000               0.000000000               0.000000000               0.000356565               0.001405024               0.001028396              -0.000041918               0.000482308               0.000440391               0.000000000               0.000000000               0.000000000               0.000000000               0.000316102               0.002213580               0.001329015              -0.000158161               0.000790572               0.000632412               0.000000000               0.000000000               0.000000000               0.000000000               0.000087336               0.003163033               0.001484732              -0.000362629               0.001175209               0.000812581               0.000000000               0.000000000               0.000000000               0.000000000               0.000029170               0.003696939               0.001354727              -0.000451178               0.001382693               0.000931515               0.000000000               0.000000000               0.000000000               0.000000000               0.000037137               0.004009184               0.001181024              -0.000487221               0.001498788               0.001011567               0.000000000               0.000000000               0.000000000               0.000000000               0.000054430               0.004193946               0.001020704              -0.000503831               0.001565911               0.001062080               0.000000000               0.000000000               0.000000000               0.000000000               0.000069073               0.004297712               0.000880504              -0.000511311               0.001602993               0.001091682               0.000000000               0.000000000               0.000000000               0.000000000               0.000083476               0.004345149               0.000753615              -0.000511839               0.001618981               0.001107142               0.000000000               0.000000000               0.000000000               0.000000000               0.000092989               0.004358346               0.000638191              -0.000509921               0.001622741               0.001112820               0.000000000               0.000000000               0.000000000               0.000000000               0.000095281               0.004354413               0.000541173              -0.000508570               0.001620980               0.001112410               0.000000000               0.000000000               0.000000000               0.000000000               0.000087677               0.004337474               0.000460472              -0.000509304               0.001615578               0.001106274               0.000000000               0.000000000               0.000000000               0.000000000               0.000067668               0.004306860               0.000389851              -0.000512981               0.001606599               0.001093618               0.000000000               0.000000000               0.000000000               0.000000000               0.000036532               0.004258806               0.000318390              -0.000518650               0.001592471               0.001073821               0.000000000               0.000000000               0.000000000               0.000000000              -0.000004404               0.004196739               0.000240616              -0.000526243               0.001574313               0.001048071               0.000000000               0.000000000               0.000000000               0.000000000              -0.000061373               0.004125845               0.000159780              -0.000538744               0.001554849               0.001016105               0.000000000               0.000000000               0.000000000               0.000000000              -0.000137016               0.004057675               0.000078155              -0.000558589               0.001538741               0.000980152               0.000000000               0.000000000               0.000000000               0.000000000              -0.000199952               0.004012694               0.000029338              -0.000576567               0.001529741               0.000953173               0.000000000               0.000000000               0.000000000               0.000000000              -0.000174390               0.000796694               0.000662528              -0.000164983               0.000320556               0.000155573               0.000000000               0.000000000               0.000000000               0.000000000               0.000126682               0.001544022               0.001084255              -0.000145498               0.000563167               0.000417670               0.000000000               0.000000000               0.000000000               0.000000000               0.000164551               0.002422331               0.001387500              -0.000241086               0.000887797               0.000646711               0.000000000               0.000000000               0.000000000               0.000000000               0.000176398               0.003015916               0.001347042              -0.000310841               0.001108909               0.000798068               0.000000000               0.000000000               0.000000000               0.000000000               0.000192731               0.003421088               0.001214086              -0.000355362               0.001258805               0.000903443               0.000000000               0.000000000               0.000000000               0.000000000               0.000202615               0.003696726               0.001070565              -0.000386110               0.001360933               0.000974823               0.000000000               0.000000000               0.000000000               0.000000000               0.000204745               0.003883730               0.000939394              -0.000408686               0.001430792               0.001022106               0.000000000               0.000000000               0.000000000               0.000000000               0.000203475               0.004003446               0.000817724              -0.000424127               0.001475844               0.001051717               0.000000000               0.000000000               0.000000000               0.000000000               0.000202218               0.004075566               0.000708464              -0.000433613               0.001503046               0.001069433               0.000000000               0.000000000               0.000000000               0.000000000               0.000200123               0.004117895               0.000616639              -0.000439690               0.001519181               0.001079491               0.000000000               0.000000000               0.000000000               0.000000000               0.000195088               0.004143995               0.000537229              -0.000444841               0.001529598               0.001084757               0.000000000               0.000000000               0.000000000               0.000000000               0.000180521               0.004156274               0.000464436              -0.000451838               0.001536023               0.001084185               0.000000000               0.000000000               0.000000000               0.000000000               0.000151523               0.004146734               0.000390447              -0.000461520               0.001536071               0.001074551               0.000000000               0.000000000               0.000000000               0.000000000               0.000112805               0.004120858               0.000307784              -0.000472804               0.001531207               0.001058403               0.000000000               0.000000000               0.000000000               0.000000000               0.000063812               0.004085202               0.000215981              -0.000486720               0.001523960               0.001037241               0.000000000               0.000000000               0.000000000               0.000000000              -0.000005916               0.004041089               0.000112819              -0.000507353               0.001516134               0.001008781               0.000000000               0.000000000               0.000000000               0.000000000              -0.000066158               0.004005876               0.000051619              -0.000525542               0.001510460               0.000984917               0.000000000               0.000000000               0.000000000               0.000000000              -0.000707259               0.000373633               0.000369190              -0.000311926               0.000228518              -0.000083408               0.000000000               0.000000000               0.000000000               0.000000000              -0.000086199               0.000998001               0.000809428              -0.000157075               0.000385021               0.000227946               0.000000000               0.000000000               0.000000000               0.000000000               0.000233568               0.001741621               0.001166789              -0.000130116               0.000623906               0.000493790               0.000000000               0.000000000               0.000000000               0.000000000               0.000343795               0.002341571               0.001195192              -0.000163774               0.000835107               0.000671333               0.000000000               0.000000000               0.000000000               0.000000000               0.000381994               0.002804901               0.001110938              -0.000207365               0.001004079               0.000796714               0.000000000               0.000000000               0.000000000               0.000000000               0.000389090               0.003156650               0.000996039              -0.000248673               0.001135097               0.000886424               0.000000000               0.000000000               0.000000000               0.000000000               0.000376540               0.003420518               0.000883483              -0.000286362               0.001235615               0.000949253               0.000000000               0.000000000               0.000000000               0.000000000               0.000360001               0.003612383               0.000777958              -0.000316547               0.001309631               0.000993084               0.000000000               0.000000000               0.000000000               0.000000000               0.000345944               0.003745782               0.000683765              -0.000338493               0.001361413               0.001022919               0.000000000               0.000000000               0.000000000               0.000000000               0.000333955               0.003838486               0.000605803              -0.000354577               0.001397675               0.001043098               0.000000000               0.000000000               0.000000000               0.000000000               0.000326069               0.003910599               0.000538074              -0.000366548               0.001425703               0.001059154               0.000000000               0.000000000               0.000000000               0.000000000               0.000318223               0.003966833               0.000471731              -0.000376520               0.001447771               0.001071251               0.000000000               0.000000000               0.000000000               0.000000000               0.000301894               0.004001088               0.000402907              -0.000386925               0.001462657               0.001075733               0.000000000               0.000000000               0.000000000               0.000000000               0.000279765               0.004018455               0.000327179              -0.000397394               0.001471936               0.001074542               0.000000000               0.000000000               0.000000000               0.000000000               0.000254059               0.004023861               0.000236694              -0.000407710               0.001477177               0.001069467               0.000000000               0.000000000               0.000000000               0.000000000               0.000218650               0.004015381               0.000127439              -0.000419928               0.001478423               0.001058495               0.000000000               0.000000000               0.000000000               0.000000000               0.000187561               0.004001410               0.000065300              -0.000429840               0.001477070               0.001047230               0.000000000               0.000000000               0.000000000               0.000000000              -0.001174550               0.000102667               0.000173603              -0.000453289               0.000185317              -0.000267972               0.000000000               0.000000000               0.000000000               0.000000000              -0.000285677               0.000591287               0.000532269              -0.000181040               0.000257440               0.000076400               0.000000000               0.000000000               0.000000000               0.000000000               0.000282982               0.001187563               0.000840006              -0.000042328               0.000409959               0.000367631               0.000000000               0.000000000               0.000000000               0.000000000               0.000497320               0.001764688               0.000895256              -0.000034092               0.000599587               0.000565495               0.000000000               0.000000000               0.000000000               0.000000000               0.000566414               0.002257562               0.000853143              -0.000069791               0.000775777               0.000705986               0.000000000               0.000000000               0.000000000               0.000000000               0.000576950               0.002663166               0.000775788              -0.000116540               0.000926560               0.000810020               0.000000000               0.000000000               0.000000000               0.000000000               0.000557772               0.002985744               0.000694868              -0.000164054               0.001049923               0.000885869               0.000000000               0.000000000               0.000000000               0.000000000               0.000529337               0.003234902               0.000617659              -0.000205861               0.001146910               0.000941049               0.000000000               0.000000000               0.000000000               0.000000000               0.000501167               0.003423219               0.000546552              -0.000239965               0.001221050               0.000981085               0.000000000               0.000000000               0.000000000               0.000000000               0.000478448               0.003567898               0.000487796              -0.000266569               0.001278144               0.001011575               0.000000000               0.000000000               0.000000000               0.000000000               0.000461781               0.003684158               0.000437994              -0.000287351               0.001323824               0.001036473               0.000000000               0.000000000               0.000000000               0.000000000               0.000453958               0.003782652               0.000389217              -0.000302597               0.001361737               0.001059140               0.000000000               0.000000000               0.000000000               0.000000000               0.000452498               0.003860208               0.000337370              -0.000312839               0.001391003               0.001078164               0.000000000               0.000000000               0.000000000               0.000000000               0.000453720               0.003916046               0.000279291              -0.000319360               0.001411789               0.001092429               0.000000000               0.000000000               0.000000000               0.000000000               0.000460848               0.003958137               0.000206879              -0.000321948               0.001426682               0.001104734               0.000000000               0.000000000               0.000000000               0.000000000               0.000476433               0.003984906               0.000113292              -0.000319450               0.001434772               0.001115322               0.000000000               0.000000000               0.000000000               0.000000000               0.000489868               0.003993303               0.000060204              -0.000315462               0.001436241               0.001120780               0.000000000               0.000000000               0.000000000               0.000000000              -0.001495695              -0.000048377               0.000061452              -0.000554838               0.000168819              -0.000386019               0.000000000               0.000000000               0.000000000               0.000000000              -0.000428917               0.000336390               0.000262373              -0.000202892               0.000179759              -0.000023133               0.000000000               0.000000000               0.000000000               0.000000000               0.000311449               0.000822468               0.000439121               0.000013984               0.000269492               0.000283476               0.000000000               0.000000000               0.000000000               0.000000000               0.000601220               0.001375457               0.000479105               0.000053525               0.000440639               0.000494164               0.000000000               0.000000000               0.000000000               0.000000000               0.000698795               0.001880843               0.000464249               0.000026942               0.000617961               0.000644903               0.000000000               0.000000000               0.000000000               0.000000000               0.000716808               0.002313553               0.000426274              -0.000020392               0.000777974               0.000757582               0.000000000               0.000000000               0.000000000               0.000000000               0.000699841               0.002669360               0.000384194              -0.000071230               0.000913521               0.000842291               0.000000000               0.000000000               0.000000000               0.000000000               0.000665454               0.002956029               0.000342707              -0.000119958               0.001025319               0.000905361               0.000000000               0.000000000               0.000000000               0.000000000               0.000627799               0.003181629               0.000304301              -0.000162279               0.001114625               0.000952346               0.000000000               0.000000000               0.000000000               0.000000000               0.000594020               0.003362726               0.000272582              -0.000197583               0.001186758               0.000989175               0.000000000               0.000000000               0.000000000               0.000000000               0.000569312               0.003520413               0.000245194              -0.000226559               0.001248979               0.001022420               0.000000000               0.000000000               0.000000000               0.000000000               0.000556703               0.003658786               0.000220405              -0.000248584               0.001302445               0.001053860               0.000000000               0.000000000               0.000000000               0.000000000               0.000559470               0.003774492               0.000194064              -0.000262009               0.001345488               0.001083478               0.000000000               0.000000000               0.000000000               0.000000000               0.000579532               0.003864760               0.000163153              -0.000265770               0.001376830               0.001111061               0.000000000               0.000000000               0.000000000               0.000000000               0.000620765               0.003928731               0.000123879              -0.000258304               0.001395665               0.001137361               0.000000000               0.000000000               0.000000000               0.000000000               0.000690692               0.003968437               0.000069450              -0.000237045               0.001401814               0.001164769               0.000000000               0.000000000               0.000000000               0.000000000               0.000756326               0.003989719               0.000038133              -0.000215092               0.001401591               0.001186498               0.000000000               0.000000000               0.000000000               0.000000000               0.000000000               0.000000000               0.000000000               0.000000000               0.000000000               0.000000000               0.000000000               0.000000000               0.000000000               0.000000000               0.000000000               0.000000000               0.000000000               0.000000000               0.000000000               0.000000000               0.000000000               0.000000000               0.000000000               0.000000000               0.000000000               0.000000000               0.000000000               0.000000000               0.000000000               0.000000000               0.000000000               0.000000000               0.000000000               0.000000000               0.000000000               0.000000000               0.000000000               0.000000000               0.000000000               0.000000000               0.000000000               0.000000000               0.000000000               0.000000000               0.000000000               0.000000000               0.000000000               0.000000000               0.000000000               0.000000000               0.000000000               0.000000000               0.000000000               0.000000000               0.000000000               0.000000000               0.000000000               0.000000000               0.000000000               0.000000000               0.000000000               0.000000000               0.000000000               0.000000000               0.000000000               0.000000000               0.000000000               0.000000000               0.000000000               0.000000000               0.000000000               0.000000000               0.000000000               0.000000000               0.000000000               0.000000000               0.000000000               0.000000000               0.000000000               0.000000000               0.000000000               0.000000000               0.000000000               0.000000000               0.000000000               0.000000000               0.000000000               0.000000000               0.000000000               0.000000000               0.000000000               0.000000000               0.000000000               0.000000000               0.000000000               0.000000000               0.000000000               0.000000000               0.000000000               0.000000000               0.000000000               0.000000000               0.000000000               0.000000000               0.000000000               0.000000000               0.000000000               0.000000000               0.000000000               0.000000000               0.000000000               0.000000000               0.000000000               0.000000000               0.000000000               0.000000000               0.000000000               0.000000000               0.000000000               0.000000000               0.000000000               0.000000000               0.000000000               0.000000000               0.000000000               0.000000000               0.000000000               0.000000000               0.000000000               0.000000000               0.000000000               0.000000000               0.000000000               0.000000000               0.000000000               0.000000000               0.000000000               0.000000000               0.000000000               0.000000000               0.000000000               0.000000000               0.000000000               0.000000000               0.000000000               0.000000000               0.000000000               0.000000000               0.000000000               0.000000000               0.000000000               0.000000000               0.000000000               0.000000000               0.000000000               0.000000000               0.000000000               0.000000000               0.000000000               0.000000000               0.000000000               0.000000000               0.000000000               0.000000000               0.000000000               0.000000000               0.000000000               0.000000000               0.000000000               0.000000000               0.000000000               0.000000000               0.000000000               0.000000000 </DataArray>
</PointData>
</Piece>
</UnstructuredGrid> </VTKFile>
