<?xml version="1.0"?>
<VTKFile type="UnstructuredGrid" version="0.1">
<UnstructuredGrid>
<Piece NumberOfPoints="      1156" NumberOfCells="      1024">
<Points>
<DataArray type="Float64"                                    Name="coordinates"                                                      NumberOfComponents=" 3" format="ascii">
              0.133000000               0.000000000               0.000000000               0.155937500               0.000000000               0.000000000               0.178875000               0.000000000               0.000000000               0.201812500               0.000000000               0.000000000               0.224750000               0.000000000               0.000000000               0.247687500               0.000000000               0.000000000               0.270625000               0.000000000               0.000000000               0.293562500               0.000000000               0.000000000               0.316500000               0.000000000               0.000000000               0.339437500               0.000000000               0.000000000               0.362375000               0.000000000               0.000000000               0.385312500               0.000000000               0.000000000               0.408250000               0.000000000               0.000000000               0.431187500               0.000000000               0.000000000               0.454125000               0.000000000               0.000000000               0.477062500               0.000000000               0.000000000               0.500000000               0.000000000               0.000000000               0.132359569               0.013036280               0.000000000               0.155337096               0.016127762               0.000000000               0.178314623               0.019219245               0.000000000               0.201292150               0.022310727               0.000000000               0.224269676               0.025402210               0.000000000               0.247247203               0.028493692               0.000000000               0.270224730               0.031585175               0.000000000               0.293202257               0.034676657               0.000000000               0.316179784               0.037768140               0.000000000               0.339157311               0.040859622               0.000000000               0.362134838               0.043951105               0.000000000               0.385112365               0.047042587               0.000000000               0.408089892               0.050134070               0.000000000               0.431067419               0.053225552               0.000000000               0.454044946               0.056317035               0.000000000               0.477022473               0.059408517               0.000000000               0.500000000               0.062500000               0.000000000               0.130444442               0.025947013               0.000000000               0.153541665               0.032137825               0.000000000               0.176638887               0.038328636               0.000000000               0.199736109               0.044519448               0.000000000               0.222833332               0.050710260               0.000000000               0.245930554               0.056901071               0.000000000               0.269027776               0.063091883               0.000000000               0.292124999               0.069282695               0.000000000               0.315222221               0.075473506               0.000000000               0.338319444               0.081664318               0.000000000               0.361416666               0.087855130               0.000000000               0.384513888               0.094045942               0.000000000               0.407611111               0.100236753               0.000000000               0.430708333               0.106427565               0.000000000               0.453805555               0.112618377               0.000000000               0.476902778               0.118809188               0.000000000               0.500000000               0.125000000               0.000000000               0.127273065               0.038607862               0.000000000               0.150568498               0.047913621               0.000000000               0.173863932               0.057219379               0.000000000               0.197159365               0.066525138               0.000000000               0.220454798               0.075830897               0.000000000               0.243750232               0.085136655               0.000000000               0.267045665               0.094442414               0.000000000               0.290341099               0.103748172               0.000000000               0.313636532               0.113053931               0.000000000               0.336931966               0.122359690               0.000000000               0.360227399               0.131665448               0.000000000               0.383522833               0.140971207               0.000000000               0.406818266               0.150276966               0.000000000               0.430113700               0.159582724               0.000000000               0.453409133               0.168888483               0.000000000               0.476704567               0.178194241               0.000000000               0.500000000               0.187500000               0.000000000               0.122875978               0.050896897               0.000000000               0.146446229               0.063340840               0.000000000               0.170016481               0.075784784               0.000000000               0.193586732               0.088228728               0.000000000               0.217156983               0.100672672               0.000000000               0.240727235               0.113116616               0.000000000               0.264297486               0.125560560               0.000000000               0.287867738               0.138004504               0.000000000               0.311437989               0.150448448               0.000000000               0.335008240               0.162892392               0.000000000               0.358578492               0.175336336               0.000000000               0.382148743               0.187780280               0.000000000               0.405718994               0.200224224               0.000000000               0.429289246               0.212668168               0.000000000               0.452859497               0.225112112               0.000000000               0.476429749               0.237556056               0.000000000               0.500000000               0.250000000               0.000000000               0.117295528               0.062695766               0.000000000               0.141214558               0.078308531               0.000000000               0.165133587               0.093921295               0.000000000               0.189052617               0.109534060               0.000000000               0.212971646               0.125146824               0.000000000               0.236890676               0.140759589               0.000000000               0.260809705               0.156372354               0.000000000               0.284728735               0.171985118               0.000000000               0.308647764               0.187597883               0.000000000               0.332566794               0.203210648               0.000000000               0.356485823               0.218823412               0.000000000               0.380404853               0.234436177               0.000000000               0.404323882               0.250048941               0.000000000               0.428242912               0.265661706               0.000000000               0.452161941               0.281274471               0.000000000               0.476080971               0.296887235               0.000000000               0.500000000               0.312500000               0.000000000               0.110585458               0.073890841               0.000000000               0.134923867               0.092710163               0.000000000               0.159262276               0.111529486               0.000000000               0.183600685               0.130348808               0.000000000               0.207939094               0.149168131               0.000000000               0.232277503               0.167987453               0.000000000               0.256615912               0.186806776               0.000000000               0.280954320               0.205626098               0.000000000               0.305292729               0.224445420               0.000000000               0.329631138               0.243264743               0.000000000               0.353969547               0.262084065               0.000000000               0.378307956               0.280903388               0.000000000               0.402646365               0.299722710               0.000000000               0.426984773               0.318542033               0.000000000               0.451323182               0.337361355               0.000000000               0.475661591               0.356180678               0.000000000               0.500000000               0.375000000               0.000000000               0.102810390               0.084374307               0.000000000               0.127634741               0.106444663               0.000000000               0.152459092               0.128515018               0.000000000               0.177283442               0.150585374               0.000000000               0.202107793               0.172655730               0.000000000               0.226932143               0.194726086               0.000000000               0.251756494               0.216796442               0.000000000               0.276580845               0.238866798               0.000000000               0.301405195               0.260937153               0.000000000               0.326229546               0.283007509               0.000000000               0.351053896               0.305077865               0.000000000               0.375878247               0.327148221               0.000000000               0.400702598               0.349218577               0.000000000               0.425526948               0.371288933               0.000000000               0.450351299               0.393359288               0.000000000               0.475175649               0.415429644               0.000000000               0.500000000               0.437500000               0.000000000               0.094045202               0.094045202               0.000000000               0.119417377               0.119417377               0.000000000               0.144789552               0.144789552               0.000000000               0.170161727               0.170161727               0.000000000               0.195533901               0.195533901               0.000000000               0.220906076               0.220906076               0.000000000               0.246278251               0.246278251               0.000000000               0.271650426               0.271650426               0.000000000               0.297022601               0.297022601               0.000000000               0.322394776               0.322394776               0.000000000               0.347766951               0.347766951               0.000000000               0.373139126               0.373139126               0.000000000               0.398511300               0.398511300               0.000000000               0.423883475               0.423883475               0.000000000               0.449255650               0.449255650               0.000000000               0.474627825               0.474627825               0.000000000               0.500000000               0.500000000               0.000000000               0.084374307               0.102810390               0.000000000               0.106444663               0.127634741               0.000000000               0.128515018               0.152459092               0.000000000               0.150585374               0.177283442               0.000000000               0.172655730               0.202107793               0.000000000               0.194726086               0.226932143               0.000000000               0.216796442               0.251756494               0.000000000               0.238866798               0.276580845               0.000000000               0.260937153               0.301405195               0.000000000               0.283007509               0.326229546               0.000000000               0.305077865               0.351053896               0.000000000               0.327148221               0.375878247               0.000000000               0.349218577               0.400702598               0.000000000               0.371288933               0.425526948               0.000000000               0.393359288               0.450351299               0.000000000               0.415429644               0.475175649               0.000000000               0.437500000               0.500000000               0.000000000               0.073890841               0.110585458               0.000000000               0.092710163               0.134923867               0.000000000               0.111529486               0.159262276               0.000000000               0.130348808               0.183600685               0.000000000               0.149168131               0.207939094               0.000000000               0.167987453               0.232277503               0.000000000               0.186806776               0.256615912               0.000000000               0.205626098               0.280954320               0.000000000               0.224445420               0.305292729               0.000000000               0.243264743               0.329631138               0.000000000               0.262084065               0.353969547               0.000000000               0.280903388               0.378307956               0.000000000               0.299722710               0.402646365               0.000000000               0.318542033               0.426984773               0.000000000               0.337361355               0.451323182               0.000000000               0.356180678               0.475661591               0.000000000               0.375000000               0.500000000               0.000000000               0.062695766               0.117295528               0.000000000               0.078308531               0.141214558               0.000000000               0.093921295               0.165133587               0.000000000               0.109534060               0.189052617               0.000000000               0.125146824               0.212971646               0.000000000               0.140759589               0.236890676               0.000000000               0.156372354               0.260809705               0.000000000               0.171985118               0.284728735               0.000000000               0.187597883               0.308647764               0.000000000               0.203210648               0.332566794               0.000000000               0.218823412               0.356485823               0.000000000               0.234436177               0.380404853               0.000000000               0.250048941               0.404323882               0.000000000               0.265661706               0.428242912               0.000000000               0.281274471               0.452161941               0.000000000               0.296887235               0.476080971               0.000000000               0.312500000               0.500000000               0.000000000               0.050896897               0.122875978               0.000000000               0.063340840               0.146446229               0.000000000               0.075784784               0.170016481               0.000000000               0.088228728               0.193586732               0.000000000               0.100672672               0.217156983               0.000000000               0.113116616               0.240727235               0.000000000               0.125560560               0.264297486               0.000000000               0.138004504               0.287867738               0.000000000               0.150448448               0.311437989               0.000000000               0.162892392               0.335008240               0.000000000               0.175336336               0.358578492               0.000000000               0.187780280               0.382148743               0.000000000               0.200224224               0.405718994               0.000000000               0.212668168               0.429289246               0.000000000               0.225112112               0.452859497               0.000000000               0.237556056               0.476429749               0.000000000               0.250000000               0.500000000               0.000000000               0.038607862               0.127273065               0.000000000               0.047913621               0.150568498               0.000000000               0.057219379               0.173863932               0.000000000               0.066525138               0.197159365               0.000000000               0.075830897               0.220454798               0.000000000               0.085136655               0.243750232               0.000000000               0.094442414               0.267045665               0.000000000               0.103748172               0.290341099               0.000000000               0.113053931               0.313636532               0.000000000               0.122359690               0.336931966               0.000000000               0.131665448               0.360227399               0.000000000               0.140971207               0.383522833               0.000000000               0.150276966               0.406818266               0.000000000               0.159582724               0.430113700               0.000000000               0.168888483               0.453409133               0.000000000               0.178194241               0.476704567               0.000000000               0.187500000               0.500000000               0.000000000               0.025947013               0.130444442               0.000000000               0.032137825               0.153541665               0.000000000               0.038328636               0.176638887               0.000000000               0.044519448               0.199736109               0.000000000               0.050710260               0.222833332               0.000000000               0.056901071               0.245930554               0.000000000               0.063091883               0.269027776               0.000000000               0.069282695               0.292124999               0.000000000               0.075473506               0.315222221               0.000000000               0.081664318               0.338319444               0.000000000               0.087855130               0.361416666               0.000000000               0.094045942               0.384513888               0.000000000               0.100236753               0.407611111               0.000000000               0.106427565               0.430708333               0.000000000               0.112618377               0.453805555               0.000000000               0.118809188               0.476902778               0.000000000               0.125000000               0.500000000               0.000000000               0.013036280               0.132359569               0.000000000               0.016127762               0.155337096               0.000000000               0.019219245               0.178314623               0.000000000               0.022310727               0.201292150               0.000000000               0.025402210               0.224269676               0.000000000               0.028493692               0.247247203               0.000000000               0.031585175               0.270224730               0.000000000               0.034676657               0.293202257               0.000000000               0.037768140               0.316179784               0.000000000               0.040859622               0.339157311               0.000000000               0.043951105               0.362134838               0.000000000               0.047042587               0.385112365               0.000000000               0.050134070               0.408089892               0.000000000               0.053225552               0.431067419               0.000000000               0.056317035               0.454044946               0.000000000               0.059408517               0.477022473               0.000000000               0.062500000               0.500000000               0.000000000               0.000000000               0.133000000               0.000000000               0.000000000               0.155937500               0.000000000               0.000000000               0.178875000               0.000000000               0.000000000               0.201812500               0.000000000               0.000000000               0.224750000               0.000000000               0.000000000               0.247687500               0.000000000               0.000000000               0.270625000               0.000000000               0.000000000               0.293562500               0.000000000               0.000000000               0.316500000               0.000000000               0.000000000               0.339437500               0.000000000               0.000000000               0.362375000               0.000000000               0.000000000               0.385312500               0.000000000               0.000000000               0.408250000               0.000000000               0.000000000               0.431187500               0.000000000               0.000000000               0.454125000               0.000000000               0.000000000               0.477062500               0.000000000               0.000000000               0.500000000               0.000000000               0.133000000               0.000000000               0.000000000               0.155937500               0.000000000               0.000000000               0.178875000               0.000000000               0.000000000               0.201812500               0.000000000               0.000000000               0.224750000               0.000000000               0.000000000               0.247687500               0.000000000               0.000000000               0.270625000               0.000000000               0.000000000               0.293562500               0.000000000               0.000000000               0.316500000               0.000000000               0.000000000               0.339437500               0.000000000               0.000000000               0.362375000               0.000000000               0.000000000               0.385312500               0.000000000               0.000000000               0.408250000               0.000000000               0.000000000               0.431187500               0.000000000               0.000000000               0.454125000               0.000000000               0.000000000               0.477062500               0.000000000               0.000000000               0.500000000               0.000000000               0.000000000               0.132359569              -0.013036280               0.000000000               0.155337096              -0.016127762               0.000000000               0.178314623              -0.019219245               0.000000000               0.201292150              -0.022310727               0.000000000               0.224269676              -0.025402210               0.000000000               0.247247203              -0.028493692               0.000000000               0.270224730              -0.031585175               0.000000000               0.293202257              -0.034676657               0.000000000               0.316179784              -0.037768140               0.000000000               0.339157311              -0.040859622               0.000000000               0.362134838              -0.043951105               0.000000000               0.385112365              -0.047042587               0.000000000               0.408089892              -0.050134070               0.000000000               0.431067419              -0.053225552               0.000000000               0.454044946              -0.056317035               0.000000000               0.477022473              -0.059408517               0.000000000               0.500000000              -0.062500000               0.000000000               0.130444442              -0.025947013               0.000000000               0.153541665              -0.032137825               0.000000000               0.176638887              -0.038328636               0.000000000               0.199736109              -0.044519448               0.000000000               0.222833332              -0.050710260               0.000000000               0.245930554              -0.056901071               0.000000000               0.269027776              -0.063091883               0.000000000               0.292124999              -0.069282695               0.000000000               0.315222221              -0.075473506               0.000000000               0.338319444              -0.081664318               0.000000000               0.361416666              -0.087855130               0.000000000               0.384513888              -0.094045942               0.000000000               0.407611111              -0.100236753               0.000000000               0.430708333              -0.106427565               0.000000000               0.453805555              -0.112618377               0.000000000               0.476902778              -0.118809188               0.000000000               0.500000000              -0.125000000               0.000000000               0.127273065              -0.038607862               0.000000000               0.150568498              -0.047913621               0.000000000               0.173863932              -0.057219379               0.000000000               0.197159365              -0.066525138               0.000000000               0.220454798              -0.075830897               0.000000000               0.243750232              -0.085136655               0.000000000               0.267045665              -0.094442414               0.000000000               0.290341099              -0.103748172               0.000000000               0.313636532              -0.113053931               0.000000000               0.336931966              -0.122359690               0.000000000               0.360227399              -0.131665448               0.000000000               0.383522833              -0.140971207               0.000000000               0.406818266              -0.150276966               0.000000000               0.430113700              -0.159582724               0.000000000               0.453409133              -0.168888483               0.000000000               0.476704567              -0.178194241               0.000000000               0.500000000              -0.187500000               0.000000000               0.122875978              -0.050896897               0.000000000               0.146446229              -0.063340840               0.000000000               0.170016481              -0.075784784               0.000000000               0.193586732              -0.088228728               0.000000000               0.217156983              -0.100672672               0.000000000               0.240727235              -0.113116616               0.000000000               0.264297486              -0.125560560               0.000000000               0.287867738              -0.138004504               0.000000000               0.311437989              -0.150448448               0.000000000               0.335008240              -0.162892392               0.000000000               0.358578492              -0.175336336               0.000000000               0.382148743              -0.187780280               0.000000000               0.405718994              -0.200224224               0.000000000               0.429289246              -0.212668168               0.000000000               0.452859497              -0.225112112               0.000000000               0.476429749              -0.237556056               0.000000000               0.500000000              -0.250000000               0.000000000               0.117295528              -0.062695766               0.000000000               0.141214558              -0.078308531               0.000000000               0.165133587              -0.093921295               0.000000000               0.189052617              -0.109534060               0.000000000               0.212971646              -0.125146824               0.000000000               0.236890676              -0.140759589               0.000000000               0.260809705              -0.156372354               0.000000000               0.284728735              -0.171985118               0.000000000               0.308647764              -0.187597883               0.000000000               0.332566794              -0.203210648               0.000000000               0.356485823              -0.218823412               0.000000000               0.380404853              -0.234436177               0.000000000               0.404323882              -0.250048941               0.000000000               0.428242912              -0.265661706               0.000000000               0.452161941              -0.281274471               0.000000000               0.476080971              -0.296887235               0.000000000               0.500000000              -0.312500000               0.000000000               0.110585458              -0.073890841               0.000000000               0.134923867              -0.092710163               0.000000000               0.159262276              -0.111529486               0.000000000               0.183600685              -0.130348808               0.000000000               0.207939094              -0.149168131               0.000000000               0.232277503              -0.167987453               0.000000000               0.256615912              -0.186806776               0.000000000               0.280954320              -0.205626098               0.000000000               0.305292729              -0.224445420               0.000000000               0.329631138              -0.243264743               0.000000000               0.353969547              -0.262084065               0.000000000               0.378307956              -0.280903388               0.000000000               0.402646365              -0.299722710               0.000000000               0.426984773              -0.318542033               0.000000000               0.451323182              -0.337361355               0.000000000               0.475661591              -0.356180678               0.000000000               0.500000000              -0.375000000               0.000000000               0.102810390              -0.084374307               0.000000000               0.127634741              -0.106444663               0.000000000               0.152459092              -0.128515018               0.000000000               0.177283442              -0.150585374               0.000000000               0.202107793              -0.172655730               0.000000000               0.226932143              -0.194726086               0.000000000               0.251756494              -0.216796442               0.000000000               0.276580845              -0.238866798               0.000000000               0.301405195              -0.260937153               0.000000000               0.326229546              -0.283007509               0.000000000               0.351053896              -0.305077865               0.000000000               0.375878247              -0.327148221               0.000000000               0.400702598              -0.349218577               0.000000000               0.425526948              -0.371288933               0.000000000               0.450351299              -0.393359288               0.000000000               0.475175649              -0.415429644               0.000000000               0.500000000              -0.437500000               0.000000000               0.094045202              -0.094045202               0.000000000               0.119417377              -0.119417377               0.000000000               0.144789552              -0.144789552               0.000000000               0.170161727              -0.170161727               0.000000000               0.195533901              -0.195533901               0.000000000               0.220906076              -0.220906076               0.000000000               0.246278251              -0.246278251               0.000000000               0.271650426              -0.271650426               0.000000000               0.297022601              -0.297022601               0.000000000               0.322394776              -0.322394776               0.000000000               0.347766951              -0.347766951               0.000000000               0.373139126              -0.373139126               0.000000000               0.398511300              -0.398511300               0.000000000               0.423883475              -0.423883475               0.000000000               0.449255650              -0.449255650               0.000000000               0.474627825              -0.474627825               0.000000000               0.500000000              -0.500000000               0.000000000               0.084374307              -0.102810390               0.000000000               0.106444663              -0.127634741               0.000000000               0.128515018              -0.152459092               0.000000000               0.150585374              -0.177283442               0.000000000               0.172655730              -0.202107793               0.000000000               0.194726086              -0.226932143               0.000000000               0.216796442              -0.251756494               0.000000000               0.238866798              -0.276580845               0.000000000               0.260937153              -0.301405195               0.000000000               0.283007509              -0.326229546               0.000000000               0.305077865              -0.351053896               0.000000000               0.327148221              -0.375878247               0.000000000               0.349218577              -0.400702598               0.000000000               0.371288933              -0.425526948               0.000000000               0.393359288              -0.450351299               0.000000000               0.415429644              -0.475175649               0.000000000               0.437500000              -0.500000000               0.000000000               0.073890841              -0.110585458               0.000000000               0.092710163              -0.134923867               0.000000000               0.111529486              -0.159262276               0.000000000               0.130348808              -0.183600685               0.000000000               0.149168131              -0.207939094               0.000000000               0.167987453              -0.232277503               0.000000000               0.186806776              -0.256615912               0.000000000               0.205626098              -0.280954320               0.000000000               0.224445420              -0.305292729               0.000000000               0.243264743              -0.329631138               0.000000000               0.262084065              -0.353969547               0.000000000               0.280903388              -0.378307956               0.000000000               0.299722710              -0.402646365               0.000000000               0.318542033              -0.426984773               0.000000000               0.337361355              -0.451323182               0.000000000               0.356180678              -0.475661591               0.000000000               0.375000000              -0.500000000               0.000000000               0.062695766              -0.117295528               0.000000000               0.078308531              -0.141214558               0.000000000               0.093921295              -0.165133587               0.000000000               0.109534060              -0.189052617               0.000000000               0.125146824              -0.212971646               0.000000000               0.140759589              -0.236890676               0.000000000               0.156372354              -0.260809705               0.000000000               0.171985118              -0.284728735               0.000000000               0.187597883              -0.308647764               0.000000000               0.203210648              -0.332566794               0.000000000               0.218823412              -0.356485823               0.000000000               0.234436177              -0.380404853               0.000000000               0.250048941              -0.404323882               0.000000000               0.265661706              -0.428242912               0.000000000               0.281274471              -0.452161941               0.000000000               0.296887235              -0.476080971               0.000000000               0.312500000              -0.500000000               0.000000000               0.050896897              -0.122875978               0.000000000               0.063340840              -0.146446229               0.000000000               0.075784784              -0.170016481               0.000000000               0.088228728              -0.193586732               0.000000000               0.100672672              -0.217156983               0.000000000               0.113116616              -0.240727235               0.000000000               0.125560560              -0.264297486               0.000000000               0.138004504              -0.287867738               0.000000000               0.150448448              -0.311437989               0.000000000               0.162892392              -0.335008240               0.000000000               0.175336336              -0.358578492               0.000000000               0.187780280              -0.382148743               0.000000000               0.200224224              -0.405718994               0.000000000               0.212668168              -0.429289246               0.000000000               0.225112112              -0.452859497               0.000000000               0.237556056              -0.476429749               0.000000000               0.250000000              -0.500000000               0.000000000               0.038607862              -0.127273065               0.000000000               0.047913621              -0.150568498               0.000000000               0.057219379              -0.173863932               0.000000000               0.066525138              -0.197159365               0.000000000               0.075830897              -0.220454798               0.000000000               0.085136655              -0.243750232               0.000000000               0.094442414              -0.267045665               0.000000000               0.103748172              -0.290341099               0.000000000               0.113053931              -0.313636532               0.000000000               0.122359690              -0.336931966               0.000000000               0.131665448              -0.360227399               0.000000000               0.140971207              -0.383522833               0.000000000               0.150276966              -0.406818266               0.000000000               0.159582724              -0.430113700               0.000000000               0.168888483              -0.453409133               0.000000000               0.178194241              -0.476704567               0.000000000               0.187500000              -0.500000000               0.000000000               0.025947013              -0.130444442               0.000000000               0.032137825              -0.153541665               0.000000000               0.038328636              -0.176638887               0.000000000               0.044519448              -0.199736109               0.000000000               0.050710260              -0.222833332               0.000000000               0.056901071              -0.245930554               0.000000000               0.063091883              -0.269027776               0.000000000               0.069282695              -0.292124999               0.000000000               0.075473506              -0.315222221               0.000000000               0.081664318              -0.338319444               0.000000000               0.087855130              -0.361416666               0.000000000               0.094045942              -0.384513888               0.000000000               0.100236753              -0.407611111               0.000000000               0.106427565              -0.430708333               0.000000000               0.112618377              -0.453805555               0.000000000               0.118809188              -0.476902778               0.000000000               0.125000000              -0.500000000               0.000000000               0.013036280              -0.132359569               0.000000000               0.016127762              -0.155337096               0.000000000               0.019219245              -0.178314623               0.000000000               0.022310727              -0.201292150               0.000000000               0.025402210              -0.224269676               0.000000000               0.028493692              -0.247247203               0.000000000               0.031585175              -0.270224730               0.000000000               0.034676657              -0.293202257               0.000000000               0.037768140              -0.316179784               0.000000000               0.040859622              -0.339157311               0.000000000               0.043951105              -0.362134838               0.000000000               0.047042587              -0.385112365               0.000000000               0.050134070              -0.408089892               0.000000000               0.053225552              -0.431067419               0.000000000               0.056317035              -0.454044946               0.000000000               0.059408517              -0.477022473               0.000000000               0.062500000              -0.500000000               0.000000000               0.000000000              -0.133000000               0.000000000               0.000000000              -0.155937500               0.000000000               0.000000000              -0.178875000               0.000000000               0.000000000              -0.201812500               0.000000000               0.000000000              -0.224750000               0.000000000               0.000000000              -0.247687500               0.000000000               0.000000000              -0.270625000               0.000000000               0.000000000              -0.293562500               0.000000000               0.000000000              -0.316500000               0.000000000               0.000000000              -0.339437500               0.000000000               0.000000000              -0.362375000               0.000000000               0.000000000              -0.385312500               0.000000000               0.000000000              -0.408250000               0.000000000               0.000000000              -0.431187500               0.000000000               0.000000000              -0.454125000               0.000000000               0.000000000              -0.477062500               0.000000000               0.000000000              -0.500000000               0.000000000              -0.133000000               0.000000000               0.000000000              -0.155937500               0.000000000               0.000000000              -0.178875000               0.000000000               0.000000000              -0.201812500               0.000000000               0.000000000              -0.224750000               0.000000000               0.000000000              -0.247687500               0.000000000               0.000000000              -0.270625000               0.000000000               0.000000000              -0.293562500               0.000000000               0.000000000              -0.316500000               0.000000000               0.000000000              -0.339437500               0.000000000               0.000000000              -0.362375000               0.000000000               0.000000000              -0.385312500               0.000000000               0.000000000              -0.408250000               0.000000000               0.000000000              -0.431187500               0.000000000               0.000000000              -0.454125000               0.000000000               0.000000000              -0.477062500               0.000000000               0.000000000              -0.500000000               0.000000000               0.000000000              -0.132359569              -0.013036280               0.000000000              -0.155337096              -0.016127762               0.000000000              -0.178314623              -0.019219245               0.000000000              -0.201292150              -0.022310727               0.000000000              -0.224269676              -0.025402210               0.000000000              -0.247247203              -0.028493692               0.000000000              -0.270224730              -0.031585175               0.000000000              -0.293202257              -0.034676657               0.000000000              -0.316179784              -0.037768140               0.000000000              -0.339157311              -0.040859622               0.000000000              -0.362134838              -0.043951105               0.000000000              -0.385112365              -0.047042587               0.000000000              -0.408089892              -0.050134070               0.000000000              -0.431067419              -0.053225552               0.000000000              -0.454044946              -0.056317035               0.000000000              -0.477022473              -0.059408517               0.000000000              -0.500000000              -0.062500000               0.000000000              -0.130444442              -0.025947013               0.000000000              -0.153541665              -0.032137825               0.000000000              -0.176638887              -0.038328636               0.000000000              -0.199736109              -0.044519448               0.000000000              -0.222833332              -0.050710260               0.000000000              -0.245930554              -0.056901071               0.000000000              -0.269027776              -0.063091883               0.000000000              -0.292124999              -0.069282695               0.000000000              -0.315222221              -0.075473506               0.000000000              -0.338319444              -0.081664318               0.000000000              -0.361416666              -0.087855130               0.000000000              -0.384513888              -0.094045942               0.000000000              -0.407611111              -0.100236753               0.000000000              -0.430708333              -0.106427565               0.000000000              -0.453805555              -0.112618377               0.000000000              -0.476902778              -0.118809188               0.000000000              -0.500000000              -0.125000000               0.000000000              -0.127273065              -0.038607862               0.000000000              -0.150568498              -0.047913621               0.000000000              -0.173863932              -0.057219379               0.000000000              -0.197159365              -0.066525138               0.000000000              -0.220454798              -0.075830897               0.000000000              -0.243750232              -0.085136655               0.000000000              -0.267045665              -0.094442414               0.000000000              -0.290341099              -0.103748172               0.000000000              -0.313636532              -0.113053931               0.000000000              -0.336931966              -0.122359690               0.000000000              -0.360227399              -0.131665448               0.000000000              -0.383522833              -0.140971207               0.000000000              -0.406818266              -0.150276966               0.000000000              -0.430113700              -0.159582724               0.000000000              -0.453409133              -0.168888483               0.000000000              -0.476704567              -0.178194241               0.000000000              -0.500000000              -0.187500000               0.000000000              -0.122875978              -0.050896897               0.000000000              -0.146446229              -0.063340840               0.000000000              -0.170016481              -0.075784784               0.000000000              -0.193586732              -0.088228728               0.000000000              -0.217156983              -0.100672672               0.000000000              -0.240727235              -0.113116616               0.000000000              -0.264297486              -0.125560560               0.000000000              -0.287867738              -0.138004504               0.000000000              -0.311437989              -0.150448448               0.000000000              -0.335008240              -0.162892392               0.000000000              -0.358578492              -0.175336336               0.000000000              -0.382148743              -0.187780280               0.000000000              -0.405718994              -0.200224224               0.000000000              -0.429289246              -0.212668168               0.000000000              -0.452859497              -0.225112112               0.000000000              -0.476429749              -0.237556056               0.000000000              -0.500000000              -0.250000000               0.000000000              -0.117295528              -0.062695766               0.000000000              -0.141214558              -0.078308531               0.000000000              -0.165133587              -0.093921295               0.000000000              -0.189052617              -0.109534060               0.000000000              -0.212971646              -0.125146824               0.000000000              -0.236890676              -0.140759589               0.000000000              -0.260809705              -0.156372354               0.000000000              -0.284728735              -0.171985118               0.000000000              -0.308647764              -0.187597883               0.000000000              -0.332566794              -0.203210648               0.000000000              -0.356485823              -0.218823412               0.000000000              -0.380404853              -0.234436177               0.000000000              -0.404323882              -0.250048941               0.000000000              -0.428242912              -0.265661706               0.000000000              -0.452161941              -0.281274471               0.000000000              -0.476080971              -0.296887235               0.000000000              -0.500000000              -0.312500000               0.000000000              -0.110585458              -0.073890841               0.000000000              -0.134923867              -0.092710163               0.000000000              -0.159262276              -0.111529486               0.000000000              -0.183600685              -0.130348808               0.000000000              -0.207939094              -0.149168131               0.000000000              -0.232277503              -0.167987453               0.000000000              -0.256615912              -0.186806776               0.000000000              -0.280954320              -0.205626098               0.000000000              -0.305292729              -0.224445420               0.000000000              -0.329631138              -0.243264743               0.000000000              -0.353969547              -0.262084065               0.000000000              -0.378307956              -0.280903388               0.000000000              -0.402646365              -0.299722710               0.000000000              -0.426984773              -0.318542033               0.000000000              -0.451323182              -0.337361355               0.000000000              -0.475661591              -0.356180678               0.000000000              -0.500000000              -0.375000000               0.000000000              -0.102810390              -0.084374307               0.000000000              -0.127634741              -0.106444663               0.000000000              -0.152459092              -0.128515018               0.000000000              -0.177283442              -0.150585374               0.000000000              -0.202107793              -0.172655730               0.000000000              -0.226932143              -0.194726086               0.000000000              -0.251756494              -0.216796442               0.000000000              -0.276580845              -0.238866798               0.000000000              -0.301405195              -0.260937153               0.000000000              -0.326229546              -0.283007509               0.000000000              -0.351053896              -0.305077865               0.000000000              -0.375878247              -0.327148221               0.000000000              -0.400702598              -0.349218577               0.000000000              -0.425526948              -0.371288933               0.000000000              -0.450351299              -0.393359288               0.000000000              -0.475175649              -0.415429644               0.000000000              -0.500000000              -0.437500000               0.000000000              -0.094045202              -0.094045202               0.000000000              -0.119417377              -0.119417377               0.000000000              -0.144789552              -0.144789552               0.000000000              -0.170161727              -0.170161727               0.000000000              -0.195533901              -0.195533901               0.000000000              -0.220906076              -0.220906076               0.000000000              -0.246278251              -0.246278251               0.000000000              -0.271650426              -0.271650426               0.000000000              -0.297022601              -0.297022601               0.000000000              -0.322394776              -0.322394776               0.000000000              -0.347766951              -0.347766951               0.000000000              -0.373139126              -0.373139126               0.000000000              -0.398511300              -0.398511300               0.000000000              -0.423883475              -0.423883475               0.000000000              -0.449255650              -0.449255650               0.000000000              -0.474627825              -0.474627825               0.000000000              -0.500000000              -0.500000000               0.000000000              -0.084374307              -0.102810390               0.000000000              -0.106444663              -0.127634741               0.000000000              -0.128515018              -0.152459092               0.000000000              -0.150585374              -0.177283442               0.000000000              -0.172655730              -0.202107793               0.000000000              -0.194726086              -0.226932143               0.000000000              -0.216796442              -0.251756494               0.000000000              -0.238866798              -0.276580845               0.000000000              -0.260937153              -0.301405195               0.000000000              -0.283007509              -0.326229546               0.000000000              -0.305077865              -0.351053896               0.000000000              -0.327148221              -0.375878247               0.000000000              -0.349218577              -0.400702598               0.000000000              -0.371288933              -0.425526948               0.000000000              -0.393359288              -0.450351299               0.000000000              -0.415429644              -0.475175649               0.000000000              -0.437500000              -0.500000000               0.000000000              -0.073890841              -0.110585458               0.000000000              -0.092710163              -0.134923867               0.000000000              -0.111529486              -0.159262276               0.000000000              -0.130348808              -0.183600685               0.000000000              -0.149168131              -0.207939094               0.000000000              -0.167987453              -0.232277503               0.000000000              -0.186806776              -0.256615912               0.000000000              -0.205626098              -0.280954320               0.000000000              -0.224445420              -0.305292729               0.000000000              -0.243264743              -0.329631138               0.000000000              -0.262084065              -0.353969547               0.000000000              -0.280903388              -0.378307956               0.000000000              -0.299722710              -0.402646365               0.000000000              -0.318542033              -0.426984773               0.000000000              -0.337361355              -0.451323182               0.000000000              -0.356180678              -0.475661591               0.000000000              -0.375000000              -0.500000000               0.000000000              -0.062695766              -0.117295528               0.000000000              -0.078308531              -0.141214558               0.000000000              -0.093921295              -0.165133587               0.000000000              -0.109534060              -0.189052617               0.000000000              -0.125146824              -0.212971646               0.000000000              -0.140759589              -0.236890676               0.000000000              -0.156372354              -0.260809705               0.000000000              -0.171985118              -0.284728735               0.000000000              -0.187597883              -0.308647764               0.000000000              -0.203210648              -0.332566794               0.000000000              -0.218823412              -0.356485823               0.000000000              -0.234436177              -0.380404853               0.000000000              -0.250048941              -0.404323882               0.000000000              -0.265661706              -0.428242912               0.000000000              -0.281274471              -0.452161941               0.000000000              -0.296887235              -0.476080971               0.000000000              -0.312500000              -0.500000000               0.000000000              -0.050896897              -0.122875978               0.000000000              -0.063340840              -0.146446229               0.000000000              -0.075784784              -0.170016481               0.000000000              -0.088228728              -0.193586732               0.000000000              -0.100672672              -0.217156983               0.000000000              -0.113116616              -0.240727235               0.000000000              -0.125560560              -0.264297486               0.000000000              -0.138004504              -0.287867738               0.000000000              -0.150448448              -0.311437989               0.000000000              -0.162892392              -0.335008240               0.000000000              -0.175336336              -0.358578492               0.000000000              -0.187780280              -0.382148743               0.000000000              -0.200224224              -0.405718994               0.000000000              -0.212668168              -0.429289246               0.000000000              -0.225112112              -0.452859497               0.000000000              -0.237556056              -0.476429749               0.000000000              -0.250000000              -0.500000000               0.000000000              -0.038607862              -0.127273065               0.000000000              -0.047913621              -0.150568498               0.000000000              -0.057219379              -0.173863932               0.000000000              -0.066525138              -0.197159365               0.000000000              -0.075830897              -0.220454798               0.000000000              -0.085136655              -0.243750232               0.000000000              -0.094442414              -0.267045665               0.000000000              -0.103748172              -0.290341099               0.000000000              -0.113053931              -0.313636532               0.000000000              -0.122359690              -0.336931966               0.000000000              -0.131665448              -0.360227399               0.000000000              -0.140971207              -0.383522833               0.000000000              -0.150276966              -0.406818266               0.000000000              -0.159582724              -0.430113700               0.000000000              -0.168888483              -0.453409133               0.000000000              -0.178194241              -0.476704567               0.000000000              -0.187500000              -0.500000000               0.000000000              -0.025947013              -0.130444442               0.000000000              -0.032137825              -0.153541665               0.000000000              -0.038328636              -0.176638887               0.000000000              -0.044519448              -0.199736109               0.000000000              -0.050710260              -0.222833332               0.000000000              -0.056901071              -0.245930554               0.000000000              -0.063091883              -0.269027776               0.000000000              -0.069282695              -0.292124999               0.000000000              -0.075473506              -0.315222221               0.000000000              -0.081664318              -0.338319444               0.000000000              -0.087855130              -0.361416666               0.000000000              -0.094045942              -0.384513888               0.000000000              -0.100236753              -0.407611111               0.000000000              -0.106427565              -0.430708333               0.000000000              -0.112618377              -0.453805555               0.000000000              -0.118809188              -0.476902778               0.000000000              -0.125000000              -0.500000000               0.000000000              -0.013036280              -0.132359569               0.000000000              -0.016127762              -0.155337096               0.000000000              -0.019219245              -0.178314623               0.000000000              -0.022310727              -0.201292150               0.000000000              -0.025402210              -0.224269676               0.000000000              -0.028493692              -0.247247203               0.000000000              -0.031585175              -0.270224730               0.000000000              -0.034676657              -0.293202257               0.000000000              -0.037768140              -0.316179784               0.000000000              -0.040859622              -0.339157311               0.000000000              -0.043951105              -0.362134838               0.000000000              -0.047042587              -0.385112365               0.000000000              -0.050134070              -0.408089892               0.000000000              -0.053225552              -0.431067419               0.000000000              -0.056317035              -0.454044946               0.000000000              -0.059408517              -0.477022473               0.000000000              -0.062500000              -0.500000000               0.000000000               0.000000000              -0.133000000               0.000000000               0.000000000              -0.155937500               0.000000000               0.000000000              -0.178875000               0.000000000               0.000000000              -0.201812500               0.000000000               0.000000000              -0.224750000               0.000000000               0.000000000              -0.247687500               0.000000000               0.000000000              -0.270625000               0.000000000               0.000000000              -0.293562500               0.000000000               0.000000000              -0.316500000               0.000000000               0.000000000              -0.339437500               0.000000000               0.000000000              -0.362375000               0.000000000               0.000000000              -0.385312500               0.000000000               0.000000000              -0.408250000               0.000000000               0.000000000              -0.431187500               0.000000000               0.000000000              -0.454125000               0.000000000               0.000000000              -0.477062500               0.000000000               0.000000000              -0.500000000               0.000000000              -0.133000000               0.000000000               0.000000000              -0.155937500               0.000000000               0.000000000              -0.178875000               0.000000000               0.000000000              -0.201812500               0.000000000               0.000000000              -0.224750000               0.000000000               0.000000000              -0.247687500               0.000000000               0.000000000              -0.270625000               0.000000000               0.000000000              -0.293562500               0.000000000               0.000000000              -0.316500000               0.000000000               0.000000000              -0.339437500               0.000000000               0.000000000              -0.362375000               0.000000000               0.000000000              -0.385312500               0.000000000               0.000000000              -0.408250000               0.000000000               0.000000000              -0.431187500               0.000000000               0.000000000              -0.454125000               0.000000000               0.000000000              -0.477062500               0.000000000               0.000000000              -0.500000000               0.000000000               0.000000000              -0.132359569               0.013036280               0.000000000              -0.155337096               0.016127762               0.000000000              -0.178314623               0.019219245               0.000000000              -0.201292150               0.022310727               0.000000000              -0.224269676               0.025402210               0.000000000              -0.247247203               0.028493692               0.000000000              -0.270224730               0.031585175               0.000000000              -0.293202257               0.034676657               0.000000000              -0.316179784               0.037768140               0.000000000              -0.339157311               0.040859622               0.000000000              -0.362134838               0.043951105               0.000000000              -0.385112365               0.047042587               0.000000000              -0.408089892               0.050134070               0.000000000              -0.431067419               0.053225552               0.000000000              -0.454044946               0.056317035               0.000000000              -0.477022473               0.059408517               0.000000000              -0.500000000               0.062500000               0.000000000              -0.130444442               0.025947013               0.000000000              -0.153541665               0.032137825               0.000000000              -0.176638887               0.038328636               0.000000000              -0.199736109               0.044519448               0.000000000              -0.222833332               0.050710260               0.000000000              -0.245930554               0.056901071               0.000000000              -0.269027776               0.063091883               0.000000000              -0.292124999               0.069282695               0.000000000              -0.315222221               0.075473506               0.000000000              -0.338319444               0.081664318               0.000000000              -0.361416666               0.087855130               0.000000000              -0.384513888               0.094045942               0.000000000              -0.407611111               0.100236753               0.000000000              -0.430708333               0.106427565               0.000000000              -0.453805555               0.112618377               0.000000000              -0.476902778               0.118809188               0.000000000              -0.500000000               0.125000000               0.000000000              -0.127273065               0.038607862               0.000000000              -0.150568498               0.047913621               0.000000000              -0.173863932               0.057219379               0.000000000              -0.197159365               0.066525138               0.000000000              -0.220454798               0.075830897               0.000000000              -0.243750232               0.085136655               0.000000000              -0.267045665               0.094442414               0.000000000              -0.290341099               0.103748172               0.000000000              -0.313636532               0.113053931               0.000000000              -0.336931966               0.122359690               0.000000000              -0.360227399               0.131665448               0.000000000              -0.383522833               0.140971207               0.000000000              -0.406818266               0.150276966               0.000000000              -0.430113700               0.159582724               0.000000000              -0.453409133               0.168888483               0.000000000              -0.476704567               0.178194241               0.000000000              -0.500000000               0.187500000               0.000000000              -0.122875978               0.050896897               0.000000000              -0.146446229               0.063340840               0.000000000              -0.170016481               0.075784784               0.000000000              -0.193586732               0.088228728               0.000000000              -0.217156983               0.100672672               0.000000000              -0.240727235               0.113116616               0.000000000              -0.264297486               0.125560560               0.000000000              -0.287867738               0.138004504               0.000000000              -0.311437989               0.150448448               0.000000000              -0.335008240               0.162892392               0.000000000              -0.358578492               0.175336336               0.000000000              -0.382148743               0.187780280               0.000000000              -0.405718994               0.200224224               0.000000000              -0.429289246               0.212668168               0.000000000              -0.452859497               0.225112112               0.000000000              -0.476429749               0.237556056               0.000000000              -0.500000000               0.250000000               0.000000000              -0.117295528               0.062695766               0.000000000              -0.141214558               0.078308531               0.000000000              -0.165133587               0.093921295               0.000000000              -0.189052617               0.109534060               0.000000000              -0.212971646               0.125146824               0.000000000              -0.236890676               0.140759589               0.000000000              -0.260809705               0.156372354               0.000000000              -0.284728735               0.171985118               0.000000000              -0.308647764               0.187597883               0.000000000              -0.332566794               0.203210648               0.000000000              -0.356485823               0.218823412               0.000000000              -0.380404853               0.234436177               0.000000000              -0.404323882               0.250048941               0.000000000              -0.428242912               0.265661706               0.000000000              -0.452161941               0.281274471               0.000000000              -0.476080971               0.296887235               0.000000000              -0.500000000               0.312500000               0.000000000              -0.110585458               0.073890841               0.000000000              -0.134923867               0.092710163               0.000000000              -0.159262276               0.111529486               0.000000000              -0.183600685               0.130348808               0.000000000              -0.207939094               0.149168131               0.000000000              -0.232277503               0.167987453               0.000000000              -0.256615912               0.186806776               0.000000000              -0.280954320               0.205626098               0.000000000              -0.305292729               0.224445420               0.000000000              -0.329631138               0.243264743               0.000000000              -0.353969547               0.262084065               0.000000000              -0.378307956               0.280903388               0.000000000              -0.402646365               0.299722710               0.000000000              -0.426984773               0.318542033               0.000000000              -0.451323182               0.337361355               0.000000000              -0.475661591               0.356180678               0.000000000              -0.500000000               0.375000000               0.000000000              -0.102810390               0.084374307               0.000000000              -0.127634741               0.106444663               0.000000000              -0.152459092               0.128515018               0.000000000              -0.177283442               0.150585374               0.000000000              -0.202107793               0.172655730               0.000000000              -0.226932143               0.194726086               0.000000000              -0.251756494               0.216796442               0.000000000              -0.276580845               0.238866798               0.000000000              -0.301405195               0.260937153               0.000000000              -0.326229546               0.283007509               0.000000000              -0.351053896               0.305077865               0.000000000              -0.375878247               0.327148221               0.000000000              -0.400702598               0.349218577               0.000000000              -0.425526948               0.371288933               0.000000000              -0.450351299               0.393359288               0.000000000              -0.475175649               0.415429644               0.000000000              -0.500000000               0.437500000               0.000000000              -0.094045202               0.094045202               0.000000000              -0.119417377               0.119417377               0.000000000              -0.144789552               0.144789552               0.000000000              -0.170161727               0.170161727               0.000000000              -0.195533901               0.195533901               0.000000000              -0.220906076               0.220906076               0.000000000              -0.246278251               0.246278251               0.000000000              -0.271650426               0.271650426               0.000000000              -0.297022601               0.297022601               0.000000000              -0.322394776               0.322394776               0.000000000              -0.347766951               0.347766951               0.000000000              -0.373139126               0.373139126               0.000000000              -0.398511300               0.398511300               0.000000000              -0.423883475               0.423883475               0.000000000              -0.449255650               0.449255650               0.000000000              -0.474627825               0.474627825               0.000000000              -0.500000000               0.500000000               0.000000000              -0.084374307               0.102810390               0.000000000              -0.106444663               0.127634741               0.000000000              -0.128515018               0.152459092               0.000000000              -0.150585374               0.177283442               0.000000000              -0.172655730               0.202107793               0.000000000              -0.194726086               0.226932143               0.000000000              -0.216796442               0.251756494               0.000000000              -0.238866798               0.276580845               0.000000000              -0.260937153               0.301405195               0.000000000              -0.283007509               0.326229546               0.000000000              -0.305077865               0.351053896               0.000000000              -0.327148221               0.375878247               0.000000000              -0.349218577               0.400702598               0.000000000              -0.371288933               0.425526948               0.000000000              -0.393359288               0.450351299               0.000000000              -0.415429644               0.475175649               0.000000000              -0.437500000               0.500000000               0.000000000              -0.073890841               0.110585458               0.000000000              -0.092710163               0.134923867               0.000000000              -0.111529486               0.159262276               0.000000000              -0.130348808               0.183600685               0.000000000              -0.149168131               0.207939094               0.000000000              -0.167987453               0.232277503               0.000000000              -0.186806776               0.256615912               0.000000000              -0.205626098               0.280954320               0.000000000              -0.224445420               0.305292729               0.000000000              -0.243264743               0.329631138               0.000000000              -0.262084065               0.353969547               0.000000000              -0.280903388               0.378307956               0.000000000              -0.299722710               0.402646365               0.000000000              -0.318542033               0.426984773               0.000000000              -0.337361355               0.451323182               0.000000000              -0.356180678               0.475661591               0.000000000              -0.375000000               0.500000000               0.000000000              -0.062695766               0.117295528               0.000000000              -0.078308531               0.141214558               0.000000000              -0.093921295               0.165133587               0.000000000              -0.109534060               0.189052617               0.000000000              -0.125146824               0.212971646               0.000000000              -0.140759589               0.236890676               0.000000000              -0.156372354               0.260809705               0.000000000              -0.171985118               0.284728735               0.000000000              -0.187597883               0.308647764               0.000000000              -0.203210648               0.332566794               0.000000000              -0.218823412               0.356485823               0.000000000              -0.234436177               0.380404853               0.000000000              -0.250048941               0.404323882               0.000000000              -0.265661706               0.428242912               0.000000000              -0.281274471               0.452161941               0.000000000              -0.296887235               0.476080971               0.000000000              -0.312500000               0.500000000               0.000000000              -0.050896897               0.122875978               0.000000000              -0.063340840               0.146446229               0.000000000              -0.075784784               0.170016481               0.000000000              -0.088228728               0.193586732               0.000000000              -0.100672672               0.217156983               0.000000000              -0.113116616               0.240727235               0.000000000              -0.125560560               0.264297486               0.000000000              -0.138004504               0.287867738               0.000000000              -0.150448448               0.311437989               0.000000000              -0.162892392               0.335008240               0.000000000              -0.175336336               0.358578492               0.000000000              -0.187780280               0.382148743               0.000000000              -0.200224224               0.405718994               0.000000000              -0.212668168               0.429289246               0.000000000              -0.225112112               0.452859497               0.000000000              -0.237556056               0.476429749               0.000000000              -0.250000000               0.500000000               0.000000000              -0.038607862               0.127273065               0.000000000              -0.047913621               0.150568498               0.000000000              -0.057219379               0.173863932               0.000000000              -0.066525138               0.197159365               0.000000000              -0.075830897               0.220454798               0.000000000              -0.085136655               0.243750232               0.000000000              -0.094442414               0.267045665               0.000000000              -0.103748172               0.290341099               0.000000000              -0.113053931               0.313636532               0.000000000              -0.122359690               0.336931966               0.000000000              -0.131665448               0.360227399               0.000000000              -0.140971207               0.383522833               0.000000000              -0.150276966               0.406818266               0.000000000              -0.159582724               0.430113700               0.000000000              -0.168888483               0.453409133               0.000000000              -0.178194241               0.476704567               0.000000000              -0.187500000               0.500000000               0.000000000              -0.025947013               0.130444442               0.000000000              -0.032137825               0.153541665               0.000000000              -0.038328636               0.176638887               0.000000000              -0.044519448               0.199736109               0.000000000              -0.050710260               0.222833332               0.000000000              -0.056901071               0.245930554               0.000000000              -0.063091883               0.269027776               0.000000000              -0.069282695               0.292124999               0.000000000              -0.075473506               0.315222221               0.000000000              -0.081664318               0.338319444               0.000000000              -0.087855130               0.361416666               0.000000000              -0.094045942               0.384513888               0.000000000              -0.100236753               0.407611111               0.000000000              -0.106427565               0.430708333               0.000000000              -0.112618377               0.453805555               0.000000000              -0.118809188               0.476902778               0.000000000              -0.125000000               0.500000000               0.000000000              -0.013036280               0.132359569               0.000000000              -0.016127762               0.155337096               0.000000000              -0.019219245               0.178314623               0.000000000              -0.022310727               0.201292150               0.000000000              -0.025402210               0.224269676               0.000000000              -0.028493692               0.247247203               0.000000000              -0.031585175               0.270224730               0.000000000              -0.034676657               0.293202257               0.000000000              -0.037768140               0.316179784               0.000000000              -0.040859622               0.339157311               0.000000000              -0.043951105               0.362134838               0.000000000              -0.047042587               0.385112365               0.000000000              -0.050134070               0.408089892               0.000000000              -0.053225552               0.431067419               0.000000000              -0.056317035               0.454044946               0.000000000              -0.059408517               0.477022473               0.000000000              -0.062500000               0.500000000               0.000000000               0.000000000               0.133000000               0.000000000               0.000000000               0.155937500               0.000000000               0.000000000               0.178875000               0.000000000               0.000000000               0.201812500               0.000000000               0.000000000               0.224750000               0.000000000               0.000000000               0.247687500               0.000000000               0.000000000               0.270625000               0.000000000               0.000000000               0.293562500               0.000000000               0.000000000               0.316500000               0.000000000               0.000000000               0.339437500               0.000000000               0.000000000               0.362375000               0.000000000               0.000000000               0.385312500               0.000000000               0.000000000               0.408250000               0.000000000               0.000000000               0.431187500               0.000000000               0.000000000               0.454125000               0.000000000               0.000000000               0.477062500               0.000000000               0.000000000               0.500000000               0.000000000 </DataArray>
</Points>
<Cells>
<DataArray type="Int32"                                    Name="connectivity"                                                      NumberOfComponents=" 1" format="ascii">
         0          1         18         17          1          2         19         18          2          3         20         19          3          4         21         20          4          5         22         21          5          6         23         22          6          7         24         23          7          8         25         24          8          9         26         25          9         10         27         26         10         11         28         27         11         12         29         28         12         13         30         29         13         14         31         30         14         15         32         31         15         16         33         32         17         18         35         34         18         19         36         35         19         20         37         36         20         21         38         37         21         22         39         38         22         23         40         39         23         24         41         40         24         25         42         41         25         26         43         42         26         27         44         43         27         28         45         44         28         29         46         45         29         30         47         46         30         31         48         47         31         32         49         48         32         33         50         49         34         35         52         51         35         36         53         52         36         37         54         53         37         38         55         54         38         39         56         55         39         40         57         56         40         41         58         57         41         42         59         58         42         43         60         59         43         44         61         60         44         45         62         61         45         46         63         62         46         47         64         63         47         48         65         64         48         49         66         65         49         50         67         66         51         52         69         68         52         53         70         69         53         54         71         70         54         55         72         71         55         56         73         72         56         57         74         73         57         58         75         74         58         59         76         75         59         60         77         76         60         61         78         77         61         62         79         78         62         63         80         79         63         64         81         80         64         65         82         81         65         66         83         82         66         67         84         83         68         69         86         85         69         70         87         86         70         71         88         87         71         72         89         88         72         73         90         89         73         74         91         90         74         75         92         91         75         76         93         92         76         77         94         93         77         78         95         94         78         79         96         95         79         80         97         96         80         81         98         97         81         82         99         98         82         83        100         99         83         84        101        100         85         86        103        102         86         87        104        103         87         88        105        104         88         89        106        105         89         90        107        106         90         91        108        107         91         92        109        108         92         93        110        109         93         94        111        110         94         95        112        111         95         96        113        112         96         97        114        113         97         98        115        114         98         99        116        115         99        100        117        116        100        101        118        117        102        103        120        119        103        104        121        120        104        105        122        121        105        106        123        122        106        107        124        123        107        108        125        124        108        109        126        125        109        110        127        126        110        111        128        127        111        112        129        128        112        113        130        129        113        114        131        130        114        115        132        131        115        116        133        132        116        117        134        133        117        118        135        134        119        120        137        136        120        121        138        137        121        122        139        138        122        123        140        139        123        124        141        140        124        125        142        141        125        126        143        142        126        127        144        143        127        128        145        144        128        129        146        145        129        130        147        146        130        131        148        147        131        132        149        148        132        133        150        149        133        134        151        150        134        135        152        151        136        137        154        153        137        138        155        154        138        139        156        155        139        140        157        156        140        141        158        157        141        142        159        158        142        143        160        159        143        144        161        160        144        145        162        161        145        146        163        162        146        147        164        163        147        148        165        164        148        149        166        165        149        150        167        166        150        151        168        167        151        152        169        168        153        154        171        170        154        155        172        171        155        156        173        172        156        157        174        173        157        158        175        174        158        159        176        175        159        160        177        176        160        161        178        177        161        162        179        178        162        163        180        179        163        164        181        180        164        165        182        181        165        166        183        182        166        167        184        183        167        168        185        184        168        169        186        185        170        171        188        187        171        172        189        188        172        173        190        189        173        174        191        190        174        175        192        191        175        176        193        192        176        177        194        193        177        178        195        194        178        179        196        195        179        180        197        196        180        181        198        197        181        182        199        198        182        183        200        199        183        184        201        200        184        185        202        201        185        186        203        202        187        188        205        204        188        189        206        205        189        190        207        206        190        191        208        207        191        192        209        208        192        193        210        209        193        194        211        210        194        195        212        211        195        196        213        212        196        197        214        213        197        198        215        214        198        199        216        215        199        200        217        216        200        201        218        217        201        202        219        218        202        203        220        219        204        205        222        221        205        206        223        222        206        207        224        223        207        208        225        224        208        209        226        225        209        210        227        226        210        211        228        227        211        212        229        228        212        213        230        229        213        214        231        230        214        215        232        231        215        216        233        232        216        217        234        233        217        218        235        234        218        219        236        235        219        220        237        236        221        222        239        238        222        223        240        239        223        224        241        240        224        225        242        241        225        226        243        242        226        227        244        243        227        228        245        244        228        229        246        245        229        230        247        246        230        231        248        247        231        232        249        248        232        233        250        249        233        234        251        250        234        235        252        251        235        236        253        252        236        237        254        253        238        239        256        255        239        240        257        256        240        241        258        257        241        242        259        258        242        243        260        259        243        244        261        260        244        245        262        261        245        246        263        262        246        247        264        263        247        248        265        264        248        249        266        265        249        250        267        266        250        251        268        267        251        252        269        268        252        253        270        269        253        254        271        270        255        256        273        272        256        257        274        273        257        258        275        274        258        259        276        275        259        260        277        276        260        261        278        277        261        262        279        278        262        263        280        279        263        264        281        280        264        265        282        281        265        266        283        282        266        267        284        283        267        268        285        284        268        269        286        285        269        270        287        286        270        271        288        287        306        307          1          0        307        308          2          1        308        309          3          2        309        310          4          3        310        311          5          4        311        312          6          5        312        313          7          6        313        314          8          7        314        315          9          8        315        316         10          9        316        317         11         10        317        318         12         11        318        319         13         12        319        320         14         13        320        321         15         14        321        322         16         15        323        324        307        306        324        325        308        307        325        326        309        308        326        327        310        309        327        328        311        310        328        329        312        311        329        330        313        312        330        331        314        313        331        332        315        314        332        333        316        315        333        334        317        316        334        335        318        317        335        336        319        318        336        337        320        319        337        338        321        320        338        339        322        321        340        341        324        323        341        342        325        324        342        343        326        325        343        344        327        326        344        345        328        327        345        346        329        328        346        347        330        329        347        348        331        330        348        349        332        331        349        350        333        332        350        351        334        333        351        352        335        334        352        353        336        335        353        354        337        336        354        355        338        337        355        356        339        338        357        358        341        340        358        359        342        341        359        360        343        342        360        361        344        343        361        362        345        344        362        363        346        345        363        364        347        346        364        365        348        347        365        366        349        348        366        367        350        349        367        368        351        350        368        369        352        351        369        370        353        352        370        371        354        353        371        372        355        354        372        373        356        355        374        375        358        357        375        376        359        358        376        377        360        359        377        378        361        360        378        379        362        361        379        380        363        362        380        381        364        363        381        382        365        364        382        383        366        365        383        384        367        366        384        385        368        367        385        386        369        368        386        387        370        369        387        388        371        370        388        389        372        371        389        390        373        372        391        392        375        374        392        393        376        375        393        394        377        376        394        395        378        377        395        396        379        378        396        397        380        379        397        398        381        380        398        399        382        381        399        400        383        382        400        401        384        383        401        402        385        384        402        403        386        385        403        404        387        386        404        405        388        387        405        406        389        388        406        407        390        389        408        409        392        391        409        410        393        392        410        411        394        393        411        412        395        394        412        413        396        395        413        414        397        396        414        415        398        397        415        416        399        398        416        417        400        399        417        418        401        400        418        419        402        401        419        420        403        402        420        421        404        403        421        422        405        404        422        423        406        405        423        424        407        406        425        426        409        408        426        427        410        409        427        428        411        410        428        429        412        411        429        430        413        412        430        431        414        413        431        432        415        414        432        433        416        415        433        434        417        416        434        435        418        417        435        436        419        418        436        437        420        419        437        438        421        420        438        439        422        421        439        440        423        422        440        441        424        423        442        443        426        425        443        444        427        426        444        445        428        427        445        446        429        428        446        447        430        429        447        448        431        430        448        449        432        431        449        450        433        432        450        451        434        433        451        452        435        434        452        453        436        435        453        454        437        436        454        455        438        437        455        456        439        438        456        457        440        439        457        458        441        440        459        460        443        442        460        461        444        443        461        462        445        444        462        463        446        445        463        464        447        446        464        465        448        447        465        466        449        448        466        467        450        449        467        468        451        450        468        469        452        451        469        470        453        452        470        471        454        453        471        472        455        454        472        473        456        455        473        474        457        456        474        475        458        457        476        477        460        459        477        478        461        460        478        479        462        461        479        480        463        462        480        481        464        463        481        482        465        464        482        483        466        465        483        484        467        466        484        485        468        467        485        486        469        468        486        487        470        469        487        488        471        470        488        489        472        471        489        490        473        472        490        491        474        473        491        492        475        474        493        494        477        476        494        495        478        477        495        496        479        478        496        497        480        479        497        498        481        480        498        499        482        481        499        500        483        482        500        501        484        483        501        502        485        484        502        503        486        485        503        504        487        486        504        505        488        487        505        506        489        488        506        507        490        489        507        508        491        490        508        509        492        491        510        511        494        493        511        512        495        494        512        513        496        495        513        514        497        496        514        515        498        497        515        516        499        498        516        517        500        499        517        518        501        500        518        519        502        501        519        520        503        502        520        521        504        503        521        522        505        504        522        523        506        505        523        524        507        506        524        525        508        507        525        526        509        508        527        528        511        510        528        529        512        511        529        530        513        512        530        531        514        513        531        532        515        514        532        533        516        515        533        534        517        516        534        535        518        517        535        536        519        518        536        537        520        519        537        538        521        520        538        539        522        521        539        540        523        522        540        541        524        523        541        542        525        524        542        543        526        525        544        545        528        527        545        546        529        528        546        547        530        529        547        548        531        530        548        549        532        531        549        550        533        532        550        551        534        533        551        552        535        534        552        553        536        535        553        554        537        536        554        555        538        537        555        556        539        538        556        557        540        539        557        558        541        540        558        559        542        541        559        560        543        542        561        562        545        544        562        563        546        545        563        564        547        546        564        565        548        547        565        566        549        548        566        567        550        549        567        568        551        550        568        569        552        551        569        570        553        552        570        571        554        553        571        572        555        554        572        573        556        555        573        574        557        556        574        575        558        557        575        576        559        558        576        577        560        559        578        579        596        595        579        580        597        596        580        581        598        597        581        582        599        598        582        583        600        599        583        584        601        600        584        585        602        601        585        586        603        602        586        587        604        603        587        588        605        604        588        589        606        605        589        590        607        606        590        591        608        607        591        592        609        608        592        593        610        609        593        594        611        610        595        596        613        612        596        597        614        613        597        598        615        614        598        599        616        615        599        600        617        616        600        601        618        617        601        602        619        618        602        603        620        619        603        604        621        620        604        605        622        621        605        606        623        622        606        607        624        623        607        608        625        624        608        609        626        625        609        610        627        626        610        611        628        627        612        613        630        629        613        614        631        630        614        615        632        631        615        616        633        632        616        617        634        633        617        618        635        634        618        619        636        635        619        620        637        636        620        621        638        637        621        622        639        638        622        623        640        639        623        624        641        640        624        625        642        641        625        626        643        642        626        627        644        643        627        628        645        644        629        630        647        646        630        631        648        647        631        632        649        648        632        633        650        649        633        634        651        650        634        635        652        651        635        636        653        652        636        637        654        653        637        638        655        654        638        639        656        655        639        640        657        656        640        641        658        657        641        642        659        658        642        643        660        659        643        644        661        660        644        645        662        661        646        647        664        663        647        648        665        664        648        649        666        665        649        650        667        666        650        651        668        667        651        652        669        668        652        653        670        669        653        654        671        670        654        655        672        671        655        656        673        672        656        657        674        673        657        658        675        674        658        659        676        675        659        660        677        676        660        661        678        677        661        662        679        678        663        664        681        680        664        665        682        681        665        666        683        682        666        667        684        683        667        668        685        684        668        669        686        685        669        670        687        686        670        671        688        687        671        672        689        688        672        673        690        689        673        674        691        690        674        675        692        691        675        676        693        692        676        677        694        693        677        678        695        694        678        679        696        695        680        681        698        697        681        682        699        698        682        683        700        699        683        684        701        700        684        685        702        701        685        686        703        702        686        687        704        703        687        688        705        704        688        689        706        705        689        690        707        706        690        691        708        707        691        692        709        708        692        693        710        709        693        694        711        710        694        695        712        711        695        696        713        712        697        698        715        714        698        699        716        715        699        700        717        716        700        701        718        717        701        702        719        718        702        703        720        719        703        704        721        720        704        705        722        721        705        706        723        722        706        707        724        723        707        708        725        724        708        709        726        725        709        710        727        726        710        711        728        727        711        712        729        728        712        713        730        729        714        715        732        731        715        716        733        732        716        717        734        733        717        718        735        734        718        719        736        735        719        720        737        736        720        721        738        737        721        722        739        738        722        723        740        739        723        724        741        740        724        725        742        741        725        726        743        742        726        727        744        743        727        728        745        744        728        729        746        745        729        730        747        746        731        732        749        748        732        733        750        749        733        734        751        750        734        735        752        751        735        736        753        752        736        737        754        753        737        738        755        754        738        739        756        755        739        740        757        756        740        741        758        757        741        742        759        758        742        743        760        759        743        744        761        760        744        745        762        761        745        746        763        762        746        747        764        763        748        749        766        765        749        750        767        766        750        751        768        767        751        752        769        768        752        753        770        769        753        754        771        770        754        755        772        771        755        756        773        772        756        757        774        773        757        758        775        774        758        759        776        775        759        760        777        776        760        761        778        777        761        762        779        778        762        763        780        779        763        764        781        780        765        766        783        782        766        767        784        783        767        768        785        784        768        769        786        785        769        770        787        786        770        771        788        787        771        772        789        788        772        773        790        789        773        774        791        790        774        775        792        791        775        776        793        792        776        777        794        793        777        778        795        794        778        779        796        795        779        780        797        796        780        781        798        797        782        783        800        799        783        784        801        800        784        785        802        801        785        786        803        802        786        787        804        803        787        788        805        804        788        789        806        805        789        790        807        806        790        791        808        807        791        792        809        808        792        793        810        809        793        794        811        810        794        795        812        811        795        796        813        812        796        797        814        813        797        798        815        814        799        800        817        816        800        801        818        817        801        802        819        818        802        803        820        819        803        804        821        820        804        805        822        821        805        806        823        822        806        807        824        823        807        808        825        824        808        809        826        825        809        810        827        826        810        811        828        827        811        812        829        828        812        813        830        829        813        814        831        830        814        815        832        831        816        817        834        833        817        818        835        834        818        819        836        835        819        820        837        836        820        821        838        837        821        822        839        838        822        823        840        839        823        824        841        840        824        825        842        841        825        826        843        842        826        827        844        843        827        828        845        844        828        829        846        845        829        830        847        846        830        831        848        847        831        832        849        848        833        834        562        561        834        835        563        562        835        836        564        563        836        837        565        564        837        838        566        565        838        839        567        566        839        840        568        567        840        841        569        568        841        842        570        569        842        843        571        570        843        844        572        571        844        845        573        572        845        846        574        573        846        847        575        574        847        848        576        575        848        849        577        576        884        885        579        578        885        886        580        579        886        887        581        580        887        888        582        581        888        889        583        582        889        890        584        583        890        891        585        584        891        892        586        585        892        893        587        586        893        894        588        587        894        895        589        588        895        896        590        589        896        897        591        590        897        898        592        591        898        899        593        592        899        900        594        593        901        902        885        884        902        903        886        885        903        904        887        886        904        905        888        887        905        906        889        888        906        907        890        889        907        908        891        890        908        909        892        891        909        910        893        892        910        911        894        893        911        912        895        894        912        913        896        895        913        914        897        896        914        915        898        897        915        916        899        898        916        917        900        899        918        919        902        901        919        920        903        902        920        921        904        903        921        922        905        904        922        923        906        905        923        924        907        906        924        925        908        907        925        926        909        908        926        927        910        909        927        928        911        910        928        929        912        911        929        930        913        912        930        931        914        913        931        932        915        914        932        933        916        915        933        934        917        916        935        936        919        918        936        937        920        919        937        938        921        920        938        939        922        921        939        940        923        922        940        941        924        923        941        942        925        924        942        943        926        925        943        944        927        926        944        945        928        927        945        946        929        928        946        947        930        929        947        948        931        930        948        949        932        931        949        950        933        932        950        951        934        933        952        953        936        935        953        954        937        936        954        955        938        937        955        956        939        938        956        957        940        939        957        958        941        940        958        959        942        941        959        960        943        942        960        961        944        943        961        962        945        944        962        963        946        945        963        964        947        946        964        965        948        947        965        966        949        948        966        967        950        949        967        968        951        950        969        970        953        952        970        971        954        953        971        972        955        954        972        973        956        955        973        974        957        956        974        975        958        957        975        976        959        958        976        977        960        959        977        978        961        960        978        979        962        961        979        980        963        962        980        981        964        963        981        982        965        964        982        983        966        965        983        984        967        966        984        985        968        967        986        987        970        969        987        988        971        970        988        989        972        971        989        990        973        972        990        991        974        973        991        992        975        974        992        993        976        975        993        994        977        976        994        995        978        977        995        996        979        978        996        997        980        979        997        998        981        980        998        999        982        981        999       1000        983        982       1000       1001        984        983       1001       1002        985        984       1003       1004        987        986       1004       1005        988        987       1005       1006        989        988       1006       1007        990        989       1007       1008        991        990       1008       1009        992        991       1009       1010        993        992       1010       1011        994        993       1011       1012        995        994       1012       1013        996        995       1013       1014        997        996       1014       1015        998        997       1015       1016        999        998       1016       1017       1000        999       1017       1018       1001       1000       1018       1019       1002       1001       1020       1021       1004       1003       1021       1022       1005       1004       1022       1023       1006       1005       1023       1024       1007       1006       1024       1025       1008       1007       1025       1026       1009       1008       1026       1027       1010       1009       1027       1028       1011       1010       1028       1029       1012       1011       1029       1030       1013       1012       1030       1031       1014       1013       1031       1032       1015       1014       1032       1033       1016       1015       1033       1034       1017       1016       1034       1035       1018       1017       1035       1036       1019       1018       1037       1038       1021       1020       1038       1039       1022       1021       1039       1040       1023       1022       1040       1041       1024       1023       1041       1042       1025       1024       1042       1043       1026       1025       1043       1044       1027       1026       1044       1045       1028       1027       1045       1046       1029       1028       1046       1047       1030       1029       1047       1048       1031       1030       1048       1049       1032       1031       1049       1050       1033       1032       1050       1051       1034       1033       1051       1052       1035       1034       1052       1053       1036       1035       1054       1055       1038       1037       1055       1056       1039       1038       1056       1057       1040       1039       1057       1058       1041       1040       1058       1059       1042       1041       1059       1060       1043       1042       1060       1061       1044       1043       1061       1062       1045       1044       1062       1063       1046       1045       1063       1064       1047       1046       1064       1065       1048       1047       1065       1066       1049       1048       1066       1067       1050       1049       1067       1068       1051       1050       1068       1069       1052       1051       1069       1070       1053       1052       1071       1072       1055       1054       1072       1073       1056       1055       1073       1074       1057       1056       1074       1075       1058       1057       1075       1076       1059       1058       1076       1077       1060       1059       1077       1078       1061       1060       1078       1079       1062       1061       1079       1080       1063       1062       1080       1081       1064       1063       1081       1082       1065       1064       1082       1083       1066       1065       1083       1084       1067       1066       1084       1085       1068       1067       1085       1086       1069       1068       1086       1087       1070       1069       1088       1089       1072       1071       1089       1090       1073       1072       1090       1091       1074       1073       1091       1092       1075       1074       1092       1093       1076       1075       1093       1094       1077       1076       1094       1095       1078       1077       1095       1096       1079       1078       1096       1097       1080       1079       1097       1098       1081       1080       1098       1099       1082       1081       1099       1100       1083       1082       1100       1101       1084       1083       1101       1102       1085       1084       1102       1103       1086       1085       1103       1104       1087       1086       1105       1106       1089       1088       1106       1107       1090       1089       1107       1108       1091       1090       1108       1109       1092       1091       1109       1110       1093       1092       1110       1111       1094       1093       1111       1112       1095       1094       1112       1113       1096       1095       1113       1114       1097       1096       1114       1115       1098       1097       1115       1116       1099       1098       1116       1117       1100       1099       1117       1118       1101       1100       1118       1119       1102       1101       1119       1120       1103       1102       1120       1121       1104       1103       1122       1123       1106       1105       1123       1124       1107       1106       1124       1125       1108       1107       1125       1126       1109       1108       1126       1127       1110       1109       1127       1128       1111       1110       1128       1129       1112       1111       1129       1130       1113       1112       1130       1131       1114       1113       1131       1132       1115       1114       1132       1133       1116       1115       1133       1134       1117       1116       1134       1135       1118       1117       1135       1136       1119       1118       1136       1137       1120       1119       1137       1138       1121       1120        272        273       1123       1122        273        274       1124       1123        274        275       1125       1124        275        276       1126       1125        276        277       1127       1126        277        278       1128       1127        278        279       1129       1128        279        280       1130       1129        280        281       1131       1130        281        282       1132       1131        282        283       1133       1132        283        284       1134       1133        284        285       1135       1134        285        286       1136       1135        286        287       1137       1136        287        288       1138       1137 </DataArray>
<DataArray type="Int32"                                    Name="offsets"                                                      NumberOfComponents=" 1" format="ascii">
         4          8         12         16         20         24         28         32         36         40         44         48         52         56         60         64         68         72         76         80         84         88         92         96        100        104        108        112        116        120        124        128        132        136        140        144        148        152        156        160        164        168        172        176        180        184        188        192        196        200        204        208        212        216        220        224        228        232        236        240        244        248        252        256        260        264        268        272        276        280        284        288        292        296        300        304        308        312        316        320        324        328        332        336        340        344        348        352        356        360        364        368        372        376        380        384        388        392        396        400        404        408        412        416        420        424        428        432        436        440        444        448        452        456        460        464        468        472        476        480        484        488        492        496        500        504        508        512        516        520        524        528        532        536        540        544        548        552        556        560        564        568        572        576        580        584        588        592        596        600        604        608        612        616        620        624        628        632        636        640        644        648        652        656        660        664        668        672        676        680        684        688        692        696        700        704        708        712        716        720        724        728        732        736        740        744        748        752        756        760        764        768        772        776        780        784        788        792        796        800        804        808        812        816        820        824        828        832        836        840        844        848        852        856        860        864        868        872        876        880        884        888        892        896        900        904        908        912        916        920        924        928        932        936        940        944        948        952        956        960        964        968        972        976        980        984        988        992        996       1000       1004       1008       1012       1016       1020       1024       1028       1032       1036       1040       1044       1048       1052       1056       1060       1064       1068       1072       1076       1080       1084       1088       1092       1096       1100       1104       1108       1112       1116       1120       1124       1128       1132       1136       1140       1144       1148       1152       1156       1160       1164       1168       1172       1176       1180       1184       1188       1192       1196       1200       1204       1208       1212       1216       1220       1224       1228       1232       1236       1240       1244       1248       1252       1256       1260       1264       1268       1272       1276       1280       1284       1288       1292       1296       1300       1304       1308       1312       1316       1320       1324       1328       1332       1336       1340       1344       1348       1352       1356       1360       1364       1368       1372       1376       1380       1384       1388       1392       1396       1400       1404       1408       1412       1416       1420       1424       1428       1432       1436       1440       1444       1448       1452       1456       1460       1464       1468       1472       1476       1480       1484       1488       1492       1496       1500       1504       1508       1512       1516       1520       1524       1528       1532       1536       1540       1544       1548       1552       1556       1560       1564       1568       1572       1576       1580       1584       1588       1592       1596       1600       1604       1608       1612       1616       1620       1624       1628       1632       1636       1640       1644       1648       1652       1656       1660       1664       1668       1672       1676       1680       1684       1688       1692       1696       1700       1704       1708       1712       1716       1720       1724       1728       1732       1736       1740       1744       1748       1752       1756       1760       1764       1768       1772       1776       1780       1784       1788       1792       1796       1800       1804       1808       1812       1816       1820       1824       1828       1832       1836       1840       1844       1848       1852       1856       1860       1864       1868       1872       1876       1880       1884       1888       1892       1896       1900       1904       1908       1912       1916       1920       1924       1928       1932       1936       1940       1944       1948       1952       1956       1960       1964       1968       1972       1976       1980       1984       1988       1992       1996       2000       2004       2008       2012       2016       2020       2024       2028       2032       2036       2040       2044       2048       2052       2056       2060       2064       2068       2072       2076       2080       2084       2088       2092       2096       2100       2104       2108       2112       2116       2120       2124       2128       2132       2136       2140       2144       2148       2152       2156       2160       2164       2168       2172       2176       2180       2184       2188       2192       2196       2200       2204       2208       2212       2216       2220       2224       2228       2232       2236       2240       2244       2248       2252       2256       2260       2264       2268       2272       2276       2280       2284       2288       2292       2296       2300       2304       2308       2312       2316       2320       2324       2328       2332       2336       2340       2344       2348       2352       2356       2360       2364       2368       2372       2376       2380       2384       2388       2392       2396       2400       2404       2408       2412       2416       2420       2424       2428       2432       2436       2440       2444       2448       2452       2456       2460       2464       2468       2472       2476       2480       2484       2488       2492       2496       2500       2504       2508       2512       2516       2520       2524       2528       2532       2536       2540       2544       2548       2552       2556       2560       2564       2568       2572       2576       2580       2584       2588       2592       2596       2600       2604       2608       2612       2616       2620       2624       2628       2632       2636       2640       2644       2648       2652       2656       2660       2664       2668       2672       2676       2680       2684       2688       2692       2696       2700       2704       2708       2712       2716       2720       2724       2728       2732       2736       2740       2744       2748       2752       2756       2760       2764       2768       2772       2776       2780       2784       2788       2792       2796       2800       2804       2808       2812       2816       2820       2824       2828       2832       2836       2840       2844       2848       2852       2856       2860       2864       2868       2872       2876       2880       2884       2888       2892       2896       2900       2904       2908       2912       2916       2920       2924       2928       2932       2936       2940       2944       2948       2952       2956       2960       2964       2968       2972       2976       2980       2984       2988       2992       2996       3000       3004       3008       3012       3016       3020       3024       3028       3032       3036       3040       3044       3048       3052       3056       3060       3064       3068       3072       3076       3080       3084       3088       3092       3096       3100       3104       3108       3112       3116       3120       3124       3128       3132       3136       3140       3144       3148       3152       3156       3160       3164       3168       3172       3176       3180       3184       3188       3192       3196       3200       3204       3208       3212       3216       3220       3224       3228       3232       3236       3240       3244       3248       3252       3256       3260       3264       3268       3272       3276       3280       3284       3288       3292       3296       3300       3304       3308       3312       3316       3320       3324       3328       3332       3336       3340       3344       3348       3352       3356       3360       3364       3368       3372       3376       3380       3384       3388       3392       3396       3400       3404       3408       3412       3416       3420       3424       3428       3432       3436       3440       3444       3448       3452       3456       3460       3464       3468       3472       3476       3480       3484       3488       3492       3496       3500       3504       3508       3512       3516       3520       3524       3528       3532       3536       3540       3544       3548       3552       3556       3560       3564       3568       3572       3576       3580       3584       3588       3592       3596       3600       3604       3608       3612       3616       3620       3624       3628       3632       3636       3640       3644       3648       3652       3656       3660       3664       3668       3672       3676       3680       3684       3688       3692       3696       3700       3704       3708       3712       3716       3720       3724       3728       3732       3736       3740       3744       3748       3752       3756       3760       3764       3768       3772       3776       3780       3784       3788       3792       3796       3800       3804       3808       3812       3816       3820       3824       3828       3832       3836       3840       3844       3848       3852       3856       3860       3864       3868       3872       3876       3880       3884       3888       3892       3896       3900       3904       3908       3912       3916       3920       3924       3928       3932       3936       3940       3944       3948       3952       3956       3960       3964       3968       3972       3976       3980       3984       3988       3992       3996       4000       4004       4008       4012       4016       4020       4024       4028       4032       4036       4040       4044       4048       4052       4056       4060       4064       4068       4072       4076       4080       4084       4088       4092       4096 </DataArray>
<DataArray type="UInt8"                                    Name="types"                                                      NumberOfComponents=" 1" format="ascii">
         9          9          9          9          9          9          9          9          9          9          9          9          9          9          9          9          9          9          9          9          9          9          9          9          9          9          9          9          9          9          9          9          9          9          9          9          9          9          9          9          9          9          9          9          9          9          9          9          9          9          9          9          9          9          9          9          9          9          9          9          9          9          9          9          9          9          9          9          9          9          9          9          9          9          9          9          9          9          9          9          9          9          9          9          9          9          9          9          9          9          9          9          9          9          9          9          9          9          9          9          9          9          9          9          9          9          9          9          9          9          9          9          9          9          9          9          9          9          9          9          9          9          9          9          9          9          9          9          9          9          9          9          9          9          9          9          9          9          9          9          9          9          9          9          9          9          9          9          9          9          9          9          9          9          9          9          9          9          9          9          9          9          9          9          9          9          9          9          9          9          9          9          9          9          9          9          9          9          9          9          9          9          9          9          9          9          9          9          9          9          9          9          9          9          9          9          9          9          9          9          9          9          9          9          9          9          9          9          9          9          9          9          9          9          9          9          9          9          9          9          9          9          9          9          9          9          9          9          9          9          9          9          9          9          9          9          9          9          9          9          9          9          9          9          9          9          9          9          9          9          9          9          9          9          9          9          9          9          9          9          9          9          9          9          9          9          9          9          9          9          9          9          9          9          9          9          9          9          9          9          9          9          9          9          9          9          9          9          9          9          9          9          9          9          9          9          9          9          9          9          9          9          9          9          9          9          9          9          9          9          9          9          9          9          9          9          9          9          9          9          9          9          9          9          9          9          9          9          9          9          9          9          9          9          9          9          9          9          9          9          9          9          9          9          9          9          9          9          9          9          9          9          9          9          9          9          9          9          9          9          9          9          9          9          9          9          9          9          9          9          9          9          9          9          9          9          9          9          9          9          9          9          9          9          9          9          9          9          9          9          9          9          9          9          9          9          9          9          9          9          9          9          9          9          9          9          9          9          9          9          9          9          9          9          9          9          9          9          9          9          9          9          9          9          9          9          9          9          9          9          9          9          9          9          9          9          9          9          9          9          9          9          9          9          9          9          9          9          9          9          9          9          9          9          9          9          9          9          9          9          9          9          9          9          9          9          9          9          9          9          9          9          9          9          9          9          9          9          9          9          9          9          9          9          9          9          9          9          9          9          9          9          9          9          9          9          9          9          9          9          9          9          9          9          9          9          9          9          9          9          9          9          9          9          9          9          9          9          9          9          9          9          9          9          9          9          9          9          9          9          9          9          9          9          9          9          9          9          9          9          9          9          9          9          9          9          9          9          9          9          9          9          9          9          9          9          9          9          9          9          9          9          9          9          9          9          9          9          9          9          9          9          9          9          9          9          9          9          9          9          9          9          9          9          9          9          9          9          9          9          9          9          9          9          9          9          9          9          9          9          9          9          9          9          9          9          9          9          9          9          9          9          9          9          9          9          9          9          9          9          9          9          9          9          9          9          9          9          9          9          9          9          9          9          9          9          9          9          9          9          9          9          9          9          9          9          9          9          9          9          9          9          9          9          9          9          9          9          9          9          9          9          9          9          9          9          9          9          9          9          9          9          9          9          9          9          9          9          9          9          9          9          9          9          9          9          9          9          9          9          9          9          9          9          9          9          9          9          9          9          9          9          9          9          9          9          9          9          9          9          9          9          9          9          9          9          9          9          9          9          9          9          9          9          9          9          9          9          9          9          9          9          9          9          9          9          9          9          9          9          9          9          9          9          9          9          9          9          9          9          9          9          9          9          9          9          9          9          9          9          9          9          9          9          9          9          9          9          9          9          9          9          9          9          9          9          9          9          9          9          9          9          9          9          9          9          9          9          9          9          9          9          9          9          9          9          9          9          9          9          9          9          9          9          9          9          9          9          9          9          9          9          9          9          9          9          9          9          9          9          9          9          9          9          9          9          9          9          9          9          9          9          9          9          9          9          9          9          9          9          9          9          9          9          9          9          9          9          9          9          9          9          9          9          9          9          9          9          9          9          9          9          9          9          9          9          9          9          9          9          9          9          9          9          9          9          9          9          9          9          9          9          9          9          9          9          9          9          9          9          9          9          9          9          9          9          9          9          9          9          9          9          9          9          9          9          9          9          9          9          9          9          9          9          9          9          9          9          9          9          9          9          9          9          9          9          9          9          9          9          9          9          9          9          9          9          9          9          9          9          9          9          9          9          9          9          9          9          9          9          9          9          9          9          9          9          9          9          9          9          9          9          9          9          9          9          9          9          9          9          9          9          9          9          9          9          9          9          9          9          9          9          9          9          9          9          9          9          9          9          9          9          9          9          9          9          9          9          9          9          9          9          9          9          9          9          9          9          9          9          9          9          9          9          9          9          9          9          9          9          9          9          9          9 </DataArray>
</Cells>
<CellData>
<DataArray type="Int32"                                    Name="material"                                                      NumberOfComponents=" 1" format="ascii">
         1          1          1          1          1          1          1          1          1          1          1          1          1          1          1          1          1          1          1          1          1          1          1          1          1          1          1          1          1          1          1          1          1          1          1          1          1          1          1          1          1          1          1          1          1          1          1          1          1          1          1          1          1          1          1          1          1          1          1          1          1          1          1          1          1          1          1          1          1          1          1          1          1          1          1          1          1          1          1          1          1          1          1          1          1          1          1          1          1          1          1          1          1          1          1          1          1          1          1          1          1          1          1          1          1          1          1          1          1          1          1          1          1          1          1          1          1          1          1          1          1          1          1          1          1          1          1          1          1          1          1          1          1          1          1          1          1          1          1          1          1          1          1          1          1          1          1          1          1          1          1          1          1          1          1          1          1          1          1          1          1          1          1          1          1          1          1          1          1          1          1          1          1          1          1          1          1          1          1          1          1          1          1          1          1          1          1          1          1          1          1          1          1          1          1          1          1          1          1          1          1          1          1          1          1          1          1          1          1          1          1          1          1          1          1          1          1          1          1          1          1          1          1          1          1          1          1          1          1          1          1          1          1          1          1          1          1          1          1          1          1          1          1          1          1          1          1          1          1          1          1          1          1          1          1          1          1          1          1          1          1          1          1          1          1          1          1          1          1          1          1          1          1          1          1          1          1          1          1          1          1          1          1          1          1          1          1          1          1          1          1          1          1          1          1          1          1          1          1          1          1          1          1          1          1          1          1          1          1          1          1          1          1          1          1          1          1          1          1          1          1          1          1          1          1          1          1          1          1          1          1          1          1          1          1          1          1          1          1          1          1          1          1          1          1          1          1          1          1          1          1          1          1          1          1          1          1          1          1          1          1          1          1          1          1          1          1          1          1          1          1          1          1          1          1          1          1          1          1          1          1          1          1          1          1          1          1          1          1          1          1          1          1          1          1          1          1          1          1          1          1          1          1          1          1          1          1          1          1          1          1          1          1          1          1          1          1          1          1          1          1          1          1          1          1          1          1          1          1          1          1          1          1          1          1          1          1          1          1          1          1          1          1          1          1          1          1          1          1          1          1          1          1          1          1          1          1          1          1          1          1          1          1          1          1          1          1          1          1          1          1          1          1          1          1          1          1          1          1          1          1          1          1          1          1          1          1          1          1          1          1          1          1          1          1          1          1          1          1          1          1          1          1          1          1          1          1          1          1          1          1          1          1          1          1          1          1          1          1          1          1          1          1          1          1          1          1          1          1          1          1          1          1          1          1          1          1          1          1          1          1          1          1          1          1          1          1          1          1          1          1          1          1          1          1          1          1          1          1          1          1          1          1          1          1          1          1          1          1          1          1          1          1          1          1          1          1          1          1          1          1          1          1          1          1          1          1          1          1          1          1          1          1          1          1          1          1          1          1          1          1          1          1          1          1          1          1          1          1          1          1          1          1          1          1          1          1          1          1          1          1          1          1          1          1          1          1          1          1          1          1          1          1          1          1          1          1          1          1          1          1          1          1          1          1          1          1          1          1          1          1          1          1          1          1          1          1          1          1          1          1          1          1          1          1          1          1          1          1          1          1          1          1          1          1          1          1          1          1          1          1          1          1          1          1          1          1          1          1          1          1          1          1          1          1          1          1          1          1          1          1          1          1          1          1          1          1          1          1          1          1          1          1          1          1          1          1          1          1          1          1          1          1          1          1          1          1          1          1          1          1          1          1          1          1          1          1          1          1          1          1          1          1          1          1          1          1          1          1          1          1          1          1          1          1          1          1          1          1          1          1          1          1          1          1          1          1          1          1          1          1          1          1          1          1          1          1          1          1          1          1          1          1          1          1          1          1          1          1          1          1          1          1          1          1          1          1          1          1          1          1          1          1          1          1          1          1          1          1          1          1          1          1          1          1          1          1          1          1          1          1          1          1          1          1          1          1          1          1          1          1          1          1          1          1          1          1          1          1          1          1          1          1          1          1          1          1          1          1          1          1          1          1          1          1          1          1          1          1          1          1          1          1          1          1          1          1          1          1          1          1          1          1          1          1          1          1          1          1          1          1          1          1          1          1          1          1          1          1          1          1          1          1          1          1          1          1          1          1          1          1          1          1          1          1          1          1          1          1          1          1          1          1          1          1          1          1          1          1          1          1          1          1          1          1          1          1          1          1          1          1          1          1          1          1          1          1          1          1          1          1          1          1          1          1          1          1          1          1          1          1          1          1          1          1          1          1          1          1          1          1          1          1          1          1          1          1          1          1          1          1          1          1          1          1          1          1          1          1          1          1          1          1          1          1          1          1          1          1          1          1          1          1          1          1          1          1          1          1          1          1          1          1          1          1          1          1          1          1          1          1          1          1          1          1          1          1          1          1          1          1          1          1          1 </DataArray>
</CellData>
<PointData>
<DataArray type="Float64"                                    Name="u"                                                      NumberOfComponents=" 3" format="ascii">
             -0.000894836               0.000000000               0.999999985              -0.000945108               0.000000000               0.999999985              -0.000966686              -0.000000000               0.999999985              -0.000979127              -0.000000000               0.999999985              -0.000989420               0.000000000               0.999999985              -0.001000200              -0.000000000               0.999999985              -0.001012051              -0.000000000               0.999999985              -0.001024853              -0.000000000               0.999999985              -0.001038247              -0.000000000               0.999999985              -0.001051842               0.000000000               0.999999985              -0.001065136               0.000000000               0.999999985              -0.001077789               0.000000000               0.999999985              -0.001089501               0.000000000               0.999999985              -0.001100027              -0.000000000               0.999999985              -0.001108979               0.000000000               0.999999985              -0.001115595              -0.000000000               0.999999985              -0.001119094              -0.000000000               0.999999985              -0.000889798               0.000131184               0.999999985              -0.000935867               0.000104178               0.999999985              -0.000954713               0.000092023               0.999999985              -0.000965347               0.000087082               0.999999985              -0.000974359               0.000085791               0.999999985              -0.000984036               0.000086184               0.999999985              -0.000994849               0.000087115               0.999999985              -0.001006590               0.000087627               0.999999985              -0.001018781               0.000087302               0.999999985              -0.001030902               0.000085632               0.999999985              -0.001042571               0.000082544               0.999999985              -0.001053392               0.000077905               0.999999985              -0.001063018               0.000071477               0.999999985              -0.001071261               0.000062776               0.999999985              -0.001077751               0.000050983               0.999999985              -0.001081935               0.000035124               0.999999985              -0.001083181               0.000013898               0.999999985              -0.000874814               0.000261148               0.999999985              -0.000908499               0.000208038               0.999999985              -0.000919733               0.000184969               0.999999985              -0.000925545               0.000176190               0.999999985              -0.000931213               0.000174370               0.999999985              -0.000938092               0.000175711               0.999999985              -0.000946132               0.000177734               0.999999985              -0.000954853               0.000179084               0.999999985              -0.000963687               0.000178489               0.999999985              -0.000972056               0.000175603               0.999999985              -0.000979576               0.000169680               0.999999985              -0.000985721               0.000160747               0.999999985              -0.000990189               0.000148644               0.999999985              -0.000992797               0.000132517               0.999999985              -0.000993128               0.000110983               0.999999985              -0.000990978               0.000082911               0.999999985              -0.000986304               0.000047131               0.999999985              -0.000850234               0.000388733               0.999999985              -0.000864401               0.000311289               0.999999985              -0.000864577               0.000279744               0.999999985              -0.000863866               0.000268996               0.999999985              -0.000865216               0.000267872               0.999999985              -0.000868535               0.000270656               0.999999985              -0.000872986               0.000274274               0.999999985              -0.000877745               0.000276507               0.999999985              -0.000881974               0.000276188               0.999999985              -0.000885107               0.000272155               0.999999985              -0.000886534               0.000264026               0.999999985              -0.000885959               0.000251794               0.999999985              -0.000883196               0.000235214               0.999999985              -0.000877941               0.000213371               0.999999985              -0.000870073               0.000185197               0.999999985              -0.000859637               0.000150113               0.999999985              -0.000846984               0.000107454               0.999999985              -0.000816479               0.000512841               0.999999985              -0.000805879               0.000413873               0.999999985              -0.000793778               0.000376830               0.999999985              -0.000786580               0.000366121               0.999999985              -0.000783864               0.000366793               0.999999985              -0.000783761               0.000371714               0.999999985              -0.000784646               0.000377073               0.999999985              -0.000785074               0.000380474               0.999999985              -0.000784095               0.000380231               0.999999985              -0.000780849               0.000375276               0.999999985              -0.000775103               0.000365412               0.999999985              -0.000766620               0.000350688               0.999999985              -0.000755189               0.000330975               0.999999985              -0.000740768               0.000305598               0.999999985              -0.000723453               0.000274045               0.999999985              -0.000703722               0.000236474               0.999999985              -0.000682275               0.000193287               0.999999985              -0.000774395               0.000632239               0.999999985              -0.000735990               0.000515889               0.999999985              -0.000712453               0.000476371               0.999999985              -0.000700290               0.000467339               0.999999985              -0.000694711               0.000470637               0.999999985              -0.000692040               0.000478009               0.999999985              -0.000689616               0.000485087               0.999999985              -0.000685679               0.000489280               0.999999985              -0.000679027               0.000488802               0.999999985              -0.000668872               0.000482887               0.999999985              -0.000655166               0.000471643               0.999999985              -0.000637868               0.000455168               0.999999985              -0.000616968               0.000433541               0.999999985              -0.000592742               0.000406414               0.999999985              -0.000565656               0.000373852               0.999999985              -0.000536482               0.000336882               0.999999985              -0.000505999               0.000296630               0.999999985              -0.000724739               0.000745849               0.999999985              -0.000658213               0.000617411               0.999999985              -0.000625953               0.000577917               0.999999985              -0.000611274               0.000571572               0.999999985              -0.000604617               0.000577653               0.999999985              -0.000600217               0.000587307               0.999999985              -0.000594728               0.000595697               0.999999985              -0.000586190               0.000600261               0.999999985              -0.000573274               0.000599342               0.999999985              -0.000555545               0.000592477               0.999999985              -0.000533041               0.000580133               0.999999985              -0.000506087               0.000562467               0.999999985              -0.000474978               0.000539764               0.999999985              -0.000440457               0.000512127               0.999999985              -0.000403313               0.000480105               0.999999985              -0.000364409               0.000445156               0.999999985              -0.000324416               0.000408641               0.999999985              -0.000668470               0.000852596               0.999999985              -0.000576154               0.000718283               0.999999985              -0.000539080               0.000680556               0.999999985              -0.000524830               0.000676942               0.999999985              -0.000518423               0.000685569               0.999999985              -0.000512784               0.000697001               0.999999985              -0.000504158               0.000706277               0.999999985              -0.000490344               0.000710841               0.999999985              -0.000470279               0.000709187               0.999999985              -0.000443955               0.000701447               0.999999985              -0.000411812               0.000688211               0.999999985              -0.000374366               0.000669727               0.999999985              -0.000332510               0.000646404               0.999999985              -0.000287320               0.000618868               0.999999985              -0.000239669               0.000588143               0.999999985              -0.000190440               0.000555859               0.999999985              -0.000140434               0.000523012               0.999999985              -0.000607515               0.000950486               0.999999985              -0.000492665               0.000818370               0.999999985              -0.000456289               0.000782723               0.999999985              -0.000444411               0.000781331               0.999999985              -0.000439022               0.000792128               0.999999985              -0.000432182               0.000804958               0.999999985              -0.000419813               0.000814674               0.999999985              -0.000399684               0.000818792               0.999999985              -0.000371315               0.000816432               0.999999985              -0.000335349               0.000808016               0.999999985              -0.000292485               0.000793891               0.999999985              -0.000243710               0.000774570               0.999999985              -0.000190308               0.000750900               0.999999985              -0.000133428               0.000724093               0.999999985              -0.000074305               0.000695868               0.999999985              -0.000014167               0.000667322               0.999999985               0.000046035               0.000638891               0.999999985              -0.000544446               0.001043308               0.999999985              -0.000422552               0.000930746               0.999999985              -0.000383504               0.000891284               0.999999985              -0.000371047               0.000885125               0.999999985              -0.000366484               0.000893126               0.999999985              -0.000361751               0.000905894               0.999999985              -0.000352694               0.000918144               0.999999985              -0.000336750               0.000927144               0.999999985              -0.000313044               0.000931557               0.999999985              -0.000281958               0.000931069               0.999999985              -0.000243884               0.000925758               0.999999985              -0.000199618               0.000915868               0.999999985              -0.000149914               0.000901844               0.999999985              -0.000095221               0.000884685               0.999999985              -0.000036708               0.000865487               0.999999985               0.000023759               0.000845640               0.999999985               0.000084699               0.000825706               0.999999985              -0.000475707               0.001127997               0.999999985              -0.000355220               0.001039675               0.999999985              -0.000313615               0.001002895               0.999999985              -0.000299760               0.000994257               0.999999985              -0.000295117               0.001000389               0.999999985              -0.000291661               0.001013163               0.999999985              -0.000285085               0.001027865               0.999999985              -0.000272801               0.001041308               0.999999985              -0.000253636               0.001051794               0.999999985              -0.000227473               0.001058603               0.999999985              -0.000194439               0.001061469               0.999999985              -0.000154900               0.001060406               0.999999985              -0.000109264               0.001055633               0.999999985              -0.000057803               0.001047555               0.999999985              -0.000001096               0.001037079               0.999999985               0.000059435               0.001025448               0.999999985               0.000121871               0.001013635               0.999999985              -0.000402786               0.001202444               0.999999985              -0.000290684               0.001141746               0.999999985              -0.000248463               0.001112312               0.999999985              -0.000233054               0.001104510               0.999999985              -0.000227656               0.001110220               0.999999985              -0.000224518               0.001123689               0.999999985              -0.000219716               0.001140737               0.999999985              -0.000210517               0.001158387               0.999999985              -0.000195455               0.001174702               0.999999985              -0.000174195               0.001188487               0.999999985              -0.000146389               0.001199285               0.999999985              -0.000111869               0.001206818               0.999999985              -0.000071180               0.001210997               0.999999985              -0.000024061               0.001211987               0.999999985               0.000029907               0.001210330               0.999999985               0.000089828               0.001206942               0.999999985               0.000154017               0.001202941               0.999999985              -0.000326442               0.001265282               0.999999985              -0.000228936               0.001232737               0.999999985              -0.000189014               0.001213921               0.999999985              -0.000172874               0.001209961               0.999999985              -0.000166511               0.001217228               0.999999985              -0.000163299               0.001232228               0.999999985              -0.000159531               0.001251803               0.999999985              -0.000152710               0.001273435               0.999999985              -0.000141244               0.001295243               0.999999985              -0.000124552               0.001315927               0.999999985              -0.000102075               0.001334607               0.999999985              -0.000073485               0.001350794               0.999999985              -0.000038615               0.001364093               0.999999985               0.000003021               0.001374481               0.999999985               0.000052269               0.001382004               0.999999985               0.000109455               0.001387328               0.999999985               0.000173984               0.001391383               0.999999985              -0.000247366               0.001315271               0.999999985              -0.000169657               0.001308442               0.999999985              -0.000135343               0.001301753               0.999999985              -0.000120189               0.001303549               0.999999985              -0.000113599               0.001313922               0.999999985              -0.000110265               0.001331271               0.999999985              -0.000107181               0.001353609               0.999999985              -0.000102150               0.001379038               0.999999985              -0.000093732               0.001405868               0.999999985              -0.000081468               0.001432856               0.999999985              -0.000064680               0.001458954               0.999999985              -0.000042667               0.001483324               0.999999985              -0.000014876               0.001505565               0.999999985               0.000019380               0.001525455               0.999999985               0.000061096               0.001542772               0.999999985               0.000111706               0.001557637               0.999999985               0.000172161               0.001570366               0.999999985              -0.000166100               0.001351688               0.999999985              -0.000112151               0.001365364               0.999999985              -0.000086887               0.001369791               0.999999985              -0.000074937               0.001377592               0.999999985              -0.000069369               0.001391625               0.999999985              -0.000066489               0.001411632               0.999999985              -0.000064053               0.001436614               0.999999985              -0.000060617               0.001465147               0.999999985              -0.000055115               0.001495972               0.999999985              -0.000047098               0.001528044               0.999999985              -0.000036078               0.001560361               0.999999985              -0.000021171               0.001592043               0.999999985              -0.000001745               0.001622473               0.999999985               0.000022952               0.001651131               0.999999985               0.000053789               0.001677718               0.999999985               0.000092262               0.001701911               0.999999985               0.000140535               0.001723292               0.999999985              -0.000083386               0.001373843               0.999999985              -0.000055794               0.001400620               0.999999985              -0.000042394               0.001412830               0.999999985              -0.000035778               0.001425166               0.999999985              -0.000032572               0.001442024               0.999999985              -0.000030860               0.001464173               0.999999985              -0.000029513               0.001491118               0.999999985              -0.000027676               0.001521820               0.999999985              -0.000024947               0.001555228               0.999999985              -0.000021133               0.001590498               0.999999985              -0.000015600               0.001626863               0.999999985              -0.000008003               0.001663584               0.999999985               0.000001980               0.001699929               0.999999985               0.000014863               0.001735126               0.999999985               0.000031342               0.001768700               0.999999985               0.000052416               0.001799969               0.999999985               0.000079504               0.001828047               0.999999985               0.000000000               0.001381308               0.999999985              -0.000000000               0.001412557               0.999999985               0.000000000               0.001427507               0.999999985              -0.000000000               0.001441528               0.999999985               0.000000000               0.001459468               0.999999985               0.000000000               0.001482418               0.999999985               0.000000000               0.001510067               0.999999985              -0.000000000               0.001541542               0.999999985              -0.000000000               0.001575974               0.999999985              -0.000000000               0.001612480               0.999999985              -0.000000000               0.001650294               0.999999985              -0.000000000               0.001688686               0.999999985              -0.000000000               0.001727058               0.999999985               0.000000000               0.001764773               0.999999985               0.000000000               0.001800942               0.999999985              -0.000000000               0.001834650               0.999999985               0.000000000               0.001865120               0.999999985              -0.000894836               0.000000000               0.999999985              -0.000945108               0.000000000               0.999999985              -0.000966686              -0.000000000               0.999999985              -0.000979127              -0.000000000               0.999999985              -0.000989420               0.000000000               0.999999985              -0.001000200              -0.000000000               0.999999985              -0.001012051              -0.000000000               0.999999985              -0.001024853              -0.000000000               0.999999985              -0.001038247              -0.000000000               0.999999985              -0.001051842               0.000000000               0.999999985              -0.001065136               0.000000000               0.999999985              -0.001077789               0.000000000               0.999999985              -0.001089501               0.000000000               0.999999985              -0.001100027              -0.000000000               0.999999985              -0.001108979               0.000000000               0.999999985              -0.001115595              -0.000000000               0.999999985              -0.001119094              -0.000000000               0.999999985              -0.000889798              -0.000131184               0.999999985              -0.000935867              -0.000104178               0.999999985              -0.000954713              -0.000092023               0.999999985              -0.000965347              -0.000087082               0.999999985              -0.000974359              -0.000085791               0.999999985              -0.000984036              -0.000086184               0.999999985              -0.000994849              -0.000087115               0.999999985              -0.001006590              -0.000087627               0.999999985              -0.001018781              -0.000087302               0.999999985              -0.001030902              -0.000085632               0.999999985              -0.001042571              -0.000082544               0.999999985              -0.001053392              -0.000077905               0.999999985              -0.001063018              -0.000071477               0.999999985              -0.001071261              -0.000062776               0.999999985              -0.001077751              -0.000050983               0.999999985              -0.001081935              -0.000035124               0.999999985              -0.001083181              -0.000013898               0.999999985              -0.000874814              -0.000261148               0.999999985              -0.000908499              -0.000208038               0.999999985              -0.000919733              -0.000184969               0.999999985              -0.000925545              -0.000176190               0.999999985              -0.000931213              -0.000174370               0.999999985              -0.000938092              -0.000175711               0.999999985              -0.000946132              -0.000177734               0.999999985              -0.000954853              -0.000179084               0.999999985              -0.000963687              -0.000178489               0.999999985              -0.000972056              -0.000175603               0.999999985              -0.000979576              -0.000169680               0.999999985              -0.000985721              -0.000160747               0.999999985              -0.000990189              -0.000148644               0.999999985              -0.000992797              -0.000132517               0.999999985              -0.000993128              -0.000110983               0.999999985              -0.000990978              -0.000082911               0.999999985              -0.000986304              -0.000047131               0.999999985              -0.000850234              -0.000388733               0.999999985              -0.000864401              -0.000311289               0.999999985              -0.000864577              -0.000279744               0.999999985              -0.000863866              -0.000268996               0.999999985              -0.000865216              -0.000267872               0.999999985              -0.000868535              -0.000270656               0.999999985              -0.000872986              -0.000274274               0.999999985              -0.000877745              -0.000276507               0.999999985              -0.000881974              -0.000276188               0.999999985              -0.000885107              -0.000272155               0.999999985              -0.000886534              -0.000264026               0.999999985              -0.000885959              -0.000251794               0.999999985              -0.000883196              -0.000235214               0.999999985              -0.000877941              -0.000213371               0.999999985              -0.000870073              -0.000185197               0.999999985              -0.000859637              -0.000150113               0.999999985              -0.000846984              -0.000107454               0.999999985              -0.000816479              -0.000512841               0.999999985              -0.000805879              -0.000413873               0.999999985              -0.000793778              -0.000376830               0.999999985              -0.000786580              -0.000366121               0.999999985              -0.000783864              -0.000366793               0.999999985              -0.000783761              -0.000371714               0.999999985              -0.000784646              -0.000377073               0.999999985              -0.000785074              -0.000380474               0.999999985              -0.000784095              -0.000380231               0.999999985              -0.000780849              -0.000375276               0.999999985              -0.000775103              -0.000365412               0.999999985              -0.000766620              -0.000350688               0.999999985              -0.000755189              -0.000330975               0.999999985              -0.000740768              -0.000305598               0.999999985              -0.000723453              -0.000274045               0.999999985              -0.000703722              -0.000236474               0.999999985              -0.000682275              -0.000193287               0.999999985              -0.000774395              -0.000632239               0.999999985              -0.000735990              -0.000515889               0.999999985              -0.000712453              -0.000476371               0.999999985              -0.000700290              -0.000467339               0.999999985              -0.000694711              -0.000470637               0.999999985              -0.000692040              -0.000478009               0.999999985              -0.000689616              -0.000485087               0.999999985              -0.000685679              -0.000489280               0.999999985              -0.000679027              -0.000488802               0.999999985              -0.000668872              -0.000482887               0.999999985              -0.000655166              -0.000471643               0.999999985              -0.000637868              -0.000455168               0.999999985              -0.000616968              -0.000433541               0.999999985              -0.000592742              -0.000406414               0.999999985              -0.000565656              -0.000373852               0.999999985              -0.000536482              -0.000336882               0.999999985              -0.000505999              -0.000296630               0.999999985              -0.000724739              -0.000745849               0.999999985              -0.000658213              -0.000617411               0.999999985              -0.000625953              -0.000577917               0.999999985              -0.000611274              -0.000571572               0.999999985              -0.000604617              -0.000577653               0.999999985              -0.000600217              -0.000587307               0.999999985              -0.000594728              -0.000595697               0.999999985              -0.000586190              -0.000600261               0.999999985              -0.000573274              -0.000599342               0.999999985              -0.000555545              -0.000592477               0.999999985              -0.000533041              -0.000580133               0.999999985              -0.000506087              -0.000562467               0.999999985              -0.000474978              -0.000539764               0.999999985              -0.000440457              -0.000512127               0.999999985              -0.000403313              -0.000480105               0.999999985              -0.000364409              -0.000445156               0.999999985              -0.000324416              -0.000408641               0.999999985              -0.000668470              -0.000852596               0.999999985              -0.000576154              -0.000718283               0.999999985              -0.000539080              -0.000680556               0.999999985              -0.000524830              -0.000676942               0.999999985              -0.000518423              -0.000685569               0.999999985              -0.000512784              -0.000697001               0.999999985              -0.000504158              -0.000706277               0.999999985              -0.000490344              -0.000710841               0.999999985              -0.000470279              -0.000709187               0.999999985              -0.000443955              -0.000701447               0.999999985              -0.000411812              -0.000688211               0.999999985              -0.000374366              -0.000669727               0.999999985              -0.000332510              -0.000646404               0.999999985              -0.000287320              -0.000618868               0.999999985              -0.000239669              -0.000588143               0.999999985              -0.000190440              -0.000555859               0.999999985              -0.000140434              -0.000523012               0.999999985              -0.000607515              -0.000950486               0.999999985              -0.000492665              -0.000818370               0.999999985              -0.000456289              -0.000782723               0.999999985              -0.000444411              -0.000781331               0.999999985              -0.000439022              -0.000792128               0.999999985              -0.000432182              -0.000804958               0.999999985              -0.000419813              -0.000814674               0.999999985              -0.000399684              -0.000818792               0.999999985              -0.000371315              -0.000816432               0.999999985              -0.000335349              -0.000808016               0.999999985              -0.000292485              -0.000793891               0.999999985              -0.000243710              -0.000774570               0.999999985              -0.000190308              -0.000750900               0.999999985              -0.000133428              -0.000724093               0.999999985              -0.000074305              -0.000695868               0.999999985              -0.000014167              -0.000667322               0.999999985               0.000046035              -0.000638891               0.999999985              -0.000544446              -0.001043308               0.999999985              -0.000422552              -0.000930746               0.999999985              -0.000383504              -0.000891284               0.999999985              -0.000371047              -0.000885125               0.999999985              -0.000366484              -0.000893126               0.999999985              -0.000361751              -0.000905894               0.999999985              -0.000352694              -0.000918144               0.999999985              -0.000336750              -0.000927144               0.999999985              -0.000313044              -0.000931557               0.999999985              -0.000281958              -0.000931069               0.999999985              -0.000243884              -0.000925758               0.999999985              -0.000199618              -0.000915868               0.999999985              -0.000149914              -0.000901844               0.999999985              -0.000095221              -0.000884685               0.999999985              -0.000036708              -0.000865487               0.999999985               0.000023759              -0.000845640               0.999999985               0.000084699              -0.000825706               0.999999985              -0.000475707              -0.001127997               0.999999985              -0.000355220              -0.001039675               0.999999985              -0.000313615              -0.001002895               0.999999985              -0.000299760              -0.000994257               0.999999985              -0.000295117              -0.001000389               0.999999985              -0.000291661              -0.001013163               0.999999985              -0.000285085              -0.001027865               0.999999985              -0.000272801              -0.001041308               0.999999985              -0.000253636              -0.001051794               0.999999985              -0.000227473              -0.001058603               0.999999985              -0.000194439              -0.001061469               0.999999985              -0.000154900              -0.001060406               0.999999985              -0.000109264              -0.001055633               0.999999985              -0.000057803              -0.001047555               0.999999985              -0.000001096              -0.001037079               0.999999985               0.000059435              -0.001025448               0.999999985               0.000121871              -0.001013635               0.999999985              -0.000402786              -0.001202444               0.999999985              -0.000290684              -0.001141746               0.999999985              -0.000248463              -0.001112312               0.999999985              -0.000233054              -0.001104510               0.999999985              -0.000227656              -0.001110220               0.999999985              -0.000224518              -0.001123689               0.999999985              -0.000219716              -0.001140737               0.999999985              -0.000210517              -0.001158387               0.999999985              -0.000195455              -0.001174702               0.999999985              -0.000174195              -0.001188487               0.999999985              -0.000146389              -0.001199285               0.999999985              -0.000111869              -0.001206818               0.999999985              -0.000071180              -0.001210997               0.999999985              -0.000024061              -0.001211987               0.999999985               0.000029907              -0.001210330               0.999999985               0.000089828              -0.001206942               0.999999985               0.000154017              -0.001202941               0.999999985              -0.000326442              -0.001265282               0.999999985              -0.000228936              -0.001232737               0.999999985              -0.000189014              -0.001213921               0.999999985              -0.000172874              -0.001209961               0.999999985              -0.000166511              -0.001217228               0.999999985              -0.000163299              -0.001232228               0.999999985              -0.000159531              -0.001251803               0.999999985              -0.000152710              -0.001273435               0.999999985              -0.000141244              -0.001295243               0.999999985              -0.000124552              -0.001315927               0.999999985              -0.000102075              -0.001334607               0.999999985              -0.000073485              -0.001350794               0.999999985              -0.000038615              -0.001364093               0.999999985               0.000003021              -0.001374481               0.999999985               0.000052269              -0.001382004               0.999999985               0.000109455              -0.001387328               0.999999985               0.000173984              -0.001391383               0.999999985              -0.000247366              -0.001315271               0.999999985              -0.000169657              -0.001308442               0.999999985              -0.000135343              -0.001301753               0.999999985              -0.000120189              -0.001303549               0.999999985              -0.000113599              -0.001313922               0.999999985              -0.000110265              -0.001331271               0.999999985              -0.000107181              -0.001353609               0.999999985              -0.000102150              -0.001379038               0.999999985              -0.000093732              -0.001405868               0.999999985              -0.000081468              -0.001432856               0.999999985              -0.000064680              -0.001458954               0.999999985              -0.000042667              -0.001483324               0.999999985              -0.000014876              -0.001505565               0.999999985               0.000019380              -0.001525455               0.999999985               0.000061096              -0.001542772               0.999999985               0.000111706              -0.001557637               0.999999985               0.000172161              -0.001570366               0.999999985              -0.000166100              -0.001351688               0.999999985              -0.000112151              -0.001365364               0.999999985              -0.000086887              -0.001369791               0.999999985              -0.000074937              -0.001377592               0.999999985              -0.000069369              -0.001391625               0.999999985              -0.000066489              -0.001411632               0.999999985              -0.000064053              -0.001436614               0.999999985              -0.000060617              -0.001465147               0.999999985              -0.000055115              -0.001495972               0.999999985              -0.000047098              -0.001528044               0.999999985              -0.000036078              -0.001560361               0.999999985              -0.000021171              -0.001592043               0.999999985              -0.000001745              -0.001622473               0.999999985               0.000022952              -0.001651131               0.999999985               0.000053789              -0.001677718               0.999999985               0.000092262              -0.001701911               0.999999985               0.000140535              -0.001723292               0.999999985              -0.000083386              -0.001373843               0.999999985              -0.000055794              -0.001400620               0.999999985              -0.000042394              -0.001412830               0.999999985              -0.000035778              -0.001425166               0.999999985              -0.000032572              -0.001442024               0.999999985              -0.000030860              -0.001464173               0.999999985              -0.000029513              -0.001491118               0.999999985              -0.000027676              -0.001521820               0.999999985              -0.000024947              -0.001555228               0.999999985              -0.000021133              -0.001590498               0.999999985              -0.000015600              -0.001626863               0.999999985              -0.000008003              -0.001663584               0.999999985               0.000001980              -0.001699929               0.999999985               0.000014863              -0.001735126               0.999999985               0.000031342              -0.001768700               0.999999985               0.000052416              -0.001799969               0.999999985               0.000079504              -0.001828047               0.999999985               0.000000000              -0.001381308               0.999999985              -0.000000000              -0.001412557               0.999999985              -0.000000000              -0.001427507               0.999999985              -0.000000000              -0.001441528               0.999999985               0.000000000              -0.001459468               0.999999985              -0.000000000              -0.001482418               0.999999985               0.000000000              -0.001510067               0.999999985              -0.000000000              -0.001541542               0.999999985              -0.000000000              -0.001575974               0.999999985               0.000000000              -0.001612480               0.999999985               0.000000000              -0.001650294               0.999999985               0.000000000              -0.001688686               0.999999985              -0.000000000              -0.001727058               0.999999985              -0.000000000              -0.001764773               0.999999985               0.000000000              -0.001800942               0.999999985               0.000000000              -0.001834650               0.999999985               0.000000000              -0.001865120               0.999999985               0.000894836              -0.000000000               0.999999985               0.000945108               0.000000000               0.999999985               0.000966686               0.000000000               0.999999985               0.000979127               0.000000000               0.999999985               0.000989420               0.000000000               0.999999985               0.001000200              -0.000000000               0.999999985               0.001012051               0.000000000               0.999999985               0.001024853               0.000000000               0.999999985               0.001038247               0.000000000               0.999999985               0.001051842               0.000000000               0.999999985               0.001065136               0.000000000               0.999999985               0.001077789               0.000000000               0.999999985               0.001089501              -0.000000000               0.999999985               0.001100027               0.000000000               0.999999985               0.001108979               0.000000000               0.999999985               0.001115595               0.000000000               0.999999985               0.001119094               0.000000000               0.999999985               0.000889798              -0.000131184               0.999999985               0.000935867              -0.000104178               0.999999985               0.000954713              -0.000092023               0.999999985               0.000965347              -0.000087082               0.999999985               0.000974359              -0.000085791               0.999999985               0.000984036              -0.000086184               0.999999985               0.000994849              -0.000087115               0.999999985               0.001006590              -0.000087627               0.999999985               0.001018781              -0.000087302               0.999999985               0.001030902              -0.000085632               0.999999985               0.001042571              -0.000082544               0.999999985               0.001053392              -0.000077905               0.999999985               0.001063018              -0.000071477               0.999999985               0.001071261              -0.000062776               0.999999985               0.001077751              -0.000050983               0.999999985               0.001081935              -0.000035124               0.999999985               0.001083181              -0.000013898               0.999999985               0.000874814              -0.000261148               0.999999985               0.000908499              -0.000208038               0.999999985               0.000919733              -0.000184969               0.999999985               0.000925545              -0.000176190               0.999999985               0.000931213              -0.000174370               0.999999985               0.000938092              -0.000175711               0.999999985               0.000946132              -0.000177734               0.999999985               0.000954853              -0.000179084               0.999999985               0.000963687              -0.000178489               0.999999985               0.000972056              -0.000175603               0.999999985               0.000979576              -0.000169680               0.999999985               0.000985721              -0.000160747               0.999999985               0.000990189              -0.000148644               0.999999985               0.000992797              -0.000132517               0.999999985               0.000993128              -0.000110983               0.999999985               0.000990978              -0.000082911               0.999999985               0.000986304              -0.000047131               0.999999985               0.000850234              -0.000388733               0.999999985               0.000864401              -0.000311289               0.999999985               0.000864577              -0.000279744               0.999999985               0.000863866              -0.000268996               0.999999985               0.000865216              -0.000267872               0.999999985               0.000868535              -0.000270656               0.999999985               0.000872986              -0.000274274               0.999999985               0.000877745              -0.000276507               0.999999985               0.000881974              -0.000276188               0.999999985               0.000885107              -0.000272155               0.999999985               0.000886534              -0.000264026               0.999999985               0.000885959              -0.000251794               0.999999985               0.000883196              -0.000235214               0.999999985               0.000877941              -0.000213371               0.999999985               0.000870073              -0.000185197               0.999999985               0.000859637              -0.000150113               0.999999985               0.000846984              -0.000107454               0.999999985               0.000816479              -0.000512841               0.999999985               0.000805879              -0.000413873               0.999999985               0.000793778              -0.000376830               0.999999985               0.000786580              -0.000366121               0.999999985               0.000783864              -0.000366793               0.999999985               0.000783761              -0.000371714               0.999999985               0.000784646              -0.000377073               0.999999985               0.000785074              -0.000380474               0.999999985               0.000784095              -0.000380231               0.999999985               0.000780849              -0.000375276               0.999999985               0.000775103              -0.000365412               0.999999985               0.000766620              -0.000350688               0.999999985               0.000755189              -0.000330975               0.999999985               0.000740768              -0.000305598               0.999999985               0.000723453              -0.000274045               0.999999985               0.000703722              -0.000236474               0.999999985               0.000682275              -0.000193287               0.999999985               0.000774395              -0.000632239               0.999999985               0.000735990              -0.000515889               0.999999985               0.000712453              -0.000476371               0.999999985               0.000700290              -0.000467339               0.999999985               0.000694711              -0.000470637               0.999999985               0.000692040              -0.000478009               0.999999985               0.000689616              -0.000485087               0.999999985               0.000685679              -0.000489280               0.999999985               0.000679027              -0.000488802               0.999999985               0.000668872              -0.000482887               0.999999985               0.000655166              -0.000471643               0.999999985               0.000637868              -0.000455168               0.999999985               0.000616968              -0.000433541               0.999999985               0.000592742              -0.000406414               0.999999985               0.000565656              -0.000373852               0.999999985               0.000536482              -0.000336882               0.999999985               0.000505999              -0.000296630               0.999999985               0.000724739              -0.000745849               0.999999985               0.000658213              -0.000617411               0.999999985               0.000625953              -0.000577917               0.999999985               0.000611274              -0.000571572               0.999999985               0.000604617              -0.000577653               0.999999985               0.000600217              -0.000587307               0.999999985               0.000594728              -0.000595697               0.999999985               0.000586190              -0.000600261               0.999999985               0.000573274              -0.000599342               0.999999985               0.000555545              -0.000592477               0.999999985               0.000533041              -0.000580133               0.999999985               0.000506087              -0.000562467               0.999999985               0.000474978              -0.000539764               0.999999985               0.000440457              -0.000512127               0.999999985               0.000403313              -0.000480105               0.999999985               0.000364409              -0.000445156               0.999999985               0.000324416              -0.000408641               0.999999985               0.000668470              -0.000852596               0.999999985               0.000576154              -0.000718283               0.999999985               0.000539080              -0.000680556               0.999999985               0.000524830              -0.000676942               0.999999985               0.000518423              -0.000685569               0.999999985               0.000512784              -0.000697001               0.999999985               0.000504158              -0.000706277               0.999999985               0.000490344              -0.000710841               0.999999985               0.000470279              -0.000709187               0.999999985               0.000443955              -0.000701447               0.999999985               0.000411812              -0.000688211               0.999999985               0.000374366              -0.000669727               0.999999985               0.000332510              -0.000646404               0.999999985               0.000287320              -0.000618868               0.999999985               0.000239669              -0.000588143               0.999999985               0.000190440              -0.000555859               0.999999985               0.000140434              -0.000523012               0.999999985               0.000607515              -0.000950486               0.999999985               0.000492665              -0.000818370               0.999999985               0.000456289              -0.000782723               0.999999985               0.000444411              -0.000781331               0.999999985               0.000439022              -0.000792128               0.999999985               0.000432182              -0.000804958               0.999999985               0.000419813              -0.000814674               0.999999985               0.000399684              -0.000818792               0.999999985               0.000371315              -0.000816432               0.999999985               0.000335349              -0.000808016               0.999999985               0.000292485              -0.000793891               0.999999985               0.000243710              -0.000774570               0.999999985               0.000190308              -0.000750900               0.999999985               0.000133428              -0.000724093               0.999999985               0.000074305              -0.000695868               0.999999985               0.000014167              -0.000667322               0.999999985              -0.000046035              -0.000638891               0.999999985               0.000544446              -0.001043308               0.999999985               0.000422552              -0.000930746               0.999999985               0.000383504              -0.000891284               0.999999985               0.000371047              -0.000885125               0.999999985               0.000366484              -0.000893126               0.999999985               0.000361751              -0.000905894               0.999999985               0.000352694              -0.000918144               0.999999985               0.000336750              -0.000927144               0.999999985               0.000313044              -0.000931557               0.999999985               0.000281958              -0.000931069               0.999999985               0.000243884              -0.000925758               0.999999985               0.000199618              -0.000915868               0.999999985               0.000149914              -0.000901844               0.999999985               0.000095221              -0.000884685               0.999999985               0.000036708              -0.000865487               0.999999985              -0.000023759              -0.000845640               0.999999985              -0.000084699              -0.000825706               0.999999985               0.000475707              -0.001127997               0.999999985               0.000355220              -0.001039675               0.999999985               0.000313615              -0.001002895               0.999999985               0.000299760              -0.000994257               0.999999985               0.000295117              -0.001000389               0.999999985               0.000291661              -0.001013163               0.999999985               0.000285085              -0.001027865               0.999999985               0.000272801              -0.001041308               0.999999985               0.000253636              -0.001051794               0.999999985               0.000227473              -0.001058603               0.999999985               0.000194439              -0.001061469               0.999999985               0.000154900              -0.001060406               0.999999985               0.000109264              -0.001055633               0.999999985               0.000057803              -0.001047555               0.999999985               0.000001096              -0.001037079               0.999999985              -0.000059435              -0.001025448               0.999999985              -0.000121871              -0.001013635               0.999999985               0.000402786              -0.001202444               0.999999985               0.000290684              -0.001141746               0.999999985               0.000248463              -0.001112312               0.999999985               0.000233054              -0.001104510               0.999999985               0.000227656              -0.001110220               0.999999985               0.000224518              -0.001123689               0.999999985               0.000219716              -0.001140737               0.999999985               0.000210517              -0.001158387               0.999999985               0.000195455              -0.001174702               0.999999985               0.000174195              -0.001188487               0.999999985               0.000146389              -0.001199285               0.999999985               0.000111869              -0.001206818               0.999999985               0.000071180              -0.001210997               0.999999985               0.000024061              -0.001211987               0.999999985              -0.000029907              -0.001210330               0.999999985              -0.000089828              -0.001206942               0.999999985              -0.000154017              -0.001202941               0.999999985               0.000326442              -0.001265282               0.999999985               0.000228936              -0.001232737               0.999999985               0.000189014              -0.001213921               0.999999985               0.000172874              -0.001209961               0.999999985               0.000166511              -0.001217228               0.999999985               0.000163299              -0.001232228               0.999999985               0.000159531              -0.001251803               0.999999985               0.000152710              -0.001273435               0.999999985               0.000141244              -0.001295243               0.999999985               0.000124552              -0.001315927               0.999999985               0.000102075              -0.001334607               0.999999985               0.000073485              -0.001350794               0.999999985               0.000038615              -0.001364093               0.999999985              -0.000003021              -0.001374481               0.999999985              -0.000052269              -0.001382004               0.999999985              -0.000109455              -0.001387328               0.999999985              -0.000173984              -0.001391383               0.999999985               0.000247366              -0.001315271               0.999999985               0.000169657              -0.001308442               0.999999985               0.000135343              -0.001301753               0.999999985               0.000120189              -0.001303549               0.999999985               0.000113599              -0.001313922               0.999999985               0.000110265              -0.001331271               0.999999985               0.000107181              -0.001353609               0.999999985               0.000102150              -0.001379038               0.999999985               0.000093732              -0.001405868               0.999999985               0.000081468              -0.001432856               0.999999985               0.000064680              -0.001458954               0.999999985               0.000042667              -0.001483324               0.999999985               0.000014876              -0.001505565               0.999999985              -0.000019380              -0.001525455               0.999999985              -0.000061096              -0.001542772               0.999999985              -0.000111706              -0.001557637               0.999999985              -0.000172161              -0.001570366               0.999999985               0.000166100              -0.001351688               0.999999985               0.000112151              -0.001365364               0.999999985               0.000086887              -0.001369791               0.999999985               0.000074937              -0.001377592               0.999999985               0.000069369              -0.001391625               0.999999985               0.000066489              -0.001411632               0.999999985               0.000064053              -0.001436614               0.999999985               0.000060617              -0.001465147               0.999999985               0.000055115              -0.001495972               0.999999985               0.000047098              -0.001528044               0.999999985               0.000036078              -0.001560361               0.999999985               0.000021171              -0.001592043               0.999999985               0.000001745              -0.001622473               0.999999985              -0.000022952              -0.001651131               0.999999985              -0.000053789              -0.001677718               0.999999985              -0.000092262              -0.001701911               0.999999985              -0.000140535              -0.001723292               0.999999985               0.000083386              -0.001373843               0.999999985               0.000055794              -0.001400620               0.999999985               0.000042394              -0.001412830               0.999999985               0.000035778              -0.001425166               0.999999985               0.000032572              -0.001442024               0.999999985               0.000030860              -0.001464173               0.999999985               0.000029513              -0.001491118               0.999999985               0.000027676              -0.001521820               0.999999985               0.000024947              -0.001555228               0.999999985               0.000021133              -0.001590498               0.999999985               0.000015600              -0.001626863               0.999999985               0.000008003              -0.001663584               0.999999985              -0.000001980              -0.001699929               0.999999985              -0.000014863              -0.001735126               0.999999985              -0.000031342              -0.001768700               0.999999985              -0.000052416              -0.001799969               0.999999985              -0.000079504              -0.001828047               0.999999985               0.000000000              -0.001381308               0.999999985              -0.000000000              -0.001412557               0.999999985              -0.000000000              -0.001427507               0.999999985              -0.000000000              -0.001441528               0.999999985               0.000000000              -0.001459468               0.999999985              -0.000000000              -0.001482418               0.999999985               0.000000000              -0.001510067               0.999999985              -0.000000000              -0.001541542               0.999999985              -0.000000000              -0.001575974               0.999999985               0.000000000              -0.001612480               0.999999985               0.000000000              -0.001650294               0.999999985               0.000000000              -0.001688686               0.999999985              -0.000000000              -0.001727058               0.999999985              -0.000000000              -0.001764773               0.999999985               0.000000000              -0.001800942               0.999999985               0.000000000              -0.001834650               0.999999985               0.000000000              -0.001865120               0.999999985               0.000894836              -0.000000000               0.999999985               0.000945108               0.000000000               0.999999985               0.000966686               0.000000000               0.999999985               0.000979127               0.000000000               0.999999985               0.000989420               0.000000000               0.999999985               0.001000200              -0.000000000               0.999999985               0.001012051               0.000000000               0.999999985               0.001024853               0.000000000               0.999999985               0.001038247               0.000000000               0.999999985               0.001051842               0.000000000               0.999999985               0.001065136               0.000000000               0.999999985               0.001077789               0.000000000               0.999999985               0.001089501              -0.000000000               0.999999985               0.001100027               0.000000000               0.999999985               0.001108979               0.000000000               0.999999985               0.001115595               0.000000000               0.999999985               0.001119094               0.000000000               0.999999985               0.000889798               0.000131184               0.999999985               0.000935867               0.000104178               0.999999985               0.000954713               0.000092023               0.999999985               0.000965347               0.000087082               0.999999985               0.000974359               0.000085791               0.999999985               0.000984036               0.000086184               0.999999985               0.000994849               0.000087115               0.999999985               0.001006590               0.000087627               0.999999985               0.001018781               0.000087302               0.999999985               0.001030902               0.000085632               0.999999985               0.001042571               0.000082544               0.999999985               0.001053392               0.000077905               0.999999985               0.001063018               0.000071477               0.999999985               0.001071261               0.000062776               0.999999985               0.001077751               0.000050983               0.999999985               0.001081935               0.000035124               0.999999985               0.001083181               0.000013898               0.999999985               0.000874814               0.000261148               0.999999985               0.000908499               0.000208038               0.999999985               0.000919733               0.000184969               0.999999985               0.000925545               0.000176190               0.999999985               0.000931213               0.000174370               0.999999985               0.000938092               0.000175711               0.999999985               0.000946132               0.000177734               0.999999985               0.000954853               0.000179084               0.999999985               0.000963687               0.000178489               0.999999985               0.000972056               0.000175603               0.999999985               0.000979576               0.000169680               0.999999985               0.000985721               0.000160747               0.999999985               0.000990189               0.000148644               0.999999985               0.000992797               0.000132517               0.999999985               0.000993128               0.000110983               0.999999985               0.000990978               0.000082911               0.999999985               0.000986304               0.000047131               0.999999985               0.000850234               0.000388733               0.999999985               0.000864401               0.000311289               0.999999985               0.000864577               0.000279744               0.999999985               0.000863866               0.000268996               0.999999985               0.000865216               0.000267872               0.999999985               0.000868535               0.000270656               0.999999985               0.000872986               0.000274274               0.999999985               0.000877745               0.000276507               0.999999985               0.000881974               0.000276188               0.999999985               0.000885107               0.000272155               0.999999985               0.000886534               0.000264026               0.999999985               0.000885959               0.000251794               0.999999985               0.000883196               0.000235214               0.999999985               0.000877941               0.000213371               0.999999985               0.000870073               0.000185197               0.999999985               0.000859637               0.000150113               0.999999985               0.000846984               0.000107454               0.999999985               0.000816479               0.000512841               0.999999985               0.000805879               0.000413873               0.999999985               0.000793778               0.000376830               0.999999985               0.000786580               0.000366121               0.999999985               0.000783864               0.000366793               0.999999985               0.000783761               0.000371714               0.999999985               0.000784646               0.000377073               0.999999985               0.000785074               0.000380474               0.999999985               0.000784095               0.000380231               0.999999985               0.000780849               0.000375276               0.999999985               0.000775103               0.000365412               0.999999985               0.000766620               0.000350688               0.999999985               0.000755189               0.000330975               0.999999985               0.000740768               0.000305598               0.999999985               0.000723453               0.000274045               0.999999985               0.000703722               0.000236474               0.999999985               0.000682275               0.000193287               0.999999985               0.000774395               0.000632239               0.999999985               0.000735990               0.000515889               0.999999985               0.000712453               0.000476371               0.999999985               0.000700290               0.000467339               0.999999985               0.000694711               0.000470637               0.999999985               0.000692040               0.000478009               0.999999985               0.000689616               0.000485087               0.999999985               0.000685679               0.000489280               0.999999985               0.000679027               0.000488802               0.999999985               0.000668872               0.000482887               0.999999985               0.000655166               0.000471643               0.999999985               0.000637868               0.000455168               0.999999985               0.000616968               0.000433541               0.999999985               0.000592742               0.000406414               0.999999985               0.000565656               0.000373852               0.999999985               0.000536482               0.000336882               0.999999985               0.000505999               0.000296630               0.999999985               0.000724739               0.000745849               0.999999985               0.000658213               0.000617411               0.999999985               0.000625953               0.000577917               0.999999985               0.000611274               0.000571572               0.999999985               0.000604617               0.000577653               0.999999985               0.000600217               0.000587307               0.999999985               0.000594728               0.000595697               0.999999985               0.000586190               0.000600261               0.999999985               0.000573274               0.000599342               0.999999985               0.000555545               0.000592477               0.999999985               0.000533041               0.000580133               0.999999985               0.000506087               0.000562467               0.999999985               0.000474978               0.000539764               0.999999985               0.000440457               0.000512127               0.999999985               0.000403313               0.000480105               0.999999985               0.000364409               0.000445156               0.999999985               0.000324416               0.000408641               0.999999985               0.000668470               0.000852596               0.999999985               0.000576154               0.000718283               0.999999985               0.000539080               0.000680556               0.999999985               0.000524830               0.000676942               0.999999985               0.000518423               0.000685569               0.999999985               0.000512784               0.000697001               0.999999985               0.000504158               0.000706277               0.999999985               0.000490344               0.000710841               0.999999985               0.000470279               0.000709187               0.999999985               0.000443955               0.000701447               0.999999985               0.000411812               0.000688211               0.999999985               0.000374366               0.000669727               0.999999985               0.000332510               0.000646404               0.999999985               0.000287320               0.000618868               0.999999985               0.000239669               0.000588143               0.999999985               0.000190440               0.000555859               0.999999985               0.000140434               0.000523012               0.999999985               0.000607515               0.000950486               0.999999985               0.000492665               0.000818370               0.999999985               0.000456289               0.000782723               0.999999985               0.000444411               0.000781331               0.999999985               0.000439022               0.000792128               0.999999985               0.000432182               0.000804958               0.999999985               0.000419813               0.000814674               0.999999985               0.000399684               0.000818792               0.999999985               0.000371315               0.000816432               0.999999985               0.000335349               0.000808016               0.999999985               0.000292485               0.000793891               0.999999985               0.000243710               0.000774570               0.999999985               0.000190308               0.000750900               0.999999985               0.000133428               0.000724093               0.999999985               0.000074305               0.000695868               0.999999985               0.000014167               0.000667322               0.999999985              -0.000046035               0.000638891               0.999999985               0.000544446               0.001043308               0.999999985               0.000422552               0.000930746               0.999999985               0.000383504               0.000891284               0.999999985               0.000371047               0.000885125               0.999999985               0.000366484               0.000893126               0.999999985               0.000361751               0.000905894               0.999999985               0.000352694               0.000918144               0.999999985               0.000336750               0.000927144               0.999999985               0.000313044               0.000931557               0.999999985               0.000281958               0.000931069               0.999999985               0.000243884               0.000925758               0.999999985               0.000199618               0.000915868               0.999999985               0.000149914               0.000901844               0.999999985               0.000095221               0.000884685               0.999999985               0.000036708               0.000865487               0.999999985              -0.000023759               0.000845640               0.999999985              -0.000084699               0.000825706               0.999999985               0.000475707               0.001127997               0.999999985               0.000355220               0.001039675               0.999999985               0.000313615               0.001002895               0.999999985               0.000299760               0.000994257               0.999999985               0.000295117               0.001000389               0.999999985               0.000291661               0.001013163               0.999999985               0.000285085               0.001027865               0.999999985               0.000272801               0.001041308               0.999999985               0.000253636               0.001051794               0.999999985               0.000227473               0.001058603               0.999999985               0.000194439               0.001061469               0.999999985               0.000154900               0.001060406               0.999999985               0.000109264               0.001055633               0.999999985               0.000057803               0.001047555               0.999999985               0.000001096               0.001037079               0.999999985              -0.000059435               0.001025448               0.999999985              -0.000121871               0.001013635               0.999999985               0.000402786               0.001202444               0.999999985               0.000290684               0.001141746               0.999999985               0.000248463               0.001112312               0.999999985               0.000233054               0.001104510               0.999999985               0.000227656               0.001110220               0.999999985               0.000224518               0.001123689               0.999999985               0.000219716               0.001140737               0.999999985               0.000210517               0.001158387               0.999999985               0.000195455               0.001174702               0.999999985               0.000174195               0.001188487               0.999999985               0.000146389               0.001199285               0.999999985               0.000111869               0.001206818               0.999999985               0.000071180               0.001210997               0.999999985               0.000024061               0.001211987               0.999999985              -0.000029907               0.001210330               0.999999985              -0.000089828               0.001206942               0.999999985              -0.000154017               0.001202941               0.999999985               0.000326442               0.001265282               0.999999985               0.000228936               0.001232737               0.999999985               0.000189014               0.001213921               0.999999985               0.000172874               0.001209961               0.999999985               0.000166511               0.001217228               0.999999985               0.000163299               0.001232228               0.999999985               0.000159531               0.001251803               0.999999985               0.000152710               0.001273435               0.999999985               0.000141244               0.001295243               0.999999985               0.000124552               0.001315927               0.999999985               0.000102075               0.001334607               0.999999985               0.000073485               0.001350794               0.999999985               0.000038615               0.001364093               0.999999985              -0.000003021               0.001374481               0.999999985              -0.000052269               0.001382004               0.999999985              -0.000109455               0.001387328               0.999999985              -0.000173984               0.001391383               0.999999985               0.000247366               0.001315271               0.999999985               0.000169657               0.001308442               0.999999985               0.000135343               0.001301753               0.999999985               0.000120189               0.001303549               0.999999985               0.000113599               0.001313922               0.999999985               0.000110265               0.001331271               0.999999985               0.000107181               0.001353609               0.999999985               0.000102150               0.001379038               0.999999985               0.000093732               0.001405868               0.999999985               0.000081468               0.001432856               0.999999985               0.000064680               0.001458954               0.999999985               0.000042667               0.001483324               0.999999985               0.000014876               0.001505565               0.999999985              -0.000019380               0.001525455               0.999999985              -0.000061096               0.001542772               0.999999985              -0.000111706               0.001557637               0.999999985              -0.000172161               0.001570366               0.999999985               0.000166100               0.001351688               0.999999985               0.000112151               0.001365364               0.999999985               0.000086887               0.001369791               0.999999985               0.000074937               0.001377592               0.999999985               0.000069369               0.001391625               0.999999985               0.000066489               0.001411632               0.999999985               0.000064053               0.001436614               0.999999985               0.000060617               0.001465147               0.999999985               0.000055115               0.001495972               0.999999985               0.000047098               0.001528044               0.999999985               0.000036078               0.001560361               0.999999985               0.000021171               0.001592043               0.999999985               0.000001745               0.001622473               0.999999985              -0.000022952               0.001651131               0.999999985              -0.000053789               0.001677718               0.999999985              -0.000092262               0.001701911               0.999999985              -0.000140535               0.001723292               0.999999985               0.000083386               0.001373843               0.999999985               0.000055794               0.001400620               0.999999985               0.000042394               0.001412830               0.999999985               0.000035778               0.001425166               0.999999985               0.000032572               0.001442024               0.999999985               0.000030860               0.001464173               0.999999985               0.000029513               0.001491118               0.999999985               0.000027676               0.001521820               0.999999985               0.000024947               0.001555228               0.999999985               0.000021133               0.001590498               0.999999985               0.000015600               0.001626863               0.999999985               0.000008003               0.001663584               0.999999985              -0.000001980               0.001699929               0.999999985              -0.000014863               0.001735126               0.999999985              -0.000031342               0.001768700               0.999999985              -0.000052416               0.001799969               0.999999985              -0.000079504               0.001828047               0.999999985               0.000000000               0.001381308               0.999999985              -0.000000000               0.001412557               0.999999985               0.000000000               0.001427507               0.999999985              -0.000000000               0.001441528               0.999999985               0.000000000               0.001459468               0.999999985               0.000000000               0.001482418               0.999999985               0.000000000               0.001510067               0.999999985              -0.000000000               0.001541542               0.999999985              -0.000000000               0.001575974               0.999999985              -0.000000000               0.001612480               0.999999985              -0.000000000               0.001650294               0.999999985              -0.000000000               0.001688686               0.999999985              -0.000000000               0.001727058               0.999999985               0.000000000               0.001764773               0.999999985               0.000000000               0.001800942               0.999999985              -0.000000000               0.001834650               0.999999985               0.000000000               0.001865120               0.999999985 </DataArray>
<DataArray type="Float64"                                    Name="defo"                                                      NumberOfComponents=" 3" format="ascii">
             -0.000894836               0.000000000               0.999999985              -0.000945108               0.000000000               0.999999985              -0.000966686              -0.000000000               0.999999985              -0.000979127              -0.000000000               0.999999985              -0.000989420               0.000000000               0.999999985              -0.001000200              -0.000000000               0.999999985              -0.001012051              -0.000000000               0.999999985              -0.001024853              -0.000000000               0.999999985              -0.001038247              -0.000000000               0.999999985              -0.001051842               0.000000000               0.999999985              -0.001065136               0.000000000               0.999999985              -0.001077789               0.000000000               0.999999985              -0.001089501               0.000000000               0.999999985              -0.001100027              -0.000000000               0.999999985              -0.001108979               0.000000000               0.999999985              -0.001115595              -0.000000000               0.999999985              -0.001119094              -0.000000000               0.999999985              -0.000889798               0.000131184               0.999999985              -0.000935867               0.000104178               0.999999985              -0.000954713               0.000092023               0.999999985              -0.000965347               0.000087082               0.999999985              -0.000974359               0.000085791               0.999999985              -0.000984036               0.000086184               0.999999985              -0.000994849               0.000087115               0.999999985              -0.001006590               0.000087627               0.999999985              -0.001018781               0.000087302               0.999999985              -0.001030902               0.000085632               0.999999985              -0.001042571               0.000082544               0.999999985              -0.001053392               0.000077905               0.999999985              -0.001063018               0.000071477               0.999999985              -0.001071261               0.000062776               0.999999985              -0.001077751               0.000050983               0.999999985              -0.001081935               0.000035124               0.999999985              -0.001083181               0.000013898               0.999999985              -0.000874814               0.000261148               0.999999985              -0.000908499               0.000208038               0.999999985              -0.000919733               0.000184969               0.999999985              -0.000925545               0.000176190               0.999999985              -0.000931213               0.000174370               0.999999985              -0.000938092               0.000175711               0.999999985              -0.000946132               0.000177734               0.999999985              -0.000954853               0.000179084               0.999999985              -0.000963687               0.000178489               0.999999985              -0.000972056               0.000175603               0.999999985              -0.000979576               0.000169680               0.999999985              -0.000985721               0.000160747               0.999999985              -0.000990189               0.000148644               0.999999985              -0.000992797               0.000132517               0.999999985              -0.000993128               0.000110983               0.999999985              -0.000990978               0.000082911               0.999999985              -0.000986304               0.000047131               0.999999985              -0.000850234               0.000388733               0.999999985              -0.000864401               0.000311289               0.999999985              -0.000864577               0.000279744               0.999999985              -0.000863866               0.000268996               0.999999985              -0.000865216               0.000267872               0.999999985              -0.000868535               0.000270656               0.999999985              -0.000872986               0.000274274               0.999999985              -0.000877745               0.000276507               0.999999985              -0.000881974               0.000276188               0.999999985              -0.000885107               0.000272155               0.999999985              -0.000886534               0.000264026               0.999999985              -0.000885959               0.000251794               0.999999985              -0.000883196               0.000235214               0.999999985              -0.000877941               0.000213371               0.999999985              -0.000870073               0.000185197               0.999999985              -0.000859637               0.000150113               0.999999985              -0.000846984               0.000107454               0.999999985              -0.000816479               0.000512841               0.999999985              -0.000805879               0.000413873               0.999999985              -0.000793778               0.000376830               0.999999985              -0.000786580               0.000366121               0.999999985              -0.000783864               0.000366793               0.999999985              -0.000783761               0.000371714               0.999999985              -0.000784646               0.000377073               0.999999985              -0.000785074               0.000380474               0.999999985              -0.000784095               0.000380231               0.999999985              -0.000780849               0.000375276               0.999999985              -0.000775103               0.000365412               0.999999985              -0.000766620               0.000350688               0.999999985              -0.000755189               0.000330975               0.999999985              -0.000740768               0.000305598               0.999999985              -0.000723453               0.000274045               0.999999985              -0.000703722               0.000236474               0.999999985              -0.000682275               0.000193287               0.999999985              -0.000774395               0.000632239               0.999999985              -0.000735990               0.000515889               0.999999985              -0.000712453               0.000476371               0.999999985              -0.000700290               0.000467339               0.999999985              -0.000694711               0.000470637               0.999999985              -0.000692040               0.000478009               0.999999985              -0.000689616               0.000485087               0.999999985              -0.000685679               0.000489280               0.999999985              -0.000679027               0.000488802               0.999999985              -0.000668872               0.000482887               0.999999985              -0.000655166               0.000471643               0.999999985              -0.000637868               0.000455168               0.999999985              -0.000616968               0.000433541               0.999999985              -0.000592742               0.000406414               0.999999985              -0.000565656               0.000373852               0.999999985              -0.000536482               0.000336882               0.999999985              -0.000505999               0.000296630               0.999999985              -0.000724739               0.000745849               0.999999985              -0.000658213               0.000617411               0.999999985              -0.000625953               0.000577917               0.999999985              -0.000611274               0.000571572               0.999999985              -0.000604617               0.000577653               0.999999985              -0.000600217               0.000587307               0.999999985              -0.000594728               0.000595697               0.999999985              -0.000586190               0.000600261               0.999999985              -0.000573274               0.000599342               0.999999985              -0.000555545               0.000592477               0.999999985              -0.000533041               0.000580133               0.999999985              -0.000506087               0.000562467               0.999999985              -0.000474978               0.000539764               0.999999985              -0.000440457               0.000512127               0.999999985              -0.000403313               0.000480105               0.999999985              -0.000364409               0.000445156               0.999999985              -0.000324416               0.000408641               0.999999985              -0.000668470               0.000852596               0.999999985              -0.000576154               0.000718283               0.999999985              -0.000539080               0.000680556               0.999999985              -0.000524830               0.000676942               0.999999985              -0.000518423               0.000685569               0.999999985              -0.000512784               0.000697001               0.999999985              -0.000504158               0.000706277               0.999999985              -0.000490344               0.000710841               0.999999985              -0.000470279               0.000709187               0.999999985              -0.000443955               0.000701447               0.999999985              -0.000411812               0.000688211               0.999999985              -0.000374366               0.000669727               0.999999985              -0.000332510               0.000646404               0.999999985              -0.000287320               0.000618868               0.999999985              -0.000239669               0.000588143               0.999999985              -0.000190440               0.000555859               0.999999985              -0.000140434               0.000523012               0.999999985              -0.000607515               0.000950486               0.999999985              -0.000492665               0.000818370               0.999999985              -0.000456289               0.000782723               0.999999985              -0.000444411               0.000781331               0.999999985              -0.000439022               0.000792128               0.999999985              -0.000432182               0.000804958               0.999999985              -0.000419813               0.000814674               0.999999985              -0.000399684               0.000818792               0.999999985              -0.000371315               0.000816432               0.999999985              -0.000335349               0.000808016               0.999999985              -0.000292485               0.000793891               0.999999985              -0.000243710               0.000774570               0.999999985              -0.000190308               0.000750900               0.999999985              -0.000133428               0.000724093               0.999999985              -0.000074305               0.000695868               0.999999985              -0.000014167               0.000667322               0.999999985               0.000046035               0.000638891               0.999999985              -0.000544446               0.001043308               0.999999985              -0.000422552               0.000930746               0.999999985              -0.000383504               0.000891284               0.999999985              -0.000371047               0.000885125               0.999999985              -0.000366484               0.000893126               0.999999985              -0.000361751               0.000905894               0.999999985              -0.000352694               0.000918144               0.999999985              -0.000336750               0.000927144               0.999999985              -0.000313044               0.000931557               0.999999985              -0.000281958               0.000931069               0.999999985              -0.000243884               0.000925758               0.999999985              -0.000199618               0.000915868               0.999999985              -0.000149914               0.000901844               0.999999985              -0.000095221               0.000884685               0.999999985              -0.000036708               0.000865487               0.999999985               0.000023759               0.000845640               0.999999985               0.000084699               0.000825706               0.999999985              -0.000475707               0.001127997               0.999999985              -0.000355220               0.001039675               0.999999985              -0.000313615               0.001002895               0.999999985              -0.000299760               0.000994257               0.999999985              -0.000295117               0.001000389               0.999999985              -0.000291661               0.001013163               0.999999985              -0.000285085               0.001027865               0.999999985              -0.000272801               0.001041308               0.999999985              -0.000253636               0.001051794               0.999999985              -0.000227473               0.001058603               0.999999985              -0.000194439               0.001061469               0.999999985              -0.000154900               0.001060406               0.999999985              -0.000109264               0.001055633               0.999999985              -0.000057803               0.001047555               0.999999985              -0.000001096               0.001037079               0.999999985               0.000059435               0.001025448               0.999999985               0.000121871               0.001013635               0.999999985              -0.000402786               0.001202444               0.999999985              -0.000290684               0.001141746               0.999999985              -0.000248463               0.001112312               0.999999985              -0.000233054               0.001104510               0.999999985              -0.000227656               0.001110220               0.999999985              -0.000224518               0.001123689               0.999999985              -0.000219716               0.001140737               0.999999985              -0.000210517               0.001158387               0.999999985              -0.000195455               0.001174702               0.999999985              -0.000174195               0.001188487               0.999999985              -0.000146389               0.001199285               0.999999985              -0.000111869               0.001206818               0.999999985              -0.000071180               0.001210997               0.999999985              -0.000024061               0.001211987               0.999999985               0.000029907               0.001210330               0.999999985               0.000089828               0.001206942               0.999999985               0.000154017               0.001202941               0.999999985              -0.000326442               0.001265282               0.999999985              -0.000228936               0.001232737               0.999999985              -0.000189014               0.001213921               0.999999985              -0.000172874               0.001209961               0.999999985              -0.000166511               0.001217228               0.999999985              -0.000163299               0.001232228               0.999999985              -0.000159531               0.001251803               0.999999985              -0.000152710               0.001273435               0.999999985              -0.000141244               0.001295243               0.999999985              -0.000124552               0.001315927               0.999999985              -0.000102075               0.001334607               0.999999985              -0.000073485               0.001350794               0.999999985              -0.000038615               0.001364093               0.999999985               0.000003021               0.001374481               0.999999985               0.000052269               0.001382004               0.999999985               0.000109455               0.001387328               0.999999985               0.000173984               0.001391383               0.999999985              -0.000247366               0.001315271               0.999999985              -0.000169657               0.001308442               0.999999985              -0.000135343               0.001301753               0.999999985              -0.000120189               0.001303549               0.999999985              -0.000113599               0.001313922               0.999999985              -0.000110265               0.001331271               0.999999985              -0.000107181               0.001353609               0.999999985              -0.000102150               0.001379038               0.999999985              -0.000093732               0.001405868               0.999999985              -0.000081468               0.001432856               0.999999985              -0.000064680               0.001458954               0.999999985              -0.000042667               0.001483324               0.999999985              -0.000014876               0.001505565               0.999999985               0.000019380               0.001525455               0.999999985               0.000061096               0.001542772               0.999999985               0.000111706               0.001557637               0.999999985               0.000172161               0.001570366               0.999999985              -0.000166100               0.001351688               0.999999985              -0.000112151               0.001365364               0.999999985              -0.000086887               0.001369791               0.999999985              -0.000074937               0.001377592               0.999999985              -0.000069369               0.001391625               0.999999985              -0.000066489               0.001411632               0.999999985              -0.000064053               0.001436614               0.999999985              -0.000060617               0.001465147               0.999999985              -0.000055115               0.001495972               0.999999985              -0.000047098               0.001528044               0.999999985              -0.000036078               0.001560361               0.999999985              -0.000021171               0.001592043               0.999999985              -0.000001745               0.001622473               0.999999985               0.000022952               0.001651131               0.999999985               0.000053789               0.001677718               0.999999985               0.000092262               0.001701911               0.999999985               0.000140535               0.001723292               0.999999985              -0.000083386               0.001373843               0.999999985              -0.000055794               0.001400620               0.999999985              -0.000042394               0.001412830               0.999999985              -0.000035778               0.001425166               0.999999985              -0.000032572               0.001442024               0.999999985              -0.000030860               0.001464173               0.999999985              -0.000029513               0.001491118               0.999999985              -0.000027676               0.001521820               0.999999985              -0.000024947               0.001555228               0.999999985              -0.000021133               0.001590498               0.999999985              -0.000015600               0.001626863               0.999999985              -0.000008003               0.001663584               0.999999985               0.000001980               0.001699929               0.999999985               0.000014863               0.001735126               0.999999985               0.000031342               0.001768700               0.999999985               0.000052416               0.001799969               0.999999985               0.000079504               0.001828047               0.999999985               0.000000000               0.001381308               0.999999985              -0.000000000               0.001412557               0.999999985               0.000000000               0.001427507               0.999999985              -0.000000000               0.001441528               0.999999985               0.000000000               0.001459468               0.999999985               0.000000000               0.001482418               0.999999985               0.000000000               0.001510067               0.999999985              -0.000000000               0.001541542               0.999999985              -0.000000000               0.001575974               0.999999985              -0.000000000               0.001612480               0.999999985              -0.000000000               0.001650294               0.999999985              -0.000000000               0.001688686               0.999999985              -0.000000000               0.001727058               0.999999985               0.000000000               0.001764773               0.999999985               0.000000000               0.001800942               0.999999985              -0.000000000               0.001834650               0.999999985               0.000000000               0.001865120               0.999999985              -0.000894836               0.000000000               0.999999985              -0.000945108               0.000000000               0.999999985              -0.000966686              -0.000000000               0.999999985              -0.000979127              -0.000000000               0.999999985              -0.000989420               0.000000000               0.999999985              -0.001000200              -0.000000000               0.999999985              -0.001012051              -0.000000000               0.999999985              -0.001024853              -0.000000000               0.999999985              -0.001038247              -0.000000000               0.999999985              -0.001051842               0.000000000               0.999999985              -0.001065136               0.000000000               0.999999985              -0.001077789               0.000000000               0.999999985              -0.001089501               0.000000000               0.999999985              -0.001100027              -0.000000000               0.999999985              -0.001108979               0.000000000               0.999999985              -0.001115595              -0.000000000               0.999999985              -0.001119094              -0.000000000               0.999999985              -0.000889798              -0.000131184               0.999999985              -0.000935867              -0.000104178               0.999999985              -0.000954713              -0.000092023               0.999999985              -0.000965347              -0.000087082               0.999999985              -0.000974359              -0.000085791               0.999999985              -0.000984036              -0.000086184               0.999999985              -0.000994849              -0.000087115               0.999999985              -0.001006590              -0.000087627               0.999999985              -0.001018781              -0.000087302               0.999999985              -0.001030902              -0.000085632               0.999999985              -0.001042571              -0.000082544               0.999999985              -0.001053392              -0.000077905               0.999999985              -0.001063018              -0.000071477               0.999999985              -0.001071261              -0.000062776               0.999999985              -0.001077751              -0.000050983               0.999999985              -0.001081935              -0.000035124               0.999999985              -0.001083181              -0.000013898               0.999999985              -0.000874814              -0.000261148               0.999999985              -0.000908499              -0.000208038               0.999999985              -0.000919733              -0.000184969               0.999999985              -0.000925545              -0.000176190               0.999999985              -0.000931213              -0.000174370               0.999999985              -0.000938092              -0.000175711               0.999999985              -0.000946132              -0.000177734               0.999999985              -0.000954853              -0.000179084               0.999999985              -0.000963687              -0.000178489               0.999999985              -0.000972056              -0.000175603               0.999999985              -0.000979576              -0.000169680               0.999999985              -0.000985721              -0.000160747               0.999999985              -0.000990189              -0.000148644               0.999999985              -0.000992797              -0.000132517               0.999999985              -0.000993128              -0.000110983               0.999999985              -0.000990978              -0.000082911               0.999999985              -0.000986304              -0.000047131               0.999999985              -0.000850234              -0.000388733               0.999999985              -0.000864401              -0.000311289               0.999999985              -0.000864577              -0.000279744               0.999999985              -0.000863866              -0.000268996               0.999999985              -0.000865216              -0.000267872               0.999999985              -0.000868535              -0.000270656               0.999999985              -0.000872986              -0.000274274               0.999999985              -0.000877745              -0.000276507               0.999999985              -0.000881974              -0.000276188               0.999999985              -0.000885107              -0.000272155               0.999999985              -0.000886534              -0.000264026               0.999999985              -0.000885959              -0.000251794               0.999999985              -0.000883196              -0.000235214               0.999999985              -0.000877941              -0.000213371               0.999999985              -0.000870073              -0.000185197               0.999999985              -0.000859637              -0.000150113               0.999999985              -0.000846984              -0.000107454               0.999999985              -0.000816479              -0.000512841               0.999999985              -0.000805879              -0.000413873               0.999999985              -0.000793778              -0.000376830               0.999999985              -0.000786580              -0.000366121               0.999999985              -0.000783864              -0.000366793               0.999999985              -0.000783761              -0.000371714               0.999999985              -0.000784646              -0.000377073               0.999999985              -0.000785074              -0.000380474               0.999999985              -0.000784095              -0.000380231               0.999999985              -0.000780849              -0.000375276               0.999999985              -0.000775103              -0.000365412               0.999999985              -0.000766620              -0.000350688               0.999999985              -0.000755189              -0.000330975               0.999999985              -0.000740768              -0.000305598               0.999999985              -0.000723453              -0.000274045               0.999999985              -0.000703722              -0.000236474               0.999999985              -0.000682275              -0.000193287               0.999999985              -0.000774395              -0.000632239               0.999999985              -0.000735990              -0.000515889               0.999999985              -0.000712453              -0.000476371               0.999999985              -0.000700290              -0.000467339               0.999999985              -0.000694711              -0.000470637               0.999999985              -0.000692040              -0.000478009               0.999999985              -0.000689616              -0.000485087               0.999999985              -0.000685679              -0.000489280               0.999999985              -0.000679027              -0.000488802               0.999999985              -0.000668872              -0.000482887               0.999999985              -0.000655166              -0.000471643               0.999999985              -0.000637868              -0.000455168               0.999999985              -0.000616968              -0.000433541               0.999999985              -0.000592742              -0.000406414               0.999999985              -0.000565656              -0.000373852               0.999999985              -0.000536482              -0.000336882               0.999999985              -0.000505999              -0.000296630               0.999999985              -0.000724739              -0.000745849               0.999999985              -0.000658213              -0.000617411               0.999999985              -0.000625953              -0.000577917               0.999999985              -0.000611274              -0.000571572               0.999999985              -0.000604617              -0.000577653               0.999999985              -0.000600217              -0.000587307               0.999999985              -0.000594728              -0.000595697               0.999999985              -0.000586190              -0.000600261               0.999999985              -0.000573274              -0.000599342               0.999999985              -0.000555545              -0.000592477               0.999999985              -0.000533041              -0.000580133               0.999999985              -0.000506087              -0.000562467               0.999999985              -0.000474978              -0.000539764               0.999999985              -0.000440457              -0.000512127               0.999999985              -0.000403313              -0.000480105               0.999999985              -0.000364409              -0.000445156               0.999999985              -0.000324416              -0.000408641               0.999999985              -0.000668470              -0.000852596               0.999999985              -0.000576154              -0.000718283               0.999999985              -0.000539080              -0.000680556               0.999999985              -0.000524830              -0.000676942               0.999999985              -0.000518423              -0.000685569               0.999999985              -0.000512784              -0.000697001               0.999999985              -0.000504158              -0.000706277               0.999999985              -0.000490344              -0.000710841               0.999999985              -0.000470279              -0.000709187               0.999999985              -0.000443955              -0.000701447               0.999999985              -0.000411812              -0.000688211               0.999999985              -0.000374366              -0.000669727               0.999999985              -0.000332510              -0.000646404               0.999999985              -0.000287320              -0.000618868               0.999999985              -0.000239669              -0.000588143               0.999999985              -0.000190440              -0.000555859               0.999999985              -0.000140434              -0.000523012               0.999999985              -0.000607515              -0.000950486               0.999999985              -0.000492665              -0.000818370               0.999999985              -0.000456289              -0.000782723               0.999999985              -0.000444411              -0.000781331               0.999999985              -0.000439022              -0.000792128               0.999999985              -0.000432182              -0.000804958               0.999999985              -0.000419813              -0.000814674               0.999999985              -0.000399684              -0.000818792               0.999999985              -0.000371315              -0.000816432               0.999999985              -0.000335349              -0.000808016               0.999999985              -0.000292485              -0.000793891               0.999999985              -0.000243710              -0.000774570               0.999999985              -0.000190308              -0.000750900               0.999999985              -0.000133428              -0.000724093               0.999999985              -0.000074305              -0.000695868               0.999999985              -0.000014167              -0.000667322               0.999999985               0.000046035              -0.000638891               0.999999985              -0.000544446              -0.001043308               0.999999985              -0.000422552              -0.000930746               0.999999985              -0.000383504              -0.000891284               0.999999985              -0.000371047              -0.000885125               0.999999985              -0.000366484              -0.000893126               0.999999985              -0.000361751              -0.000905894               0.999999985              -0.000352694              -0.000918144               0.999999985              -0.000336750              -0.000927144               0.999999985              -0.000313044              -0.000931557               0.999999985              -0.000281958              -0.000931069               0.999999985              -0.000243884              -0.000925758               0.999999985              -0.000199618              -0.000915868               0.999999985              -0.000149914              -0.000901844               0.999999985              -0.000095221              -0.000884685               0.999999985              -0.000036708              -0.000865487               0.999999985               0.000023759              -0.000845640               0.999999985               0.000084699              -0.000825706               0.999999985              -0.000475707              -0.001127997               0.999999985              -0.000355220              -0.001039675               0.999999985              -0.000313615              -0.001002895               0.999999985              -0.000299760              -0.000994257               0.999999985              -0.000295117              -0.001000389               0.999999985              -0.000291661              -0.001013163               0.999999985              -0.000285085              -0.001027865               0.999999985              -0.000272801              -0.001041308               0.999999985              -0.000253636              -0.001051794               0.999999985              -0.000227473              -0.001058603               0.999999985              -0.000194439              -0.001061469               0.999999985              -0.000154900              -0.001060406               0.999999985              -0.000109264              -0.001055633               0.999999985              -0.000057803              -0.001047555               0.999999985              -0.000001096              -0.001037079               0.999999985               0.000059435              -0.001025448               0.999999985               0.000121871              -0.001013635               0.999999985              -0.000402786              -0.001202444               0.999999985              -0.000290684              -0.001141746               0.999999985              -0.000248463              -0.001112312               0.999999985              -0.000233054              -0.001104510               0.999999985              -0.000227656              -0.001110220               0.999999985              -0.000224518              -0.001123689               0.999999985              -0.000219716              -0.001140737               0.999999985              -0.000210517              -0.001158387               0.999999985              -0.000195455              -0.001174702               0.999999985              -0.000174195              -0.001188487               0.999999985              -0.000146389              -0.001199285               0.999999985              -0.000111869              -0.001206818               0.999999985              -0.000071180              -0.001210997               0.999999985              -0.000024061              -0.001211987               0.999999985               0.000029907              -0.001210330               0.999999985               0.000089828              -0.001206942               0.999999985               0.000154017              -0.001202941               0.999999985              -0.000326442              -0.001265282               0.999999985              -0.000228936              -0.001232737               0.999999985              -0.000189014              -0.001213921               0.999999985              -0.000172874              -0.001209961               0.999999985              -0.000166511              -0.001217228               0.999999985              -0.000163299              -0.001232228               0.999999985              -0.000159531              -0.001251803               0.999999985              -0.000152710              -0.001273435               0.999999985              -0.000141244              -0.001295243               0.999999985              -0.000124552              -0.001315927               0.999999985              -0.000102075              -0.001334607               0.999999985              -0.000073485              -0.001350794               0.999999985              -0.000038615              -0.001364093               0.999999985               0.000003021              -0.001374481               0.999999985               0.000052269              -0.001382004               0.999999985               0.000109455              -0.001387328               0.999999985               0.000173984              -0.001391383               0.999999985              -0.000247366              -0.001315271               0.999999985              -0.000169657              -0.001308442               0.999999985              -0.000135343              -0.001301753               0.999999985              -0.000120189              -0.001303549               0.999999985              -0.000113599              -0.001313922               0.999999985              -0.000110265              -0.001331271               0.999999985              -0.000107181              -0.001353609               0.999999985              -0.000102150              -0.001379038               0.999999985              -0.000093732              -0.001405868               0.999999985              -0.000081468              -0.001432856               0.999999985              -0.000064680              -0.001458954               0.999999985              -0.000042667              -0.001483324               0.999999985              -0.000014876              -0.001505565               0.999999985               0.000019380              -0.001525455               0.999999985               0.000061096              -0.001542772               0.999999985               0.000111706              -0.001557637               0.999999985               0.000172161              -0.001570366               0.999999985              -0.000166100              -0.001351688               0.999999985              -0.000112151              -0.001365364               0.999999985              -0.000086887              -0.001369791               0.999999985              -0.000074937              -0.001377592               0.999999985              -0.000069369              -0.001391625               0.999999985              -0.000066489              -0.001411632               0.999999985              -0.000064053              -0.001436614               0.999999985              -0.000060617              -0.001465147               0.999999985              -0.000055115              -0.001495972               0.999999985              -0.000047098              -0.001528044               0.999999985              -0.000036078              -0.001560361               0.999999985              -0.000021171              -0.001592043               0.999999985              -0.000001745              -0.001622473               0.999999985               0.000022952              -0.001651131               0.999999985               0.000053789              -0.001677718               0.999999985               0.000092262              -0.001701911               0.999999985               0.000140535              -0.001723292               0.999999985              -0.000083386              -0.001373843               0.999999985              -0.000055794              -0.001400620               0.999999985              -0.000042394              -0.001412830               0.999999985              -0.000035778              -0.001425166               0.999999985              -0.000032572              -0.001442024               0.999999985              -0.000030860              -0.001464173               0.999999985              -0.000029513              -0.001491118               0.999999985              -0.000027676              -0.001521820               0.999999985              -0.000024947              -0.001555228               0.999999985              -0.000021133              -0.001590498               0.999999985              -0.000015600              -0.001626863               0.999999985              -0.000008003              -0.001663584               0.999999985               0.000001980              -0.001699929               0.999999985               0.000014863              -0.001735126               0.999999985               0.000031342              -0.001768700               0.999999985               0.000052416              -0.001799969               0.999999985               0.000079504              -0.001828047               0.999999985               0.000000000              -0.001381308               0.999999985              -0.000000000              -0.001412557               0.999999985              -0.000000000              -0.001427507               0.999999985              -0.000000000              -0.001441528               0.999999985               0.000000000              -0.001459468               0.999999985              -0.000000000              -0.001482418               0.999999985               0.000000000              -0.001510067               0.999999985              -0.000000000              -0.001541542               0.999999985              -0.000000000              -0.001575974               0.999999985               0.000000000              -0.001612480               0.999999985               0.000000000              -0.001650294               0.999999985               0.000000000              -0.001688686               0.999999985              -0.000000000              -0.001727058               0.999999985              -0.000000000              -0.001764773               0.999999985               0.000000000              -0.001800942               0.999999985               0.000000000              -0.001834650               0.999999985               0.000000000              -0.001865120               0.999999985               0.000894836              -0.000000000               0.999999985               0.000945108               0.000000000               0.999999985               0.000966686               0.000000000               0.999999985               0.000979127               0.000000000               0.999999985               0.000989420               0.000000000               0.999999985               0.001000200              -0.000000000               0.999999985               0.001012051               0.000000000               0.999999985               0.001024853               0.000000000               0.999999985               0.001038247               0.000000000               0.999999985               0.001051842               0.000000000               0.999999985               0.001065136               0.000000000               0.999999985               0.001077789               0.000000000               0.999999985               0.001089501              -0.000000000               0.999999985               0.001100027               0.000000000               0.999999985               0.001108979               0.000000000               0.999999985               0.001115595               0.000000000               0.999999985               0.001119094               0.000000000               0.999999985               0.000889798              -0.000131184               0.999999985               0.000935867              -0.000104178               0.999999985               0.000954713              -0.000092023               0.999999985               0.000965347              -0.000087082               0.999999985               0.000974359              -0.000085791               0.999999985               0.000984036              -0.000086184               0.999999985               0.000994849              -0.000087115               0.999999985               0.001006590              -0.000087627               0.999999985               0.001018781              -0.000087302               0.999999985               0.001030902              -0.000085632               0.999999985               0.001042571              -0.000082544               0.999999985               0.001053392              -0.000077905               0.999999985               0.001063018              -0.000071477               0.999999985               0.001071261              -0.000062776               0.999999985               0.001077751              -0.000050983               0.999999985               0.001081935              -0.000035124               0.999999985               0.001083181              -0.000013898               0.999999985               0.000874814              -0.000261148               0.999999985               0.000908499              -0.000208038               0.999999985               0.000919733              -0.000184969               0.999999985               0.000925545              -0.000176190               0.999999985               0.000931213              -0.000174370               0.999999985               0.000938092              -0.000175711               0.999999985               0.000946132              -0.000177734               0.999999985               0.000954853              -0.000179084               0.999999985               0.000963687              -0.000178489               0.999999985               0.000972056              -0.000175603               0.999999985               0.000979576              -0.000169680               0.999999985               0.000985721              -0.000160747               0.999999985               0.000990189              -0.000148644               0.999999985               0.000992797              -0.000132517               0.999999985               0.000993128              -0.000110983               0.999999985               0.000990978              -0.000082911               0.999999985               0.000986304              -0.000047131               0.999999985               0.000850234              -0.000388733               0.999999985               0.000864401              -0.000311289               0.999999985               0.000864577              -0.000279744               0.999999985               0.000863866              -0.000268996               0.999999985               0.000865216              -0.000267872               0.999999985               0.000868535              -0.000270656               0.999999985               0.000872986              -0.000274274               0.999999985               0.000877745              -0.000276507               0.999999985               0.000881974              -0.000276188               0.999999985               0.000885107              -0.000272155               0.999999985               0.000886534              -0.000264026               0.999999985               0.000885959              -0.000251794               0.999999985               0.000883196              -0.000235214               0.999999985               0.000877941              -0.000213371               0.999999985               0.000870073              -0.000185197               0.999999985               0.000859637              -0.000150113               0.999999985               0.000846984              -0.000107454               0.999999985               0.000816479              -0.000512841               0.999999985               0.000805879              -0.000413873               0.999999985               0.000793778              -0.000376830               0.999999985               0.000786580              -0.000366121               0.999999985               0.000783864              -0.000366793               0.999999985               0.000783761              -0.000371714               0.999999985               0.000784646              -0.000377073               0.999999985               0.000785074              -0.000380474               0.999999985               0.000784095              -0.000380231               0.999999985               0.000780849              -0.000375276               0.999999985               0.000775103              -0.000365412               0.999999985               0.000766620              -0.000350688               0.999999985               0.000755189              -0.000330975               0.999999985               0.000740768              -0.000305598               0.999999985               0.000723453              -0.000274045               0.999999985               0.000703722              -0.000236474               0.999999985               0.000682275              -0.000193287               0.999999985               0.000774395              -0.000632239               0.999999985               0.000735990              -0.000515889               0.999999985               0.000712453              -0.000476371               0.999999985               0.000700290              -0.000467339               0.999999985               0.000694711              -0.000470637               0.999999985               0.000692040              -0.000478009               0.999999985               0.000689616              -0.000485087               0.999999985               0.000685679              -0.000489280               0.999999985               0.000679027              -0.000488802               0.999999985               0.000668872              -0.000482887               0.999999985               0.000655166              -0.000471643               0.999999985               0.000637868              -0.000455168               0.999999985               0.000616968              -0.000433541               0.999999985               0.000592742              -0.000406414               0.999999985               0.000565656              -0.000373852               0.999999985               0.000536482              -0.000336882               0.999999985               0.000505999              -0.000296630               0.999999985               0.000724739              -0.000745849               0.999999985               0.000658213              -0.000617411               0.999999985               0.000625953              -0.000577917               0.999999985               0.000611274              -0.000571572               0.999999985               0.000604617              -0.000577653               0.999999985               0.000600217              -0.000587307               0.999999985               0.000594728              -0.000595697               0.999999985               0.000586190              -0.000600261               0.999999985               0.000573274              -0.000599342               0.999999985               0.000555545              -0.000592477               0.999999985               0.000533041              -0.000580133               0.999999985               0.000506087              -0.000562467               0.999999985               0.000474978              -0.000539764               0.999999985               0.000440457              -0.000512127               0.999999985               0.000403313              -0.000480105               0.999999985               0.000364409              -0.000445156               0.999999985               0.000324416              -0.000408641               0.999999985               0.000668470              -0.000852596               0.999999985               0.000576154              -0.000718283               0.999999985               0.000539080              -0.000680556               0.999999985               0.000524830              -0.000676942               0.999999985               0.000518423              -0.000685569               0.999999985               0.000512784              -0.000697001               0.999999985               0.000504158              -0.000706277               0.999999985               0.000490344              -0.000710841               0.999999985               0.000470279              -0.000709187               0.999999985               0.000443955              -0.000701447               0.999999985               0.000411812              -0.000688211               0.999999985               0.000374366              -0.000669727               0.999999985               0.000332510              -0.000646404               0.999999985               0.000287320              -0.000618868               0.999999985               0.000239669              -0.000588143               0.999999985               0.000190440              -0.000555859               0.999999985               0.000140434              -0.000523012               0.999999985               0.000607515              -0.000950486               0.999999985               0.000492665              -0.000818370               0.999999985               0.000456289              -0.000782723               0.999999985               0.000444411              -0.000781331               0.999999985               0.000439022              -0.000792128               0.999999985               0.000432182              -0.000804958               0.999999985               0.000419813              -0.000814674               0.999999985               0.000399684              -0.000818792               0.999999985               0.000371315              -0.000816432               0.999999985               0.000335349              -0.000808016               0.999999985               0.000292485              -0.000793891               0.999999985               0.000243710              -0.000774570               0.999999985               0.000190308              -0.000750900               0.999999985               0.000133428              -0.000724093               0.999999985               0.000074305              -0.000695868               0.999999985               0.000014167              -0.000667322               0.999999985              -0.000046035              -0.000638891               0.999999985               0.000544446              -0.001043308               0.999999985               0.000422552              -0.000930746               0.999999985               0.000383504              -0.000891284               0.999999985               0.000371047              -0.000885125               0.999999985               0.000366484              -0.000893126               0.999999985               0.000361751              -0.000905894               0.999999985               0.000352694              -0.000918144               0.999999985               0.000336750              -0.000927144               0.999999985               0.000313044              -0.000931557               0.999999985               0.000281958              -0.000931069               0.999999985               0.000243884              -0.000925758               0.999999985               0.000199618              -0.000915868               0.999999985               0.000149914              -0.000901844               0.999999985               0.000095221              -0.000884685               0.999999985               0.000036708              -0.000865487               0.999999985              -0.000023759              -0.000845640               0.999999985              -0.000084699              -0.000825706               0.999999985               0.000475707              -0.001127997               0.999999985               0.000355220              -0.001039675               0.999999985               0.000313615              -0.001002895               0.999999985               0.000299760              -0.000994257               0.999999985               0.000295117              -0.001000389               0.999999985               0.000291661              -0.001013163               0.999999985               0.000285085              -0.001027865               0.999999985               0.000272801              -0.001041308               0.999999985               0.000253636              -0.001051794               0.999999985               0.000227473              -0.001058603               0.999999985               0.000194439              -0.001061469               0.999999985               0.000154900              -0.001060406               0.999999985               0.000109264              -0.001055633               0.999999985               0.000057803              -0.001047555               0.999999985               0.000001096              -0.001037079               0.999999985              -0.000059435              -0.001025448               0.999999985              -0.000121871              -0.001013635               0.999999985               0.000402786              -0.001202444               0.999999985               0.000290684              -0.001141746               0.999999985               0.000248463              -0.001112312               0.999999985               0.000233054              -0.001104510               0.999999985               0.000227656              -0.001110220               0.999999985               0.000224518              -0.001123689               0.999999985               0.000219716              -0.001140737               0.999999985               0.000210517              -0.001158387               0.999999985               0.000195455              -0.001174702               0.999999985               0.000174195              -0.001188487               0.999999985               0.000146389              -0.001199285               0.999999985               0.000111869              -0.001206818               0.999999985               0.000071180              -0.001210997               0.999999985               0.000024061              -0.001211987               0.999999985              -0.000029907              -0.001210330               0.999999985              -0.000089828              -0.001206942               0.999999985              -0.000154017              -0.001202941               0.999999985               0.000326442              -0.001265282               0.999999985               0.000228936              -0.001232737               0.999999985               0.000189014              -0.001213921               0.999999985               0.000172874              -0.001209961               0.999999985               0.000166511              -0.001217228               0.999999985               0.000163299              -0.001232228               0.999999985               0.000159531              -0.001251803               0.999999985               0.000152710              -0.001273435               0.999999985               0.000141244              -0.001295243               0.999999985               0.000124552              -0.001315927               0.999999985               0.000102075              -0.001334607               0.999999985               0.000073485              -0.001350794               0.999999985               0.000038615              -0.001364093               0.999999985              -0.000003021              -0.001374481               0.999999985              -0.000052269              -0.001382004               0.999999985              -0.000109455              -0.001387328               0.999999985              -0.000173984              -0.001391383               0.999999985               0.000247366              -0.001315271               0.999999985               0.000169657              -0.001308442               0.999999985               0.000135343              -0.001301753               0.999999985               0.000120189              -0.001303549               0.999999985               0.000113599              -0.001313922               0.999999985               0.000110265              -0.001331271               0.999999985               0.000107181              -0.001353609               0.999999985               0.000102150              -0.001379038               0.999999985               0.000093732              -0.001405868               0.999999985               0.000081468              -0.001432856               0.999999985               0.000064680              -0.001458954               0.999999985               0.000042667              -0.001483324               0.999999985               0.000014876              -0.001505565               0.999999985              -0.000019380              -0.001525455               0.999999985              -0.000061096              -0.001542772               0.999999985              -0.000111706              -0.001557637               0.999999985              -0.000172161              -0.001570366               0.999999985               0.000166100              -0.001351688               0.999999985               0.000112151              -0.001365364               0.999999985               0.000086887              -0.001369791               0.999999985               0.000074937              -0.001377592               0.999999985               0.000069369              -0.001391625               0.999999985               0.000066489              -0.001411632               0.999999985               0.000064053              -0.001436614               0.999999985               0.000060617              -0.001465147               0.999999985               0.000055115              -0.001495972               0.999999985               0.000047098              -0.001528044               0.999999985               0.000036078              -0.001560361               0.999999985               0.000021171              -0.001592043               0.999999985               0.000001745              -0.001622473               0.999999985              -0.000022952              -0.001651131               0.999999985              -0.000053789              -0.001677718               0.999999985              -0.000092262              -0.001701911               0.999999985              -0.000140535              -0.001723292               0.999999985               0.000083386              -0.001373843               0.999999985               0.000055794              -0.001400620               0.999999985               0.000042394              -0.001412830               0.999999985               0.000035778              -0.001425166               0.999999985               0.000032572              -0.001442024               0.999999985               0.000030860              -0.001464173               0.999999985               0.000029513              -0.001491118               0.999999985               0.000027676              -0.001521820               0.999999985               0.000024947              -0.001555228               0.999999985               0.000021133              -0.001590498               0.999999985               0.000015600              -0.001626863               0.999999985               0.000008003              -0.001663584               0.999999985              -0.000001980              -0.001699929               0.999999985              -0.000014863              -0.001735126               0.999999985              -0.000031342              -0.001768700               0.999999985              -0.000052416              -0.001799969               0.999999985              -0.000079504              -0.001828047               0.999999985               0.000000000              -0.001381308               0.999999985              -0.000000000              -0.001412557               0.999999985              -0.000000000              -0.001427507               0.999999985              -0.000000000              -0.001441528               0.999999985               0.000000000              -0.001459468               0.999999985              -0.000000000              -0.001482418               0.999999985               0.000000000              -0.001510067               0.999999985              -0.000000000              -0.001541542               0.999999985              -0.000000000              -0.001575974               0.999999985               0.000000000              -0.001612480               0.999999985               0.000000000              -0.001650294               0.999999985               0.000000000              -0.001688686               0.999999985              -0.000000000              -0.001727058               0.999999985              -0.000000000              -0.001764773               0.999999985               0.000000000              -0.001800942               0.999999985               0.000000000              -0.001834650               0.999999985               0.000000000              -0.001865120               0.999999985               0.000894836              -0.000000000               0.999999985               0.000945108               0.000000000               0.999999985               0.000966686               0.000000000               0.999999985               0.000979127               0.000000000               0.999999985               0.000989420               0.000000000               0.999999985               0.001000200              -0.000000000               0.999999985               0.001012051               0.000000000               0.999999985               0.001024853               0.000000000               0.999999985               0.001038247               0.000000000               0.999999985               0.001051842               0.000000000               0.999999985               0.001065136               0.000000000               0.999999985               0.001077789               0.000000000               0.999999985               0.001089501              -0.000000000               0.999999985               0.001100027               0.000000000               0.999999985               0.001108979               0.000000000               0.999999985               0.001115595               0.000000000               0.999999985               0.001119094               0.000000000               0.999999985               0.000889798               0.000131184               0.999999985               0.000935867               0.000104178               0.999999985               0.000954713               0.000092023               0.999999985               0.000965347               0.000087082               0.999999985               0.000974359               0.000085791               0.999999985               0.000984036               0.000086184               0.999999985               0.000994849               0.000087115               0.999999985               0.001006590               0.000087627               0.999999985               0.001018781               0.000087302               0.999999985               0.001030902               0.000085632               0.999999985               0.001042571               0.000082544               0.999999985               0.001053392               0.000077905               0.999999985               0.001063018               0.000071477               0.999999985               0.001071261               0.000062776               0.999999985               0.001077751               0.000050983               0.999999985               0.001081935               0.000035124               0.999999985               0.001083181               0.000013898               0.999999985               0.000874814               0.000261148               0.999999985               0.000908499               0.000208038               0.999999985               0.000919733               0.000184969               0.999999985               0.000925545               0.000176190               0.999999985               0.000931213               0.000174370               0.999999985               0.000938092               0.000175711               0.999999985               0.000946132               0.000177734               0.999999985               0.000954853               0.000179084               0.999999985               0.000963687               0.000178489               0.999999985               0.000972056               0.000175603               0.999999985               0.000979576               0.000169680               0.999999985               0.000985721               0.000160747               0.999999985               0.000990189               0.000148644               0.999999985               0.000992797               0.000132517               0.999999985               0.000993128               0.000110983               0.999999985               0.000990978               0.000082911               0.999999985               0.000986304               0.000047131               0.999999985               0.000850234               0.000388733               0.999999985               0.000864401               0.000311289               0.999999985               0.000864577               0.000279744               0.999999985               0.000863866               0.000268996               0.999999985               0.000865216               0.000267872               0.999999985               0.000868535               0.000270656               0.999999985               0.000872986               0.000274274               0.999999985               0.000877745               0.000276507               0.999999985               0.000881974               0.000276188               0.999999985               0.000885107               0.000272155               0.999999985               0.000886534               0.000264026               0.999999985               0.000885959               0.000251794               0.999999985               0.000883196               0.000235214               0.999999985               0.000877941               0.000213371               0.999999985               0.000870073               0.000185197               0.999999985               0.000859637               0.000150113               0.999999985               0.000846984               0.000107454               0.999999985               0.000816479               0.000512841               0.999999985               0.000805879               0.000413873               0.999999985               0.000793778               0.000376830               0.999999985               0.000786580               0.000366121               0.999999985               0.000783864               0.000366793               0.999999985               0.000783761               0.000371714               0.999999985               0.000784646               0.000377073               0.999999985               0.000785074               0.000380474               0.999999985               0.000784095               0.000380231               0.999999985               0.000780849               0.000375276               0.999999985               0.000775103               0.000365412               0.999999985               0.000766620               0.000350688               0.999999985               0.000755189               0.000330975               0.999999985               0.000740768               0.000305598               0.999999985               0.000723453               0.000274045               0.999999985               0.000703722               0.000236474               0.999999985               0.000682275               0.000193287               0.999999985               0.000774395               0.000632239               0.999999985               0.000735990               0.000515889               0.999999985               0.000712453               0.000476371               0.999999985               0.000700290               0.000467339               0.999999985               0.000694711               0.000470637               0.999999985               0.000692040               0.000478009               0.999999985               0.000689616               0.000485087               0.999999985               0.000685679               0.000489280               0.999999985               0.000679027               0.000488802               0.999999985               0.000668872               0.000482887               0.999999985               0.000655166               0.000471643               0.999999985               0.000637868               0.000455168               0.999999985               0.000616968               0.000433541               0.999999985               0.000592742               0.000406414               0.999999985               0.000565656               0.000373852               0.999999985               0.000536482               0.000336882               0.999999985               0.000505999               0.000296630               0.999999985               0.000724739               0.000745849               0.999999985               0.000658213               0.000617411               0.999999985               0.000625953               0.000577917               0.999999985               0.000611274               0.000571572               0.999999985               0.000604617               0.000577653               0.999999985               0.000600217               0.000587307               0.999999985               0.000594728               0.000595697               0.999999985               0.000586190               0.000600261               0.999999985               0.000573274               0.000599342               0.999999985               0.000555545               0.000592477               0.999999985               0.000533041               0.000580133               0.999999985               0.000506087               0.000562467               0.999999985               0.000474978               0.000539764               0.999999985               0.000440457               0.000512127               0.999999985               0.000403313               0.000480105               0.999999985               0.000364409               0.000445156               0.999999985               0.000324416               0.000408641               0.999999985               0.000668470               0.000852596               0.999999985               0.000576154               0.000718283               0.999999985               0.000539080               0.000680556               0.999999985               0.000524830               0.000676942               0.999999985               0.000518423               0.000685569               0.999999985               0.000512784               0.000697001               0.999999985               0.000504158               0.000706277               0.999999985               0.000490344               0.000710841               0.999999985               0.000470279               0.000709187               0.999999985               0.000443955               0.000701447               0.999999985               0.000411812               0.000688211               0.999999985               0.000374366               0.000669727               0.999999985               0.000332510               0.000646404               0.999999985               0.000287320               0.000618868               0.999999985               0.000239669               0.000588143               0.999999985               0.000190440               0.000555859               0.999999985               0.000140434               0.000523012               0.999999985               0.000607515               0.000950486               0.999999985               0.000492665               0.000818370               0.999999985               0.000456289               0.000782723               0.999999985               0.000444411               0.000781331               0.999999985               0.000439022               0.000792128               0.999999985               0.000432182               0.000804958               0.999999985               0.000419813               0.000814674               0.999999985               0.000399684               0.000818792               0.999999985               0.000371315               0.000816432               0.999999985               0.000335349               0.000808016               0.999999985               0.000292485               0.000793891               0.999999985               0.000243710               0.000774570               0.999999985               0.000190308               0.000750900               0.999999985               0.000133428               0.000724093               0.999999985               0.000074305               0.000695868               0.999999985               0.000014167               0.000667322               0.999999985              -0.000046035               0.000638891               0.999999985               0.000544446               0.001043308               0.999999985               0.000422552               0.000930746               0.999999985               0.000383504               0.000891284               0.999999985               0.000371047               0.000885125               0.999999985               0.000366484               0.000893126               0.999999985               0.000361751               0.000905894               0.999999985               0.000352694               0.000918144               0.999999985               0.000336750               0.000927144               0.999999985               0.000313044               0.000931557               0.999999985               0.000281958               0.000931069               0.999999985               0.000243884               0.000925758               0.999999985               0.000199618               0.000915868               0.999999985               0.000149914               0.000901844               0.999999985               0.000095221               0.000884685               0.999999985               0.000036708               0.000865487               0.999999985              -0.000023759               0.000845640               0.999999985              -0.000084699               0.000825706               0.999999985               0.000475707               0.001127997               0.999999985               0.000355220               0.001039675               0.999999985               0.000313615               0.001002895               0.999999985               0.000299760               0.000994257               0.999999985               0.000295117               0.001000389               0.999999985               0.000291661               0.001013163               0.999999985               0.000285085               0.001027865               0.999999985               0.000272801               0.001041308               0.999999985               0.000253636               0.001051794               0.999999985               0.000227473               0.001058603               0.999999985               0.000194439               0.001061469               0.999999985               0.000154900               0.001060406               0.999999985               0.000109264               0.001055633               0.999999985               0.000057803               0.001047555               0.999999985               0.000001096               0.001037079               0.999999985              -0.000059435               0.001025448               0.999999985              -0.000121871               0.001013635               0.999999985               0.000402786               0.001202444               0.999999985               0.000290684               0.001141746               0.999999985               0.000248463               0.001112312               0.999999985               0.000233054               0.001104510               0.999999985               0.000227656               0.001110220               0.999999985               0.000224518               0.001123689               0.999999985               0.000219716               0.001140737               0.999999985               0.000210517               0.001158387               0.999999985               0.000195455               0.001174702               0.999999985               0.000174195               0.001188487               0.999999985               0.000146389               0.001199285               0.999999985               0.000111869               0.001206818               0.999999985               0.000071180               0.001210997               0.999999985               0.000024061               0.001211987               0.999999985              -0.000029907               0.001210330               0.999999985              -0.000089828               0.001206942               0.999999985              -0.000154017               0.001202941               0.999999985               0.000326442               0.001265282               0.999999985               0.000228936               0.001232737               0.999999985               0.000189014               0.001213921               0.999999985               0.000172874               0.001209961               0.999999985               0.000166511               0.001217228               0.999999985               0.000163299               0.001232228               0.999999985               0.000159531               0.001251803               0.999999985               0.000152710               0.001273435               0.999999985               0.000141244               0.001295243               0.999999985               0.000124552               0.001315927               0.999999985               0.000102075               0.001334607               0.999999985               0.000073485               0.001350794               0.999999985               0.000038615               0.001364093               0.999999985              -0.000003021               0.001374481               0.999999985              -0.000052269               0.001382004               0.999999985              -0.000109455               0.001387328               0.999999985              -0.000173984               0.001391383               0.999999985               0.000247366               0.001315271               0.999999985               0.000169657               0.001308442               0.999999985               0.000135343               0.001301753               0.999999985               0.000120189               0.001303549               0.999999985               0.000113599               0.001313922               0.999999985               0.000110265               0.001331271               0.999999985               0.000107181               0.001353609               0.999999985               0.000102150               0.001379038               0.999999985               0.000093732               0.001405868               0.999999985               0.000081468               0.001432856               0.999999985               0.000064680               0.001458954               0.999999985               0.000042667               0.001483324               0.999999985               0.000014876               0.001505565               0.999999985              -0.000019380               0.001525455               0.999999985              -0.000061096               0.001542772               0.999999985              -0.000111706               0.001557637               0.999999985              -0.000172161               0.001570366               0.999999985               0.000166100               0.001351688               0.999999985               0.000112151               0.001365364               0.999999985               0.000086887               0.001369791               0.999999985               0.000074937               0.001377592               0.999999985               0.000069369               0.001391625               0.999999985               0.000066489               0.001411632               0.999999985               0.000064053               0.001436614               0.999999985               0.000060617               0.001465147               0.999999985               0.000055115               0.001495972               0.999999985               0.000047098               0.001528044               0.999999985               0.000036078               0.001560361               0.999999985               0.000021171               0.001592043               0.999999985               0.000001745               0.001622473               0.999999985              -0.000022952               0.001651131               0.999999985              -0.000053789               0.001677718               0.999999985              -0.000092262               0.001701911               0.999999985              -0.000140535               0.001723292               0.999999985               0.000083386               0.001373843               0.999999985               0.000055794               0.001400620               0.999999985               0.000042394               0.001412830               0.999999985               0.000035778               0.001425166               0.999999985               0.000032572               0.001442024               0.999999985               0.000030860               0.001464173               0.999999985               0.000029513               0.001491118               0.999999985               0.000027676               0.001521820               0.999999985               0.000024947               0.001555228               0.999999985               0.000021133               0.001590498               0.999999985               0.000015600               0.001626863               0.999999985               0.000008003               0.001663584               0.999999985              -0.000001980               0.001699929               0.999999985              -0.000014863               0.001735126               0.999999985              -0.000031342               0.001768700               0.999999985              -0.000052416               0.001799969               0.999999985              -0.000079504               0.001828047               0.999999985               0.000000000               0.001381308               0.999999985              -0.000000000               0.001412557               0.999999985               0.000000000               0.001427507               0.999999985              -0.000000000               0.001441528               0.999999985               0.000000000               0.001459468               0.999999985               0.000000000               0.001482418               0.999999985               0.000000000               0.001510067               0.999999985              -0.000000000               0.001541542               0.999999985              -0.000000000               0.001575974               0.999999985              -0.000000000               0.001612480               0.999999985              -0.000000000               0.001650294               0.999999985              -0.000000000               0.001688686               0.999999985              -0.000000000               0.001727058               0.999999985               0.000000000               0.001764773               0.999999985               0.000000000               0.001800942               0.999999985              -0.000000000               0.001834650               0.999999985               0.000000000               0.001865120               0.999999985 </DataArray>
<DataArray type="Float64"                                    Name="stress"                                                      NumberOfComponents="10" format="ascii">
              0.002214125               0.023807689              -0.000000000              -0.002145659               0.008651036               0.006505377               0.000000000               0.000000000               0.000000000               0.000000000               0.002096690               0.018275930              -0.000000000              -0.001498229               0.006591325               0.005093097               0.000000000               0.000000000               0.000000000               0.000000000               0.002667132               0.013797541              -0.000000000              -0.000724516               0.004840640               0.004116123               0.000000000               0.000000000               0.000000000               0.000000000               0.002431590               0.011277932               0.000000000              -0.000497894               0.003925238               0.003427344               0.000000000               0.000000000               0.000000000               0.000000000               0.001980129               0.009687745              -0.000000000              -0.000468419               0.003385355               0.002916937               0.000000000               0.000000000               0.000000000               0.000000000               0.001515521               0.008574197              -0.000000000              -0.000503453               0.003025855               0.002522401               0.000000000               0.000000000               0.000000000               0.000000000               0.001114474               0.007716744               0.000000000              -0.000546664               0.002754444               0.002207780               0.000000000               0.000000000               0.000000000               0.000000000               0.000787738               0.006987407              -0.000000000              -0.000578023               0.002521786               0.001943764               0.000000000               0.000000000               0.000000000               0.000000000               0.000529897               0.006322245               0.000000000              -0.000591568               0.002304583               0.001713015               0.000000000               0.000000000               0.000000000               0.000000000               0.000331250               0.005681380               0.000000000              -0.000585952               0.002089092               0.001503139               0.000000000               0.000000000               0.000000000               0.000000000               0.000183184               0.005051611               0.000000000              -0.000562756               0.001871439               0.001308683               0.000000000               0.000000000               0.000000000               0.000000000               0.000073789               0.004422151               0.000000000              -0.000525097               0.001649068               0.001123971               0.000000000               0.000000000               0.000000000               0.000000000              -0.000009989               0.003777017              -0.000000000              -0.000475872               0.001417617               0.000941745               0.000000000               0.000000000               0.000000000               0.000000000              -0.000071004               0.003094502              -0.000000000              -0.000413438               0.001169303               0.000755865               0.000000000               0.000000000               0.000000000               0.000000000              -0.000089768               0.002351206              -0.000000000              -0.000327563               0.000892915               0.000565352               0.000000000               0.000000000               0.000000000               0.000000000              -0.000055815               0.001517362              -0.000000000              -0.000210600               0.000575982               0.000365382               0.000000000               0.000000000               0.000000000               0.000000000              -0.000095097               0.000877998              -0.000000000              -0.000145411               0.000341133               0.000195722               0.000000000               0.000000000               0.000000000               0.000000000               0.002273684               0.023294604              -0.001567790              -0.002059189               0.008451187               0.006391997               0.000000000               0.000000000               0.000000000               0.000000000               0.002028711               0.017955101              -0.000696959              -0.001483618               0.006479513               0.004995895               0.000000000               0.000000000               0.000000000               0.000000000               0.002462838               0.013672076               0.000160755              -0.000785444               0.004819128               0.004033684               0.000000000               0.000000000               0.000000000               0.000000000               0.002177501               0.011253452               0.000511912              -0.000590117               0.003947819               0.003357702               0.000000000               0.000000000               0.000000000               0.000000000               0.001720989               0.009715235               0.000648307              -0.000569032               0.003428057               0.002859024               0.000000000               0.000000000               0.000000000               0.000000000               0.001271873               0.008627562               0.000689066              -0.000601491               0.003076322               0.002474831               0.000000000               0.000000000               0.000000000               0.000000000               0.000890199               0.007777370               0.000683319              -0.000638345               0.002805212               0.002166867               0.000000000               0.000000000               0.000000000               0.000000000               0.000587541               0.007054579               0.000655107              -0.000661493               0.002572000               0.001910507               0.000000000               0.000000000               0.000000000               0.000000000               0.000357404               0.006393559               0.000617791              -0.000665167               0.002352887               0.001687720               0.000000000               0.000000000               0.000000000               0.000000000               0.000185728               0.005763287               0.000578350              -0.000650761               0.002137997               0.001487236               0.000000000               0.000000000               0.000000000               0.000000000               0.000060254               0.005141059               0.000541962              -0.000620036               0.001920348               0.001300312               0.000000000               0.000000000               0.000000000               0.000000000              -0.000024209               0.004522932               0.000507681              -0.000574444               0.001699110               0.001124666               0.000000000               0.000000000               0.000000000               0.000000000              -0.000082676               0.003899102               0.000466000              -0.000518390               0.001472484               0.000954094               0.000000000               0.000000000               0.000000000               0.000000000              -0.000117709               0.003250544               0.000403470              -0.000450458               0.001233656               0.000783198               0.000000000               0.000000000               0.000000000               0.000000000              -0.000116026               0.002557633               0.000311640              -0.000363213               0.000973607               0.000610394               0.000000000               0.000000000               0.000000000               0.000000000              -0.000070477               0.001805552               0.000180140              -0.000252123               0.000685886               0.000433763               0.000000000               0.000000000               0.000000000               0.000000000              -0.000095060               0.001248557               0.000112827              -0.000191717               0.000480087               0.000288370               0.000000000               0.000000000               0.000000000               0.000000000               0.002416571               0.021830833              -0.002893875              -0.001822637               0.007884417               0.006061780               0.000000000               0.000000000               0.000000000               0.000000000               0.001813410               0.017042082              -0.001278931              -0.001450228               0.006164046               0.004713818               0.000000000               0.000000000               0.000000000               0.000000000               0.001870246               0.013321411               0.000295114              -0.000963832               0.004761703               0.003797871               0.000000000               0.000000000               0.000000000               0.000000000               0.001460409               0.011183530               0.000914492              -0.000850286               0.004011235               0.003160949               0.000000000               0.000000000               0.000000000               0.000000000               0.000999965               0.009781862               0.001142507              -0.000847744               0.003543169               0.002695425               0.000000000               0.000000000               0.000000000               0.000000000               0.000602583               0.008754469               0.001200124              -0.000868338               0.003207573               0.002339235               0.000000000               0.000000000               0.000000000               0.000000000               0.000292109               0.007931455               0.001180153              -0.000881889               0.002937755               0.002055866               0.000000000               0.000000000               0.000000000               0.000000000               0.000063477               0.007222061               0.001122365              -0.000878952               0.002700313               0.001821361               0.000000000               0.000000000               0.000000000               0.000000000              -0.000094500               0.006576727               0.001049335              -0.000857527               0.002478063               0.001620536               0.000000000               0.000000000               0.000000000               0.000000000              -0.000200091               0.005962400               0.000971060              -0.000820332               0.002260891               0.001440559               0.000000000               0.000000000               0.000000000               0.000000000              -0.000261070               0.005366148               0.000896825              -0.000768668               0.002044921               0.001276252               0.000000000               0.000000000               0.000000000               0.000000000              -0.000282082               0.004787473               0.000830366              -0.000704213               0.001830546               0.001126333               0.000000000               0.000000000               0.000000000               0.000000000              -0.000277961               0.004218720               0.000751060              -0.000631574               0.001616751               0.000985177               0.000000000               0.000000000               0.000000000               0.000000000              -0.000245851               0.003652296               0.000635460              -0.000548730               0.001400330               0.000851600               0.000000000               0.000000000               0.000000000               0.000000000              -0.000182612               0.003087262               0.000475751              -0.000454386               0.001180539               0.000726153               0.000000000               0.000000000               0.000000000               0.000000000              -0.000098474               0.002530069               0.000267613              -0.000353186               0.000961076               0.000607891               0.000000000               0.000000000               0.000000000               0.000000000              -0.000090573               0.002151468               0.000163333              -0.000302898               0.000818115               0.000515217               0.000000000               0.000000000               0.000000000               0.000000000               0.002525443               0.019615512              -0.003800272              -0.001504896               0.007040070               0.005535174               0.000000000               0.000000000               0.000000000               0.000000000               0.001424918               0.015675385              -0.001674974              -0.001425076               0.005700101               0.004275025               0.000000000               0.000000000               0.000000000               0.000000000               0.000962726               0.012798405               0.000364279              -0.001238775               0.004679018               0.003440242               0.000000000               0.000000000               0.000000000               0.000000000               0.000415362               0.011054415               0.001118298              -0.001226038               0.004093447               0.002867409               0.000000000               0.000000000               0.000000000               0.000000000              -0.000019189               0.009833282               0.001372604              -0.001236353               0.003689846               0.002453492               0.000000000               0.000000000               0.000000000               0.000000000              -0.000320014               0.008887238               0.001422311              -0.001230907               0.003372685               0.002141778               0.000000000               0.000000000               0.000000000               0.000000000              -0.000510509               0.008102908               0.001380600              -0.001204302               0.003102376               0.001898074               0.000000000               0.000000000               0.000000000               0.000000000              -0.000617550               0.007414310               0.001297778              -0.001158367               0.002857534               0.001699167               0.000000000               0.000000000               0.000000000               0.000000000              -0.000662871               0.006785002               0.001196632              -0.001096699               0.002627211               0.001530512               0.000000000               0.000000000               0.000000000               0.000000000              -0.000665440               0.006189621               0.001092279              -0.001023240               0.002404266               0.001381026               0.000000000               0.000000000               0.000000000               0.000000000              -0.000631432               0.005632833               0.000997508              -0.000940889               0.002191222               0.001250333               0.000000000               0.000000000               0.000000000               0.000000000              -0.000572022               0.005109639               0.000909321              -0.000853211               0.001987600               0.001134388               0.000000000               0.000000000               0.000000000               0.000000000              -0.000488747               0.004615711               0.000805124              -0.000760242               0.001791969               0.001031727               0.000000000               0.000000000               0.000000000               0.000000000              -0.000380589               0.004154675               0.000663280              -0.000662054               0.001605562               0.000943509               0.000000000               0.000000000               0.000000000               0.000000000              -0.000254831               0.003741129               0.000482720              -0.000563202               0.001434764               0.000871563               0.000000000               0.000000000               0.000000000               0.000000000              -0.000126564               0.003393256               0.000263635              -0.000471617               0.001288280               0.000816663               0.000000000               0.000000000               0.000000000               0.000000000              -0.000083235               0.003190620               0.000153056              -0.000430040               0.001206876               0.000776836               0.000000000               0.000000000               0.000000000               0.000000000               0.002447872               0.016910176              -0.004208308              -0.001195820               0.006035275               0.004839455               0.000000000               0.000000000               0.000000000               0.000000000               0.000839898               0.014039675              -0.001871828              -0.001439995               0.005159843               0.003719848               0.000000000               0.000000000               0.000000000               0.000000000              -0.000153550               0.012163092               0.000330019              -0.001577964               0.004580311               0.003002347               0.000000000               0.000000000               0.000000000               0.000000000              -0.000776073               0.010848124               0.001081095              -0.001647039               0.004165018               0.002517979               0.000000000               0.000000000               0.000000000               0.000000000              -0.001120208               0.009819354               0.001309110              -0.001647493               0.003822250               0.002174756               0.000000000               0.000000000               0.000000000               0.000000000              -0.001274646               0.008964121               0.001335568              -0.001598504               0.003520845               0.001922341               0.000000000               0.000000000               0.000000000               0.000000000              -0.001307573               0.008217980               0.001279616              -0.001517584               0.003245160               0.001727577               0.000000000               0.000000000               0.000000000               0.000000000              -0.001262672               0.007546956               0.001185841              -0.001416868               0.002987916               0.001571048               0.000000000               0.000000000               0.000000000               0.000000000              -0.001167427               0.006926968               0.001076151              -0.001303653               0.002743517               0.001439864               0.000000000               0.000000000               0.000000000               0.000000000              -0.001047561               0.006357568               0.000969100              -0.001187529               0.002515011               0.001327482               0.000000000               0.000000000               0.000000000               0.000000000              -0.000916295               0.005842151               0.000873029              -0.001073877               0.002305323               0.001231446               0.000000000               0.000000000               0.000000000               0.000000000              -0.000768331               0.005379080               0.000781970              -0.000960507               0.002113178               0.001152671               0.000000000               0.000000000               0.000000000               0.000000000              -0.000606286               0.004966986               0.000675252              -0.000848229               0.001938388               0.001090160               0.000000000               0.000000000               0.000000000               0.000000000              -0.000435125               0.004612219               0.000536513              -0.000739698               0.001783957               0.001044259               0.000000000               0.000000000               0.000000000               0.000000000              -0.000269262               0.004329301               0.000373902              -0.000642134               0.001657130               0.001014996               0.000000000               0.000000000               0.000000000               0.000000000              -0.000125559               0.004136960               0.000195498              -0.000564203               0.001567041               0.001002837               0.000000000               0.000000000               0.000000000               0.000000000              -0.000066165               0.004055114               0.000106158              -0.000531700               0.001528925               0.000997225               0.000000000               0.000000000               0.000000000               0.000000000               0.002063270               0.014002702              -0.004130127              -0.000976612               0.004993057               0.004016445               0.000000000               0.000000000               0.000000000               0.000000000               0.000071566               0.012319594              -0.001900927              -0.001513109               0.004610860               0.003097750               0.000000000               0.000000000               0.000000000               0.000000000              -0.001342558               0.011470209               0.000167687              -0.001937231               0.004469108               0.002531878               0.000000000               0.000000000               0.000000000               0.000000000              -0.001930471               0.010557246               0.000815033              -0.002043577               0.004200239               0.002156662               0.000000000               0.000000000               0.000000000               0.000000000              -0.002109426               0.009701545               0.000992547              -0.002003723               0.003901724               0.001898001               0.000000000               0.000000000               0.000000000               0.000000000              -0.002075035               0.008925062               0.001002348              -0.001893766               0.003606246               0.001712480               0.000000000               0.000000000               0.000000000               0.000000000              -0.001930855               0.008212189               0.000949017              -0.001750590               0.003320899               0.001570309               0.000000000               0.000000000               0.000000000               0.000000000              -0.001726838               0.007555987               0.000866248              -0.001592059               0.003049323               0.001457264               0.000000000               0.000000000               0.000000000               0.000000000              -0.001490311               0.006957217               0.000773189              -0.001428515               0.002795221               0.001366706               0.000000000               0.000000000               0.000000000               0.000000000              -0.001251481               0.006423086               0.000687469              -0.001272188               0.002565070               0.001292882               0.000000000               0.000000000               0.000000000               0.000000000              -0.001028103               0.005955289               0.000612625              -0.001129947               0.002361725               0.001231778               0.000000000               0.000000000               0.000000000               0.000000000              -0.000807718               0.005551471               0.000539668              -0.000996826               0.002182747               0.001185921               0.000000000               0.000000000               0.000000000               0.000000000              -0.000594599               0.005209147               0.000451599              -0.000874116               0.002027737               0.001153621               0.000000000               0.000000000               0.000000000               0.000000000              -0.000398123               0.004933847               0.000338239              -0.000766025               0.001899941               0.001133916               0.000000000               0.000000000               0.000000000               0.000000000              -0.000230055               0.004736388               0.000217658              -0.000678317               0.001804886               0.001126569               0.000000000               0.000000000               0.000000000               0.000000000              -0.000100363               0.004626756               0.000105606              -0.000615979               0.001747563               0.001131584               0.000000000               0.000000000               0.000000000               0.000000000              -0.000046887               0.004595201               0.000053355              -0.000591981               0.001729045               0.001137064               0.000000000               0.000000000               0.000000000               0.000000000               0.001299174               0.011149078              -0.003653921              -0.000906445               0.004018470               0.003112024               0.000000000               0.000000000               0.000000000               0.000000000              -0.000845070               0.010654832              -0.001821744              -0.001648752               0.004101159               0.002452406               0.000000000               0.000000000               0.000000000               0.000000000              -0.002472332               0.010745189              -0.000129286              -0.002270268               0.004338450               0.002068182               0.000000000               0.000000000               0.000000000               0.000000000              -0.002901387               0.010163793               0.000367704              -0.002358489               0.004174060               0.001815572               0.000000000               0.000000000               0.000000000               0.000000000              -0.002857521               0.009449650               0.000506886              -0.002252771               0.003900776               0.001648005               0.000000000               0.000000000               0.000000000               0.000000000              -0.002615324               0.008739617               0.000525970              -0.002073193               0.003604241               0.001531048               0.000000000               0.000000000               0.000000000               0.000000000              -0.002293868               0.008063595               0.000498774              -0.001868145               0.003310553               0.001442408               0.000000000               0.000000000               0.000000000               0.000000000              -0.001941114               0.007437113               0.000451826              -0.001657553               0.003031530               0.001373978               0.000000000               0.000000000               0.000000000               0.000000000              -0.001587442               0.006871783               0.000398908              -0.001454260               0.002775325               0.001321065               0.000000000               0.000000000               0.000000000               0.000000000              -0.001256785               0.006382329               0.000354249              -0.001269082               0.002550449               0.001281367               0.000000000               0.000000000               0.000000000               0.000000000              -0.000961633               0.005965286               0.000315757              -0.001106270               0.002357166               0.001250895               0.000000000               0.000000000               0.000000000               0.000000000              -0.000698711               0.005611716               0.000273666              -0.000963479               0.002191713               0.001228234               0.000000000               0.000000000               0.000000000               0.000000000              -0.000473211               0.005317311               0.000218053              -0.000842116               0.002053125               0.001211009               0.000000000               0.000000000               0.000000000               0.000000000              -0.000291028               0.005089788               0.000145505              -0.000745357               0.001945031               0.001199674               0.000000000               0.000000000               0.000000000               0.000000000              -0.000152557               0.004937971               0.000078308              -0.000674453               0.001870792               0.001196338               0.000000000               0.000000000               0.000000000               0.000000000              -0.000058419               0.004858606               0.000032503              -0.000629231               0.001829263               0.001200032               0.000000000               0.000000000               0.000000000               0.000000000              -0.000025176               0.004833458               0.000016685              -0.000613622               0.001815677               0.001202055               0.000000000               0.000000000               0.000000000               0.000000000               0.000201854               0.008524786              -0.002899654              -0.000989903               0.003171534               0.002181631               0.000000000               0.000000000               0.000000000               0.000000000              -0.001854010               0.009137445              -0.001691858              -0.001837431               0.003658261               0.001820830               0.000000000               0.000000000               0.000000000               0.000000000              -0.003435668               0.009988335              -0.000546132              -0.002536911               0.004175049               0.001638138               0.000000000               0.000000000               0.000000000               0.000000000              -0.003598611               0.009663113              -0.000181508              -0.002557362               0.004073459               0.001516097               0.000000000               0.000000000               0.000000000               0.000000000              -0.003308275               0.009076227              -0.000043948              -0.002375126               0.003817087               0.001441962               0.000000000               0.000000000               0.000000000               0.000000000              -0.002869428               0.008435128               0.000010776              -0.002130421               0.003521822               0.001391400               0.000000000               0.000000000               0.000000000               0.000000000              -0.002388499               0.007805438               0.000032789              -0.001871362               0.003225574               0.001354212               0.000000000               0.000000000               0.000000000               0.000000000              -0.001914508               0.007217191               0.000040664              -0.001620085               0.002945735               0.001325649               0.000000000               0.000000000               0.000000000               0.000000000              -0.001478042               0.006696434               0.000042370              -0.001391316               0.002695894               0.001304578               0.000000000               0.000000000               0.000000000               0.000000000              -0.001093715               0.006255924               0.000047100              -0.001192130               0.002482664               0.001290533               0.000000000               0.000000000               0.000000000               0.000000000              -0.000765114               0.005879720               0.000050760              -0.001021880               0.002300514               0.001278634               0.000000000               0.000000000               0.000000000               0.000000000              -0.000497630               0.005558509               0.000045586              -0.000881423               0.002146625               0.001265203               0.000000000               0.000000000               0.000000000               0.000000000              -0.000297275               0.005293603               0.000029716              -0.000773177               0.002022242               0.001249066               0.000000000               0.000000000               0.000000000               0.000000000              -0.000156124               0.005099906               0.000008543              -0.000696033               0.001931963               0.001235930               0.000000000               0.000000000               0.000000000               0.000000000              -0.000062697               0.004987260              -0.000003596              -0.000646917               0.001878042               0.001231125               0.000000000               0.000000000               0.000000000               0.000000000              -0.000016187               0.004934166              -0.000002173              -0.000622839               0.001852319               0.001229479               0.000000000               0.000000000               0.000000000               0.000000000              -0.000007621               0.004916407               0.000001987              -0.000617407               0.001844588               0.001227181               0.000000000               0.000000000               0.000000000               0.000000000              -0.001084510               0.006316677              -0.001989967              -0.001196274               0.002504295               0.001308021               0.000000000               0.000000000               0.000000000               0.000000000              -0.002837234               0.007781570              -0.001554583              -0.002036654               0.003272715               0.001236061               0.000000000               0.000000000               0.000000000               0.000000000              -0.004190136               0.009224795              -0.001045073              -0.002724394               0.003983032               0.001258638               0.000000000               0.000000000               0.000000000               0.000000000              -0.004073769               0.009169354              -0.000759486              -0.002673826               0.003947696               0.001273870               0.000000000               0.000000000               0.000000000               0.000000000              -0.003578580               0.008733030              -0.000592924              -0.002433590               0.003722178               0.001288587               0.000000000               0.000000000               0.000000000               0.000000000              -0.002983020               0.008184646              -0.000487117              -0.002141708               0.003442091               0.001300383               0.000000000               0.000000000               0.000000000               0.000000000              -0.002378557               0.007618545              -0.000406004              -0.001844273               0.003154247               0.001309975               0.000000000               0.000000000               0.000000000               0.000000000              -0.001814999               0.007081931              -0.000335714              -0.001565862               0.002882574               0.001316712               0.000000000               0.000000000               0.000000000               0.000000000              -0.001321389               0.006610485              -0.000277278              -0.001321828               0.002644082               0.001322254               0.000000000               0.000000000               0.000000000               0.000000000              -0.000903833               0.006204497              -0.000226237              -0.001114497               0.002439644               0.001325147               0.000000000               0.000000000               0.000000000               0.000000000              -0.000565181               0.005842893              -0.000181050              -0.000942302               0.002261712               0.001319410               0.000000000               0.000000000               0.000000000               0.000000000              -0.000306222               0.005526137              -0.000144739              -0.000805598               0.002110560               0.001304962               0.000000000               0.000000000               0.000000000               0.000000000              -0.000126513               0.005269145              -0.000110785              -0.000706084               0.001991725               0.001285641               0.000000000               0.000000000               0.000000000               0.000000000              -0.000021111               0.005095876              -0.000071336              -0.000644900               0.001913575               0.001268675               0.000000000               0.000000000               0.000000000               0.000000000               0.000022564               0.005008197              -0.000032100              -0.000617562               0.001875236               0.001257675               0.000000000               0.000000000               0.000000000               0.000000000               0.000022501               0.004974673              -0.000005663              -0.000613395               0.001862673               0.001249278               0.000000000               0.000000000               0.000000000               0.000000000               0.000010656               0.004963862               0.000004441              -0.000616485               0.001860099               0.001243614               0.000000000               0.000000000               0.000000000               0.000000000              -0.002573165               0.004273975              -0.001038889              -0.001499180               0.001924370               0.000425190               0.000000000               0.000000000               0.000000000               0.000000000              -0.003660157               0.006203748              -0.001405282              -0.002148023               0.002783903               0.000635880               0.000000000               0.000000000               0.000000000               0.000000000              -0.004641756               0.008075977              -0.001566355              -0.002750149               0.003608682               0.000858533               0.000000000               0.000000000               0.000000000               0.000000000              -0.004373006               0.008425555              -0.001369455              -0.002693065               0.003706178               0.001013113               0.000000000               0.000000000               0.000000000               0.000000000              -0.003794832               0.008269111              -0.001170877              -0.002456695               0.003575241               0.001118546               0.000000000               0.000000000               0.000000000               0.000000000              -0.003148460               0.007925181              -0.001007640              -0.002171315               0.003365472               0.001194157               0.000000000               0.000000000               0.000000000               0.000000000              -0.002508994               0.007515692              -0.000866792              -0.001880329               0.003131982               0.001251652               0.000000000               0.000000000               0.000000000               0.000000000              -0.001913060               0.007094991              -0.000738376              -0.001604268               0.002899729               0.001295462               0.000000000               0.000000000               0.000000000               0.000000000              -0.001385765               0.006696284              -0.000628623              -0.001356694               0.002684304               0.001327610               0.000000000               0.000000000               0.000000000               0.000000000              -0.000938854               0.006327179              -0.000531655              -0.001142965               0.002490027               0.001347062               0.000000000               0.000000000               0.000000000               0.000000000              -0.000575544               0.005981686              -0.000442063              -0.000963538               0.002315055               0.001351517               0.000000000               0.000000000               0.000000000               0.000000000              -0.000296390               0.005661854              -0.000358779              -0.000818876               0.002160225               0.001341348               0.000000000               0.000000000               0.000000000               0.000000000              -0.000097989               0.005388337              -0.000268736              -0.000710286               0.002032856               0.001322570               0.000000000               0.000000000               0.000000000               0.000000000               0.000023255               0.005183850              -0.000170140              -0.000639259               0.001941019               0.001301760               0.000000000               0.000000000               0.000000000               0.000000000               0.000075470               0.005062902              -0.000083847              -0.000604560               0.001889137               0.001284577               0.000000000               0.000000000               0.000000000               0.000000000               0.000074333               0.005008176              -0.000028144              -0.000598146               0.001868757               0.001270612               0.000000000               0.000000000               0.000000000               0.000000000               0.000052998               0.004983891              -0.000005266              -0.000603111               0.001862317               0.001259206               0.000000000               0.000000000               0.000000000               0.000000000              -0.004456415               0.002431196              -0.000123665              -0.001975051               0.001468739              -0.000506312               0.000000000               0.000000000               0.000000000               0.000000000              -0.004583532               0.004606823              -0.001191294              -0.002294672               0.002300482               0.000005810               0.000000000               0.000000000               0.000000000               0.000000000              -0.004999683               0.006702041              -0.001985305              -0.002712630               0.003138201               0.000425571               0.000000000               0.000000000               0.000000000               0.000000000              -0.004596180               0.007431736              -0.001949351              -0.002652528               0.003361396               0.000708868               0.000000000               0.000000000               0.000000000               0.000000000              -0.003977493               0.007598391              -0.001751922              -0.002441353               0.003346556               0.000905203               0.000000000               0.000000000               0.000000000               0.000000000              -0.003317626               0.007514156              -0.001546257              -0.002183374               0.003232485               0.001049110               0.000000000               0.000000000               0.000000000               0.000000000              -0.002666342               0.007306060              -0.001356847              -0.001913131               0.003073039               0.001159908               0.000000000               0.000000000               0.000000000               0.000000000              -0.002051885               0.007029020              -0.001183850              -0.001648081               0.002892343               0.001244263               0.000000000               0.000000000               0.000000000               0.000000000              -0.001494577               0.006727703              -0.001032250              -0.001401426               0.002709687               0.001308261               0.000000000               0.000000000               0.000000000               0.000000000              -0.001006905               0.006423415              -0.000896344              -0.001180513               0.002534621               0.001354108               0.000000000               0.000000000               0.000000000               0.000000000              -0.000597743               0.006122549              -0.000766920              -0.000989470               0.002370652               0.001381183               0.000000000               0.000000000               0.000000000               0.000000000              -0.000274692               0.005826877              -0.000639994              -0.000831367               0.002219395               0.001388028               0.000000000               0.000000000               0.000000000               0.000000000              -0.000028322               0.005548721              -0.000506305              -0.000704209               0.002084291               0.001380082               0.000000000               0.000000000               0.000000000               0.000000000               0.000144066               0.005310733              -0.000357919              -0.000609815               0.001973498               0.001363683               0.000000000               0.000000000               0.000000000               0.000000000               0.000234352               0.005142731              -0.000210356              -0.000554958               0.001899212               0.001344254               0.000000000               0.000000000               0.000000000               0.000000000               0.000240222               0.005045323              -0.000088899              -0.000540581               0.001861951               0.001321370               0.000000000               0.000000000               0.000000000               0.000000000               0.000204478               0.005000340              -0.000031375              -0.000548362               0.001849551               0.001301189               0.000000000               0.000000000               0.000000000               0.000000000              -0.006597417               0.000938891               0.000666288              -0.002591390               0.001176752              -0.001414637               0.000000000               0.000000000               0.000000000               0.000000000              -0.005653000               0.003097751              -0.000902512              -0.002507089               0.001868267              -0.000638822               0.000000000               0.000000000               0.000000000               0.000000000              -0.005289575               0.005127554              -0.002191007              -0.002624529               0.002584009              -0.000040520               0.000000000               0.000000000               0.000000000               0.000000000              -0.004669361               0.006119594              -0.002355732              -0.002515954               0.002878495               0.000362541               0.000000000               0.000000000               0.000000000               0.000000000              -0.003994662               0.006589668              -0.002211802              -0.002321702               0.002970434               0.000648732               0.000000000               0.000000000               0.000000000               0.000000000              -0.003325008               0.006779175              -0.002002495              -0.002094270               0.002957792               0.000863522               0.000000000               0.000000000               0.000000000               0.000000000              -0.002678145               0.006792294              -0.001790208              -0.001853337               0.002881854               0.001028517               0.000000000               0.000000000               0.000000000               0.000000000              -0.002063137               0.006694231              -0.001588968              -0.001610452               0.002768205               0.001157753               0.000000000               0.000000000               0.000000000               0.000000000              -0.001495402               0.006528506              -0.001410953              -0.001376836               0.002635092               0.001258256               0.000000000               0.000000000               0.000000000               0.000000000              -0.000981158               0.006328623              -0.001251293              -0.001159010               0.002495856               0.001336847               0.000000000               0.000000000               0.000000000               0.000000000              -0.000527579               0.006111026              -0.001095095              -0.000961718               0.002357561               0.001395843               0.000000000               0.000000000               0.000000000               0.000000000              -0.000145640               0.005875176              -0.000943527              -0.000789010               0.002221376               0.001432365               0.000000000               0.000000000               0.000000000               0.000000000               0.000163179               0.005630301              -0.000784529              -0.000642594               0.002090946               0.001448352               0.000000000               0.000000000               0.000000000               0.000000000               0.000398405               0.005399509              -0.000594940              -0.000525536               0.001974997               0.001449461               0.000000000               0.000000000               0.000000000               0.000000000               0.000547773               0.005209644              -0.000384140              -0.000445790               0.001885127               0.001439337               0.000000000               0.000000000               0.000000000               0.000000000               0.000596084               0.005080376              -0.000182794              -0.000411514               0.001830613               0.001419099               0.000000000               0.000000000               0.000000000               0.000000000               0.000572352               0.005019544              -0.000081712              -0.000412810               0.001810768               0.001397958               0.000000000               0.000000000               0.000000000               0.000000000              -0.008843734              -0.000124985               0.001217349              -0.003300775               0.001058589              -0.002242186               0.000000000               0.000000000               0.000000000               0.000000000              -0.006802964               0.001763218              -0.000588278              -0.002771510               0.001511566              -0.001259945               0.000000000               0.000000000               0.000000000               0.000000000              -0.005544598               0.003497072              -0.002153544              -0.002516354               0.002004461              -0.000511893               0.000000000               0.000000000               0.000000000               0.000000000              -0.004620300               0.004614162              -0.002492028              -0.002309378               0.002307830              -0.000001548               0.000000000               0.000000000               0.000000000               0.000000000              -0.003851040               0.005318689              -0.002435872              -0.002108972               0.002475868               0.000366897               0.000000000               0.000000000               0.000000000               0.000000000              -0.003163095               0.005753075              -0.002260678              -0.001905291               0.002552769               0.000647478               0.000000000               0.000000000               0.000000000               0.000000000              -0.002528382               0.005991284              -0.002055722              -0.001697050               0.002562757               0.000865707               0.000000000               0.000000000               0.000000000               0.000000000              -0.001930299               0.006090153              -0.001850350              -0.001485128               0.002525073               0.001039945               0.000000000               0.000000000               0.000000000               0.000000000              -0.001366856               0.006091911              -0.001664864              -0.001274057               0.002455302               0.001181245               0.000000000               0.000000000               0.000000000               0.000000000              -0.000836728               0.006029305              -0.001500352              -0.001067434               0.002365559               0.001298125               0.000000000               0.000000000               0.000000000               0.000000000              -0.000342934               0.005920555              -0.001341912              -0.000868668               0.002263055               0.001394386               0.000000000               0.000000000               0.000000000               0.000000000               0.000102201               0.005772176              -0.001183954              -0.000683196               0.002151771               0.001468576               0.000000000               0.000000000               0.000000000               0.000000000               0.000485273               0.005596842              -0.001012820              -0.000517627               0.002038137               0.001520510               0.000000000               0.000000000               0.000000000               0.000000000               0.000806410               0.005409976              -0.000806870              -0.000373843               0.001927921               0.001554079               0.000000000               0.000000000               0.000000000               0.000000000               0.001062180               0.005237129              -0.000560705              -0.000256323               0.001831133               0.001574810               0.000000000               0.000000000               0.000000000               0.000000000               0.001223574               0.005103824              -0.000288887              -0.000179137               0.001760970               0.001581833               0.000000000               0.000000000               0.000000000               0.000000000               0.001271242               0.005043894              -0.000148511              -0.000153771               0.001732538               0.001578767               0.000000000               0.000000000               0.000000000               0.000000000              -0.010993030              -0.000776157               0.001422728              -0.004025364               0.001083061              -0.002942303               0.000000000               0.000000000               0.000000000               0.000000000              -0.007933557               0.000690836              -0.000310129              -0.003061435               0.001250748              -0.001810687               0.000000000               0.000000000               0.000000000               0.000000000              -0.005773822               0.001978617              -0.001869799              -0.002412507               0.001463698              -0.000948810               0.000000000               0.000000000               0.000000000               0.000000000              -0.004493316               0.003086348              -0.002298347              -0.002070783               0.001719031              -0.000351752               0.000000000               0.000000000               0.000000000               0.000000000              -0.003589264               0.003934850              -0.002323630              -0.001837826               0.001924211               0.000086385               0.000000000               0.000000000               0.000000000               0.000000000              -0.002867110               0.004559957              -0.002203246              -0.001645158               0.002068355               0.000423198               0.000000000               0.000000000               0.000000000               0.000000000              -0.002240462               0.004998662              -0.002033094              -0.001465003               0.002154538               0.000689534               0.000000000               0.000000000               0.000000000               0.000000000              -0.001661706               0.005285615              -0.001850346              -0.001283839               0.002189800               0.000905961               0.000000000               0.000000000               0.000000000               0.000000000              -0.001108160               0.005458856              -0.001683018              -0.001097915               0.002185572               0.001087657               0.000000000               0.000000000               0.000000000               0.000000000              -0.000571327               0.005545641              -0.001536641              -0.000907451               0.002151012               0.001243561               0.000000000               0.000000000               0.000000000               0.000000000              -0.000050880               0.005558564              -0.001395402              -0.000713900               0.002090802               0.001376903               0.000000000               0.000000000               0.000000000               0.000000000               0.000444260               0.005516362              -0.001249384              -0.000522947               0.002013085               0.001490137               0.000000000               0.000000000               0.000000000               0.000000000               0.000909834               0.005440876              -0.001089348              -0.000338922               0.001926581               0.001587659               0.000000000               0.000000000               0.000000000               0.000000000               0.001344120               0.005338522              -0.000898352              -0.000163270               0.001833913               0.001670642               0.000000000               0.000000000               0.000000000               0.000000000               0.001749212               0.005225659              -0.000657467               0.000002746               0.001740954               0.001743700               0.000000000               0.000000000               0.000000000               0.000000000               0.002103463               0.005113739              -0.000355812               0.000149580               0.001654703               0.001804282               0.000000000               0.000000000               0.000000000               0.000000000               0.002305760               0.005073613              -0.000198757               0.000230456               0.001614369               0.001844825               0.000000000               0.000000000               0.000000000               0.000000000              -0.012795923              -0.001106431               0.001237825              -0.004660164               0.001184570              -0.003475595               0.000000000               0.000000000               0.000000000               0.000000000              -0.008907575              -0.000081014              -0.000118314              -0.003330211               0.001083058              -0.002247153               0.000000000               0.000000000               0.000000000               0.000000000              -0.005963556               0.000736137              -0.001371712              -0.002328348               0.001021488              -0.001306860               0.000000000               0.000000000               0.000000000               0.000000000              -0.004336230               0.001752688              -0.001766189              -0.001845170               0.001199277              -0.000645893               0.000000000               0.000000000               0.000000000               0.000000000              -0.003287601               0.002666362              -0.001831311              -0.001566143               0.001410824              -0.000155318               0.000000000               0.000000000               0.000000000               0.000000000              -0.002517334               0.003417583              -0.001764880              -0.001371195               0.001596247               0.000225052               0.000000000               0.000000000               0.000000000               0.000000000              -0.001888345               0.004003060              -0.001647178              -0.001208509               0.001737176               0.000528667               0.000000000               0.000000000               0.000000000               0.000000000              -0.001325990               0.004438354              -0.001513400              -0.001052039               0.001830116               0.000778077               0.000000000               0.000000000               0.000000000               0.000000000              -0.000784457               0.004759994              -0.001387657              -0.000889169               0.001883038               0.000993869               0.000000000               0.000000000               0.000000000               0.000000000              -0.000251362               0.004987314              -0.001276264              -0.000717674               0.001901646               0.001183972               0.000000000               0.000000000               0.000000000               0.000000000               0.000275143               0.005128625              -0.001167127              -0.000537899               0.001888824               0.001350925               0.000000000               0.000000000               0.000000000               0.000000000               0.000804898               0.005204500              -0.001054552              -0.000348726               0.001851058               0.001502332               0.000000000               0.000000000               0.000000000               0.000000000               0.001344068               0.005230479              -0.000932150              -0.000149785               0.001793404               0.001643619               0.000000000               0.000000000               0.000000000               0.000000000               0.001896986               0.005219368              -0.000786204               0.000058948               0.001720123               0.001779070               0.000000000               0.000000000               0.000000000               0.000000000               0.002469255               0.005181036              -0.000596653               0.000278338               0.001634215               0.001912553               0.000000000               0.000000000               0.000000000               0.000000000               0.003058198               0.005105890              -0.000335161               0.000508583               0.001532419               0.002041001               0.000000000               0.000000000               0.000000000               0.000000000               0.003471937               0.005100436              -0.000198887               0.000664415               0.001478657               0.002143072               0.000000000               0.000000000               0.000000000               0.000000000              -0.013994782              -0.001242905               0.000715807              -0.005092677               0.001283248              -0.003809428               0.000000000               0.000000000               0.000000000               0.000000000              -0.009569003              -0.000544438              -0.000025416              -0.003520319               0.000991954              -0.002528365               0.000000000               0.000000000               0.000000000               0.000000000              -0.006093105              -0.000078778              -0.000721715              -0.002275065               0.000732091              -0.001542975               0.000000000               0.000000000               0.000000000               0.000000000              -0.004210917               0.000837020              -0.000958050              -0.001683719               0.000840240              -0.000843479               0.000000000               0.000000000               0.000000000               0.000000000              -0.003048557               0.001768872              -0.001008921              -0.001364316               0.001044389              -0.000319927               0.000000000               0.000000000               0.000000000               0.000000000              -0.002235693               0.002588940              -0.000982460              -0.001162000               0.001250304               0.000088304               0.000000000               0.000000000               0.000000000               0.000000000              -0.001597044               0.003262673              -0.000923202              -0.001006724               0.001423121               0.000416397               0.000000000               0.000000000               0.000000000               0.000000000              -0.001041821               0.003793436              -0.000854098              -0.000864861               0.001552753               0.000687892               0.000000000               0.000000000               0.000000000               0.000000000              -0.000516771               0.004210033              -0.000790467              -0.000720042               0.001643344               0.000923302               0.000000000               0.000000000               0.000000000               0.000000000               0.000001365               0.004533770              -0.000729448              -0.000566208               0.001699977               0.001133769               0.000000000               0.000000000               0.000000000               0.000000000               0.000527873               0.004776269              -0.000666441              -0.000399081               0.001725101               0.001326020               0.000000000               0.000000000               0.000000000               0.000000000               0.001081476               0.004949777              -0.000604444              -0.000213168               0.001720965               0.001507797               0.000000000               0.000000000               0.000000000               0.000000000               0.001672889               0.005059468              -0.000539313              -0.000005101               0.001688173               0.001683072               0.000000000               0.000000000               0.000000000               0.000000000               0.002314797               0.005118232              -0.000461389               0.000228268               0.001629971               0.001858239               0.000000000               0.000000000               0.000000000               0.000000000               0.003019992               0.005130586              -0.000355445               0.000491169               0.001546455               0.002037624               0.000000000               0.000000000               0.000000000               0.000000000               0.003805499               0.005084299              -0.000202173               0.000791517               0.001430911               0.002222427               0.000000000               0.000000000               0.000000000               0.000000000               0.004403894               0.005110765              -0.000123877               0.001012605               0.001366036               0.002378641               0.000000000               0.000000000               0.000000000               0.000000000              -0.014414387              -0.001277941              -0.000000000              -0.005245649               0.001322561              -0.003923089               0.000000000               0.000000000               0.000000000               0.000000000              -0.009803920              -0.000699837               0.000000000              -0.003588988               0.000963044              -0.002625944               0.000000000               0.000000000               0.000000000               0.000000000              -0.006140818              -0.000363240               0.000000000              -0.002257400               0.000631382              -0.001626018               0.000000000               0.000000000               0.000000000               0.000000000              -0.004164799               0.000511261              -0.000000000              -0.001625705               0.000712317              -0.000913388               0.000000000               0.000000000               0.000000000               0.000000000              -0.002959196               0.001444663              -0.000000000              -0.001290279               0.000911641              -0.000378638               0.000000000               0.000000000               0.000000000               0.000000000              -0.002129151               0.002285155              -0.000000000              -0.001084074               0.001123068               0.000038995               0.000000000               0.000000000               0.000000000               0.000000000              -0.001486679               0.002987770              -0.000000000              -0.000930974               0.001306238               0.000375264               0.000000000               0.000000000               0.000000000               0.000000000              -0.000929755               0.003555610              -0.000000000              -0.000793107               0.001449561               0.000656453               0.000000000               0.000000000               0.000000000               0.000000000              -0.000410914               0.004007953              -0.000000000              -0.000655085               0.001554333               0.000899247               0.000000000               0.000000000               0.000000000               0.000000000               0.000095290               0.004362463              -0.000000000              -0.000509573               0.001623998               0.001114425               0.000000000               0.000000000               0.000000000               0.000000000               0.000621866               0.004637619               0.000000000              -0.000346502               0.001661358               0.001314856               0.000000000               0.000000000               0.000000000               0.000000000               0.001185859               0.004846330              -0.000000000              -0.000161094               0.001669125               0.001508031               0.000000000               0.000000000               0.000000000               0.000000000               0.001797342               0.004994816               0.000000000               0.000049651               0.001648372               0.001698023               0.000000000               0.000000000               0.000000000               0.000000000               0.002469570               0.005081056               0.000000000               0.000290954               0.001596684               0.001887638               0.000000000               0.000000000               0.000000000               0.000000000               0.003221850               0.005101703               0.000000000               0.000570475               0.001510392               0.002080867               0.000000000               0.000000000               0.000000000               0.000000000               0.004086161               0.005063488               0.000000000               0.000899365               0.001388024               0.002287389               0.000000000               0.000000000               0.000000000               0.000000000               0.004759114               0.005104710               0.000000000               0.001146568               0.001319364               0.002465931               0.000000000               0.000000000               0.000000000               0.000000000               0.000000000               0.000000000               0.000000000               0.000000000               0.000000000               0.000000000               0.000000000               0.000000000               0.000000000               0.000000000               0.000000000               0.000000000               0.000000000               0.000000000               0.000000000               0.000000000               0.000000000               0.000000000               0.000000000               0.000000000               0.000000000               0.000000000               0.000000000               0.000000000               0.000000000               0.000000000               0.000000000               0.000000000               0.000000000               0.000000000               0.000000000               0.000000000               0.000000000               0.000000000               0.000000000               0.000000000               0.000000000               0.000000000               0.000000000               0.000000000               0.000000000               0.000000000               0.000000000               0.000000000               0.000000000               0.000000000               0.000000000               0.000000000               0.000000000               0.000000000               0.000000000               0.000000000               0.000000000               0.000000000               0.000000000               0.000000000               0.000000000               0.000000000               0.000000000               0.000000000               0.000000000               0.000000000               0.000000000               0.000000000               0.000000000               0.000000000               0.000000000               0.000000000               0.000000000               0.000000000               0.000000000               0.000000000               0.000000000               0.000000000               0.000000000               0.000000000               0.000000000               0.000000000               0.000000000               0.000000000               0.000000000               0.000000000               0.000000000               0.000000000               0.000000000               0.000000000               0.000000000               0.000000000               0.000000000               0.000000000               0.000000000               0.000000000               0.000000000               0.000000000               0.000000000               0.000000000               0.000000000               0.000000000               0.000000000               0.000000000               0.000000000               0.000000000               0.000000000               0.000000000               0.000000000               0.000000000               0.000000000               0.000000000               0.000000000               0.000000000               0.000000000               0.000000000               0.000000000               0.000000000               0.000000000               0.000000000               0.000000000               0.000000000               0.000000000               0.000000000               0.000000000               0.000000000               0.000000000               0.000000000               0.000000000               0.000000000               0.000000000               0.000000000               0.000000000               0.000000000               0.000000000               0.000000000               0.000000000               0.000000000               0.000000000               0.000000000               0.000000000               0.000000000               0.000000000               0.000000000               0.000000000               0.000000000               0.000000000               0.000000000               0.000000000               0.000000000               0.000000000               0.000000000               0.000000000               0.000000000               0.000000000               0.000000000               0.000000000               0.000000000               0.000000000               0.000000000               0.000000000               0.000000000               0.000000000               0.000000000               0.000000000               0.000000000               0.000000000               0.000000000               0.000000000               0.000000000               0.000000000               0.000000000               0.000000000               0.000000000               0.002273684               0.023294604               0.001567790              -0.002059189               0.008451187               0.006391997               0.000000000               0.000000000               0.000000000               0.000000000               0.002028711               0.017955101               0.000696959              -0.001483618               0.006479513               0.004995895               0.000000000               0.000000000               0.000000000               0.000000000               0.002462838               0.013672076              -0.000160755              -0.000785444               0.004819128               0.004033684               0.000000000               0.000000000               0.000000000               0.000000000               0.002177501               0.011253452              -0.000511912              -0.000590117               0.003947819               0.003357702               0.000000000               0.000000000               0.000000000               0.000000000               0.001720989               0.009715235              -0.000648307              -0.000569032               0.003428057               0.002859024               0.000000000               0.000000000               0.000000000               0.000000000               0.001271873               0.008627562              -0.000689066              -0.000601491               0.003076322               0.002474831               0.000000000               0.000000000               0.000000000               0.000000000               0.000890199               0.007777370              -0.000683319              -0.000638345               0.002805212               0.002166867               0.000000000               0.000000000               0.000000000               0.000000000               0.000587541               0.007054579              -0.000655107              -0.000661493               0.002572000               0.001910507               0.000000000               0.000000000               0.000000000               0.000000000               0.000357404               0.006393559              -0.000617791              -0.000665167               0.002352887               0.001687720               0.000000000               0.000000000               0.000000000               0.000000000               0.000185728               0.005763287              -0.000578350              -0.000650761               0.002137997               0.001487236               0.000000000               0.000000000               0.000000000               0.000000000               0.000060254               0.005141059              -0.000541962              -0.000620036               0.001920348               0.001300312               0.000000000               0.000000000               0.000000000               0.000000000              -0.000024209               0.004522932              -0.000507681              -0.000574444               0.001699110               0.001124666               0.000000000               0.000000000               0.000000000               0.000000000              -0.000082676               0.003899102              -0.000466000              -0.000518390               0.001472484               0.000954094               0.000000000               0.000000000               0.000000000               0.000000000              -0.000117709               0.003250544              -0.000403470              -0.000450458               0.001233656               0.000783198               0.000000000               0.000000000               0.000000000               0.000000000              -0.000116026               0.002557633              -0.000311640              -0.000363213               0.000973607               0.000610394               0.000000000               0.000000000               0.000000000               0.000000000              -0.000070477               0.001805552              -0.000180140              -0.000252123               0.000685886               0.000433763               0.000000000               0.000000000               0.000000000               0.000000000              -0.000095060               0.001248557              -0.000112827              -0.000191717               0.000480087               0.000288370               0.000000000               0.000000000               0.000000000               0.000000000               0.002416571               0.021830833               0.002893875              -0.001822637               0.007884417               0.006061780               0.000000000               0.000000000               0.000000000               0.000000000               0.001813410               0.017042082               0.001278931              -0.001450228               0.006164046               0.004713818               0.000000000               0.000000000               0.000000000               0.000000000               0.001870246               0.013321411              -0.000295114              -0.000963832               0.004761703               0.003797871               0.000000000               0.000000000               0.000000000               0.000000000               0.001460409               0.011183530              -0.000914492              -0.000850286               0.004011235               0.003160949               0.000000000               0.000000000               0.000000000               0.000000000               0.000999965               0.009781862              -0.001142507              -0.000847744               0.003543169               0.002695425               0.000000000               0.000000000               0.000000000               0.000000000               0.000602583               0.008754469              -0.001200124              -0.000868338               0.003207573               0.002339235               0.000000000               0.000000000               0.000000000               0.000000000               0.000292109               0.007931455              -0.001180153              -0.000881889               0.002937755               0.002055866               0.000000000               0.000000000               0.000000000               0.000000000               0.000063477               0.007222061              -0.001122365              -0.000878952               0.002700313               0.001821361               0.000000000               0.000000000               0.000000000               0.000000000              -0.000094500               0.006576727              -0.001049335              -0.000857527               0.002478063               0.001620536               0.000000000               0.000000000               0.000000000               0.000000000              -0.000200091               0.005962400              -0.000971060              -0.000820332               0.002260891               0.001440559               0.000000000               0.000000000               0.000000000               0.000000000              -0.000261070               0.005366148              -0.000896825              -0.000768668               0.002044921               0.001276252               0.000000000               0.000000000               0.000000000               0.000000000              -0.000282082               0.004787473              -0.000830366              -0.000704213               0.001830546               0.001126333               0.000000000               0.000000000               0.000000000               0.000000000              -0.000277961               0.004218720              -0.000751060              -0.000631574               0.001616751               0.000985177               0.000000000               0.000000000               0.000000000               0.000000000              -0.000245851               0.003652296              -0.000635460              -0.000548730               0.001400330               0.000851600               0.000000000               0.000000000               0.000000000               0.000000000              -0.000182612               0.003087262              -0.000475751              -0.000454386               0.001180539               0.000726153               0.000000000               0.000000000               0.000000000               0.000000000              -0.000098474               0.002530069              -0.000267613              -0.000353186               0.000961076               0.000607891               0.000000000               0.000000000               0.000000000               0.000000000              -0.000090573               0.002151468              -0.000163333              -0.000302898               0.000818115               0.000515217               0.000000000               0.000000000               0.000000000               0.000000000               0.002525443               0.019615512               0.003800272              -0.001504896               0.007040070               0.005535174               0.000000000               0.000000000               0.000000000               0.000000000               0.001424918               0.015675385               0.001674974              -0.001425076               0.005700101               0.004275025               0.000000000               0.000000000               0.000000000               0.000000000               0.000962726               0.012798405              -0.000364279              -0.001238775               0.004679018               0.003440242               0.000000000               0.000000000               0.000000000               0.000000000               0.000415362               0.011054415              -0.001118298              -0.001226038               0.004093447               0.002867409               0.000000000               0.000000000               0.000000000               0.000000000              -0.000019189               0.009833282              -0.001372604              -0.001236353               0.003689846               0.002453492               0.000000000               0.000000000               0.000000000               0.000000000              -0.000320014               0.008887238              -0.001422311              -0.001230907               0.003372685               0.002141778               0.000000000               0.000000000               0.000000000               0.000000000              -0.000510509               0.008102908              -0.001380600              -0.001204302               0.003102376               0.001898074               0.000000000               0.000000000               0.000000000               0.000000000              -0.000617550               0.007414310              -0.001297778              -0.001158367               0.002857534               0.001699167               0.000000000               0.000000000               0.000000000               0.000000000              -0.000662871               0.006785002              -0.001196632              -0.001096699               0.002627211               0.001530512               0.000000000               0.000000000               0.000000000               0.000000000              -0.000665440               0.006189621              -0.001092279              -0.001023240               0.002404266               0.001381026               0.000000000               0.000000000               0.000000000               0.000000000              -0.000631432               0.005632833              -0.000997508              -0.000940889               0.002191222               0.001250333               0.000000000               0.000000000               0.000000000               0.000000000              -0.000572022               0.005109639              -0.000909321              -0.000853211               0.001987600               0.001134388               0.000000000               0.000000000               0.000000000               0.000000000              -0.000488747               0.004615711              -0.000805124              -0.000760242               0.001791969               0.001031727               0.000000000               0.000000000               0.000000000               0.000000000              -0.000380589               0.004154675              -0.000663280              -0.000662054               0.001605562               0.000943509               0.000000000               0.000000000               0.000000000               0.000000000              -0.000254831               0.003741129              -0.000482720              -0.000563202               0.001434764               0.000871563               0.000000000               0.000000000               0.000000000               0.000000000              -0.000126564               0.003393256              -0.000263635              -0.000471617               0.001288280               0.000816663               0.000000000               0.000000000               0.000000000               0.000000000              -0.000083235               0.003190620              -0.000153056              -0.000430040               0.001206876               0.000776836               0.000000000               0.000000000               0.000000000               0.000000000               0.002447872               0.016910176               0.004208308              -0.001195820               0.006035275               0.004839455               0.000000000               0.000000000               0.000000000               0.000000000               0.000839898               0.014039675               0.001871828              -0.001439995               0.005159843               0.003719848               0.000000000               0.000000000               0.000000000               0.000000000              -0.000153550               0.012163092              -0.000330019              -0.001577964               0.004580311               0.003002347               0.000000000               0.000000000               0.000000000               0.000000000              -0.000776073               0.010848124              -0.001081095              -0.001647039               0.004165018               0.002517979               0.000000000               0.000000000               0.000000000               0.000000000              -0.001120208               0.009819354              -0.001309110              -0.001647493               0.003822250               0.002174756               0.000000000               0.000000000               0.000000000               0.000000000              -0.001274646               0.008964121              -0.001335568              -0.001598504               0.003520845               0.001922341               0.000000000               0.000000000               0.000000000               0.000000000              -0.001307573               0.008217980              -0.001279616              -0.001517584               0.003245160               0.001727577               0.000000000               0.000000000               0.000000000               0.000000000              -0.001262672               0.007546956              -0.001185841              -0.001416868               0.002987916               0.001571048               0.000000000               0.000000000               0.000000000               0.000000000              -0.001167427               0.006926968              -0.001076151              -0.001303653               0.002743517               0.001439864               0.000000000               0.000000000               0.000000000               0.000000000              -0.001047561               0.006357568              -0.000969100              -0.001187529               0.002515011               0.001327482               0.000000000               0.000000000               0.000000000               0.000000000              -0.000916295               0.005842151              -0.000873029              -0.001073877               0.002305323               0.001231446               0.000000000               0.000000000               0.000000000               0.000000000              -0.000768331               0.005379080              -0.000781970              -0.000960507               0.002113178               0.001152671               0.000000000               0.000000000               0.000000000               0.000000000              -0.000606286               0.004966986              -0.000675252              -0.000848229               0.001938388               0.001090160               0.000000000               0.000000000               0.000000000               0.000000000              -0.000435125               0.004612219              -0.000536513              -0.000739698               0.001783957               0.001044259               0.000000000               0.000000000               0.000000000               0.000000000              -0.000269262               0.004329301              -0.000373902              -0.000642134               0.001657130               0.001014996               0.000000000               0.000000000               0.000000000               0.000000000              -0.000125559               0.004136960              -0.000195498              -0.000564203               0.001567041               0.001002837               0.000000000               0.000000000               0.000000000               0.000000000              -0.000066165               0.004055114              -0.000106158              -0.000531700               0.001528925               0.000997225               0.000000000               0.000000000               0.000000000               0.000000000               0.002063270               0.014002702               0.004130127              -0.000976612               0.004993057               0.004016445               0.000000000               0.000000000               0.000000000               0.000000000               0.000071566               0.012319594               0.001900927              -0.001513109               0.004610860               0.003097750               0.000000000               0.000000000               0.000000000               0.000000000              -0.001342558               0.011470209              -0.000167687              -0.001937231               0.004469108               0.002531878               0.000000000               0.000000000               0.000000000               0.000000000              -0.001930471               0.010557246              -0.000815033              -0.002043577               0.004200239               0.002156662               0.000000000               0.000000000               0.000000000               0.000000000              -0.002109426               0.009701545              -0.000992547              -0.002003723               0.003901724               0.001898001               0.000000000               0.000000000               0.000000000               0.000000000              -0.002075035               0.008925062              -0.001002348              -0.001893766               0.003606246               0.001712480               0.000000000               0.000000000               0.000000000               0.000000000              -0.001930855               0.008212189              -0.000949017              -0.001750590               0.003320899               0.001570309               0.000000000               0.000000000               0.000000000               0.000000000              -0.001726838               0.007555987              -0.000866248              -0.001592059               0.003049323               0.001457264               0.000000000               0.000000000               0.000000000               0.000000000              -0.001490311               0.006957217              -0.000773189              -0.001428515               0.002795221               0.001366706               0.000000000               0.000000000               0.000000000               0.000000000              -0.001251481               0.006423086              -0.000687469              -0.001272188               0.002565070               0.001292882               0.000000000               0.000000000               0.000000000               0.000000000              -0.001028103               0.005955289              -0.000612625              -0.001129947               0.002361725               0.001231778               0.000000000               0.000000000               0.000000000               0.000000000              -0.000807718               0.005551471              -0.000539668              -0.000996826               0.002182747               0.001185921               0.000000000               0.000000000               0.000000000               0.000000000              -0.000594599               0.005209147              -0.000451599              -0.000874116               0.002027737               0.001153621               0.000000000               0.000000000               0.000000000               0.000000000              -0.000398123               0.004933847              -0.000338239              -0.000766025               0.001899941               0.001133916               0.000000000               0.000000000               0.000000000               0.000000000              -0.000230055               0.004736388              -0.000217658              -0.000678317               0.001804886               0.001126569               0.000000000               0.000000000               0.000000000               0.000000000              -0.000100363               0.004626756              -0.000105606              -0.000615979               0.001747563               0.001131584               0.000000000               0.000000000               0.000000000               0.000000000              -0.000046887               0.004595201              -0.000053355              -0.000591981               0.001729045               0.001137064               0.000000000               0.000000000               0.000000000               0.000000000               0.001299174               0.011149078               0.003653921              -0.000906445               0.004018470               0.003112024               0.000000000               0.000000000               0.000000000               0.000000000              -0.000845070               0.010654832               0.001821744              -0.001648752               0.004101159               0.002452406               0.000000000               0.000000000               0.000000000               0.000000000              -0.002472332               0.010745189               0.000129286              -0.002270268               0.004338450               0.002068182               0.000000000               0.000000000               0.000000000               0.000000000              -0.002901387               0.010163793              -0.000367704              -0.002358489               0.004174060               0.001815572               0.000000000               0.000000000               0.000000000               0.000000000              -0.002857521               0.009449650              -0.000506886              -0.002252771               0.003900776               0.001648005               0.000000000               0.000000000               0.000000000               0.000000000              -0.002615324               0.008739617              -0.000525970              -0.002073193               0.003604241               0.001531048               0.000000000               0.000000000               0.000000000               0.000000000              -0.002293868               0.008063595              -0.000498774              -0.001868145               0.003310553               0.001442408               0.000000000               0.000000000               0.000000000               0.000000000              -0.001941114               0.007437113              -0.000451826              -0.001657553               0.003031530               0.001373978               0.000000000               0.000000000               0.000000000               0.000000000              -0.001587442               0.006871783              -0.000398908              -0.001454260               0.002775325               0.001321065               0.000000000               0.000000000               0.000000000               0.000000000              -0.001256785               0.006382329              -0.000354249              -0.001269082               0.002550449               0.001281367               0.000000000               0.000000000               0.000000000               0.000000000              -0.000961633               0.005965286              -0.000315757              -0.001106270               0.002357166               0.001250895               0.000000000               0.000000000               0.000000000               0.000000000              -0.000698711               0.005611716              -0.000273666              -0.000963479               0.002191713               0.001228234               0.000000000               0.000000000               0.000000000               0.000000000              -0.000473211               0.005317311              -0.000218053              -0.000842116               0.002053125               0.001211009               0.000000000               0.000000000               0.000000000               0.000000000              -0.000291028               0.005089788              -0.000145505              -0.000745357               0.001945031               0.001199674               0.000000000               0.000000000               0.000000000               0.000000000              -0.000152557               0.004937971              -0.000078308              -0.000674453               0.001870792               0.001196338               0.000000000               0.000000000               0.000000000               0.000000000              -0.000058419               0.004858606              -0.000032503              -0.000629231               0.001829263               0.001200032               0.000000000               0.000000000               0.000000000               0.000000000              -0.000025176               0.004833458              -0.000016685              -0.000613622               0.001815677               0.001202055               0.000000000               0.000000000               0.000000000               0.000000000               0.000201854               0.008524786               0.002899654              -0.000989903               0.003171534               0.002181631               0.000000000               0.000000000               0.000000000               0.000000000              -0.001854010               0.009137445               0.001691858              -0.001837431               0.003658261               0.001820830               0.000000000               0.000000000               0.000000000               0.000000000              -0.003435668               0.009988335               0.000546132              -0.002536911               0.004175049               0.001638138               0.000000000               0.000000000               0.000000000               0.000000000              -0.003598611               0.009663113               0.000181508              -0.002557362               0.004073459               0.001516097               0.000000000               0.000000000               0.000000000               0.000000000              -0.003308275               0.009076227               0.000043948              -0.002375126               0.003817087               0.001441962               0.000000000               0.000000000               0.000000000               0.000000000              -0.002869428               0.008435128              -0.000010776              -0.002130421               0.003521822               0.001391400               0.000000000               0.000000000               0.000000000               0.000000000              -0.002388499               0.007805438              -0.000032789              -0.001871362               0.003225574               0.001354212               0.000000000               0.000000000               0.000000000               0.000000000              -0.001914508               0.007217191              -0.000040664              -0.001620085               0.002945735               0.001325649               0.000000000               0.000000000               0.000000000               0.000000000              -0.001478042               0.006696434              -0.000042370              -0.001391316               0.002695894               0.001304578               0.000000000               0.000000000               0.000000000               0.000000000              -0.001093715               0.006255924              -0.000047100              -0.001192130               0.002482664               0.001290533               0.000000000               0.000000000               0.000000000               0.000000000              -0.000765114               0.005879720              -0.000050760              -0.001021880               0.002300514               0.001278634               0.000000000               0.000000000               0.000000000               0.000000000              -0.000497630               0.005558509              -0.000045586              -0.000881423               0.002146625               0.001265203               0.000000000               0.000000000               0.000000000               0.000000000              -0.000297275               0.005293603              -0.000029716              -0.000773177               0.002022242               0.001249066               0.000000000               0.000000000               0.000000000               0.000000000              -0.000156124               0.005099906              -0.000008543              -0.000696033               0.001931963               0.001235930               0.000000000               0.000000000               0.000000000               0.000000000              -0.000062697               0.004987260               0.000003596              -0.000646917               0.001878042               0.001231125               0.000000000               0.000000000               0.000000000               0.000000000              -0.000016187               0.004934166               0.000002173              -0.000622839               0.001852319               0.001229479               0.000000000               0.000000000               0.000000000               0.000000000              -0.000007621               0.004916407              -0.000001987              -0.000617407               0.001844588               0.001227181               0.000000000               0.000000000               0.000000000               0.000000000              -0.001084510               0.006316677               0.001989967              -0.001196274               0.002504295               0.001308021               0.000000000               0.000000000               0.000000000               0.000000000              -0.002837234               0.007781570               0.001554583              -0.002036654               0.003272715               0.001236061               0.000000000               0.000000000               0.000000000               0.000000000              -0.004190136               0.009224795               0.001045073              -0.002724394               0.003983032               0.001258638               0.000000000               0.000000000               0.000000000               0.000000000              -0.004073769               0.009169354               0.000759486              -0.002673826               0.003947696               0.001273870               0.000000000               0.000000000               0.000000000               0.000000000              -0.003578580               0.008733030               0.000592924              -0.002433590               0.003722178               0.001288587               0.000000000               0.000000000               0.000000000               0.000000000              -0.002983020               0.008184646               0.000487117              -0.002141708               0.003442091               0.001300383               0.000000000               0.000000000               0.000000000               0.000000000              -0.002378557               0.007618545               0.000406004              -0.001844273               0.003154247               0.001309975               0.000000000               0.000000000               0.000000000               0.000000000              -0.001814999               0.007081931               0.000335714              -0.001565862               0.002882574               0.001316712               0.000000000               0.000000000               0.000000000               0.000000000              -0.001321389               0.006610485               0.000277278              -0.001321828               0.002644082               0.001322254               0.000000000               0.000000000               0.000000000               0.000000000              -0.000903833               0.006204497               0.000226237              -0.001114497               0.002439644               0.001325147               0.000000000               0.000000000               0.000000000               0.000000000              -0.000565181               0.005842893               0.000181050              -0.000942302               0.002261712               0.001319410               0.000000000               0.000000000               0.000000000               0.000000000              -0.000306222               0.005526137               0.000144739              -0.000805598               0.002110560               0.001304962               0.000000000               0.000000000               0.000000000               0.000000000              -0.000126513               0.005269145               0.000110785              -0.000706084               0.001991725               0.001285641               0.000000000               0.000000000               0.000000000               0.000000000              -0.000021111               0.005095876               0.000071336              -0.000644900               0.001913575               0.001268675               0.000000000               0.000000000               0.000000000               0.000000000               0.000022564               0.005008197               0.000032100              -0.000617562               0.001875236               0.001257675               0.000000000               0.000000000               0.000000000               0.000000000               0.000022501               0.004974673               0.000005663              -0.000613395               0.001862673               0.001249278               0.000000000               0.000000000               0.000000000               0.000000000               0.000010656               0.004963862              -0.000004441              -0.000616485               0.001860099               0.001243614               0.000000000               0.000000000               0.000000000               0.000000000              -0.002573165               0.004273975               0.001038889              -0.001499180               0.001924370               0.000425190               0.000000000               0.000000000               0.000000000               0.000000000              -0.003660157               0.006203748               0.001405282              -0.002148023               0.002783903               0.000635880               0.000000000               0.000000000               0.000000000               0.000000000              -0.004641756               0.008075977               0.001566355              -0.002750149               0.003608682               0.000858533               0.000000000               0.000000000               0.000000000               0.000000000              -0.004373006               0.008425555               0.001369455              -0.002693065               0.003706178               0.001013113               0.000000000               0.000000000               0.000000000               0.000000000              -0.003794832               0.008269111               0.001170877              -0.002456695               0.003575241               0.001118546               0.000000000               0.000000000               0.000000000               0.000000000              -0.003148460               0.007925181               0.001007640              -0.002171315               0.003365472               0.001194157               0.000000000               0.000000000               0.000000000               0.000000000              -0.002508994               0.007515692               0.000866792              -0.001880329               0.003131982               0.001251652               0.000000000               0.000000000               0.000000000               0.000000000              -0.001913060               0.007094991               0.000738376              -0.001604268               0.002899729               0.001295462               0.000000000               0.000000000               0.000000000               0.000000000              -0.001385765               0.006696284               0.000628623              -0.001356694               0.002684304               0.001327610               0.000000000               0.000000000               0.000000000               0.000000000              -0.000938854               0.006327179               0.000531655              -0.001142965               0.002490027               0.001347062               0.000000000               0.000000000               0.000000000               0.000000000              -0.000575544               0.005981686               0.000442063              -0.000963538               0.002315055               0.001351517               0.000000000               0.000000000               0.000000000               0.000000000              -0.000296390               0.005661854               0.000358779              -0.000818876               0.002160225               0.001341348               0.000000000               0.000000000               0.000000000               0.000000000              -0.000097989               0.005388337               0.000268736              -0.000710286               0.002032856               0.001322570               0.000000000               0.000000000               0.000000000               0.000000000               0.000023255               0.005183850               0.000170140              -0.000639259               0.001941019               0.001301760               0.000000000               0.000000000               0.000000000               0.000000000               0.000075470               0.005062902               0.000083847              -0.000604560               0.001889137               0.001284577               0.000000000               0.000000000               0.000000000               0.000000000               0.000074333               0.005008176               0.000028144              -0.000598146               0.001868757               0.001270612               0.000000000               0.000000000               0.000000000               0.000000000               0.000052998               0.004983891               0.000005266              -0.000603111               0.001862317               0.001259206               0.000000000               0.000000000               0.000000000               0.000000000              -0.004456415               0.002431196               0.000123665              -0.001975051               0.001468739              -0.000506312               0.000000000               0.000000000               0.000000000               0.000000000              -0.004583532               0.004606823               0.001191294              -0.002294672               0.002300482               0.000005810               0.000000000               0.000000000               0.000000000               0.000000000              -0.004999683               0.006702041               0.001985305              -0.002712630               0.003138201               0.000425571               0.000000000               0.000000000               0.000000000               0.000000000              -0.004596180               0.007431736               0.001949351              -0.002652528               0.003361396               0.000708868               0.000000000               0.000000000               0.000000000               0.000000000              -0.003977493               0.007598391               0.001751922              -0.002441353               0.003346556               0.000905203               0.000000000               0.000000000               0.000000000               0.000000000              -0.003317626               0.007514156               0.001546257              -0.002183374               0.003232485               0.001049110               0.000000000               0.000000000               0.000000000               0.000000000              -0.002666342               0.007306060               0.001356847              -0.001913131               0.003073039               0.001159908               0.000000000               0.000000000               0.000000000               0.000000000              -0.002051885               0.007029020               0.001183850              -0.001648081               0.002892343               0.001244263               0.000000000               0.000000000               0.000000000               0.000000000              -0.001494577               0.006727703               0.001032250              -0.001401426               0.002709687               0.001308261               0.000000000               0.000000000               0.000000000               0.000000000              -0.001006905               0.006423415               0.000896344              -0.001180513               0.002534621               0.001354108               0.000000000               0.000000000               0.000000000               0.000000000              -0.000597743               0.006122549               0.000766920              -0.000989470               0.002370652               0.001381183               0.000000000               0.000000000               0.000000000               0.000000000              -0.000274692               0.005826877               0.000639994              -0.000831367               0.002219395               0.001388028               0.000000000               0.000000000               0.000000000               0.000000000              -0.000028322               0.005548721               0.000506305              -0.000704209               0.002084291               0.001380082               0.000000000               0.000000000               0.000000000               0.000000000               0.000144066               0.005310733               0.000357919              -0.000609815               0.001973498               0.001363683               0.000000000               0.000000000               0.000000000               0.000000000               0.000234352               0.005142731               0.000210356              -0.000554958               0.001899212               0.001344254               0.000000000               0.000000000               0.000000000               0.000000000               0.000240222               0.005045323               0.000088899              -0.000540581               0.001861951               0.001321370               0.000000000               0.000000000               0.000000000               0.000000000               0.000204478               0.005000340               0.000031375              -0.000548362               0.001849551               0.001301189               0.000000000               0.000000000               0.000000000               0.000000000              -0.006597417               0.000938891              -0.000666288              -0.002591390               0.001176752              -0.001414637               0.000000000               0.000000000               0.000000000               0.000000000              -0.005653000               0.003097751               0.000902512              -0.002507089               0.001868267              -0.000638822               0.000000000               0.000000000               0.000000000               0.000000000              -0.005289575               0.005127554               0.002191007              -0.002624529               0.002584009              -0.000040520               0.000000000               0.000000000               0.000000000               0.000000000              -0.004669361               0.006119594               0.002355732              -0.002515954               0.002878495               0.000362541               0.000000000               0.000000000               0.000000000               0.000000000              -0.003994662               0.006589668               0.002211802              -0.002321702               0.002970434               0.000648732               0.000000000               0.000000000               0.000000000               0.000000000              -0.003325008               0.006779175               0.002002495              -0.002094270               0.002957792               0.000863522               0.000000000               0.000000000               0.000000000               0.000000000              -0.002678145               0.006792294               0.001790208              -0.001853337               0.002881854               0.001028517               0.000000000               0.000000000               0.000000000               0.000000000              -0.002063137               0.006694231               0.001588968              -0.001610452               0.002768205               0.001157753               0.000000000               0.000000000               0.000000000               0.000000000              -0.001495402               0.006528506               0.001410953              -0.001376836               0.002635092               0.001258256               0.000000000               0.000000000               0.000000000               0.000000000              -0.000981158               0.006328623               0.001251293              -0.001159010               0.002495856               0.001336847               0.000000000               0.000000000               0.000000000               0.000000000              -0.000527579               0.006111026               0.001095095              -0.000961718               0.002357561               0.001395843               0.000000000               0.000000000               0.000000000               0.000000000              -0.000145640               0.005875176               0.000943527              -0.000789010               0.002221376               0.001432365               0.000000000               0.000000000               0.000000000               0.000000000               0.000163179               0.005630301               0.000784529              -0.000642594               0.002090946               0.001448352               0.000000000               0.000000000               0.000000000               0.000000000               0.000398405               0.005399509               0.000594940              -0.000525536               0.001974997               0.001449461               0.000000000               0.000000000               0.000000000               0.000000000               0.000547773               0.005209644               0.000384140              -0.000445790               0.001885127               0.001439337               0.000000000               0.000000000               0.000000000               0.000000000               0.000596084               0.005080376               0.000182794              -0.000411514               0.001830613               0.001419099               0.000000000               0.000000000               0.000000000               0.000000000               0.000572352               0.005019544               0.000081712              -0.000412810               0.001810768               0.001397958               0.000000000               0.000000000               0.000000000               0.000000000              -0.008843734              -0.000124985              -0.001217349              -0.003300775               0.001058589              -0.002242186               0.000000000               0.000000000               0.000000000               0.000000000              -0.006802964               0.001763218               0.000588278              -0.002771510               0.001511566              -0.001259945               0.000000000               0.000000000               0.000000000               0.000000000              -0.005544598               0.003497072               0.002153544              -0.002516354               0.002004461              -0.000511893               0.000000000               0.000000000               0.000000000               0.000000000              -0.004620300               0.004614162               0.002492028              -0.002309378               0.002307830              -0.000001548               0.000000000               0.000000000               0.000000000               0.000000000              -0.003851040               0.005318689               0.002435872              -0.002108972               0.002475868               0.000366897               0.000000000               0.000000000               0.000000000               0.000000000              -0.003163095               0.005753075               0.002260678              -0.001905291               0.002552769               0.000647478               0.000000000               0.000000000               0.000000000               0.000000000              -0.002528382               0.005991284               0.002055722              -0.001697050               0.002562757               0.000865707               0.000000000               0.000000000               0.000000000               0.000000000              -0.001930299               0.006090153               0.001850350              -0.001485128               0.002525073               0.001039945               0.000000000               0.000000000               0.000000000               0.000000000              -0.001366856               0.006091911               0.001664864              -0.001274057               0.002455302               0.001181245               0.000000000               0.000000000               0.000000000               0.000000000              -0.000836728               0.006029305               0.001500352              -0.001067434               0.002365559               0.001298125               0.000000000               0.000000000               0.000000000               0.000000000              -0.000342934               0.005920555               0.001341912              -0.000868668               0.002263055               0.001394386               0.000000000               0.000000000               0.000000000               0.000000000               0.000102201               0.005772176               0.001183954              -0.000683196               0.002151771               0.001468576               0.000000000               0.000000000               0.000000000               0.000000000               0.000485273               0.005596842               0.001012820              -0.000517627               0.002038137               0.001520510               0.000000000               0.000000000               0.000000000               0.000000000               0.000806410               0.005409976               0.000806870              -0.000373843               0.001927921               0.001554079               0.000000000               0.000000000               0.000000000               0.000000000               0.001062180               0.005237129               0.000560705              -0.000256323               0.001831133               0.001574810               0.000000000               0.000000000               0.000000000               0.000000000               0.001223574               0.005103824               0.000288887              -0.000179137               0.001760970               0.001581833               0.000000000               0.000000000               0.000000000               0.000000000               0.001271242               0.005043894               0.000148511              -0.000153771               0.001732538               0.001578767               0.000000000               0.000000000               0.000000000               0.000000000              -0.010993030              -0.000776157              -0.001422728              -0.004025364               0.001083061              -0.002942303               0.000000000               0.000000000               0.000000000               0.000000000              -0.007933557               0.000690836               0.000310129              -0.003061435               0.001250748              -0.001810687               0.000000000               0.000000000               0.000000000               0.000000000              -0.005773822               0.001978617               0.001869799              -0.002412507               0.001463698              -0.000948810               0.000000000               0.000000000               0.000000000               0.000000000              -0.004493316               0.003086348               0.002298347              -0.002070783               0.001719031              -0.000351752               0.000000000               0.000000000               0.000000000               0.000000000              -0.003589264               0.003934850               0.002323630              -0.001837826               0.001924211               0.000086385               0.000000000               0.000000000               0.000000000               0.000000000              -0.002867110               0.004559957               0.002203246              -0.001645158               0.002068355               0.000423198               0.000000000               0.000000000               0.000000000               0.000000000              -0.002240462               0.004998662               0.002033094              -0.001465003               0.002154538               0.000689534               0.000000000               0.000000000               0.000000000               0.000000000              -0.001661706               0.005285615               0.001850346              -0.001283839               0.002189800               0.000905961               0.000000000               0.000000000               0.000000000               0.000000000              -0.001108160               0.005458856               0.001683018              -0.001097915               0.002185572               0.001087657               0.000000000               0.000000000               0.000000000               0.000000000              -0.000571327               0.005545641               0.001536641              -0.000907451               0.002151012               0.001243561               0.000000000               0.000000000               0.000000000               0.000000000              -0.000050880               0.005558564               0.001395402              -0.000713900               0.002090802               0.001376903               0.000000000               0.000000000               0.000000000               0.000000000               0.000444260               0.005516362               0.001249384              -0.000522947               0.002013085               0.001490137               0.000000000               0.000000000               0.000000000               0.000000000               0.000909834               0.005440876               0.001089348              -0.000338922               0.001926581               0.001587659               0.000000000               0.000000000               0.000000000               0.000000000               0.001344120               0.005338522               0.000898352              -0.000163270               0.001833913               0.001670642               0.000000000               0.000000000               0.000000000               0.000000000               0.001749212               0.005225659               0.000657467               0.000002746               0.001740954               0.001743700               0.000000000               0.000000000               0.000000000               0.000000000               0.002103463               0.005113739               0.000355812               0.000149580               0.001654703               0.001804282               0.000000000               0.000000000               0.000000000               0.000000000               0.002305760               0.005073613               0.000198757               0.000230456               0.001614369               0.001844825               0.000000000               0.000000000               0.000000000               0.000000000              -0.012795923              -0.001106431              -0.001237825              -0.004660164               0.001184570              -0.003475595               0.000000000               0.000000000               0.000000000               0.000000000              -0.008907575              -0.000081014               0.000118314              -0.003330211               0.001083058              -0.002247153               0.000000000               0.000000000               0.000000000               0.000000000              -0.005963556               0.000736137               0.001371712              -0.002328348               0.001021488              -0.001306860               0.000000000               0.000000000               0.000000000               0.000000000              -0.004336230               0.001752688               0.001766189              -0.001845170               0.001199277              -0.000645893               0.000000000               0.000000000               0.000000000               0.000000000              -0.003287601               0.002666362               0.001831311              -0.001566143               0.001410824              -0.000155318               0.000000000               0.000000000               0.000000000               0.000000000              -0.002517334               0.003417583               0.001764880              -0.001371195               0.001596247               0.000225052               0.000000000               0.000000000               0.000000000               0.000000000              -0.001888345               0.004003060               0.001647178              -0.001208509               0.001737176               0.000528667               0.000000000               0.000000000               0.000000000               0.000000000              -0.001325990               0.004438354               0.001513400              -0.001052039               0.001830116               0.000778077               0.000000000               0.000000000               0.000000000               0.000000000              -0.000784457               0.004759994               0.001387657              -0.000889169               0.001883038               0.000993869               0.000000000               0.000000000               0.000000000               0.000000000              -0.000251362               0.004987314               0.001276264              -0.000717674               0.001901646               0.001183972               0.000000000               0.000000000               0.000000000               0.000000000               0.000275143               0.005128625               0.001167127              -0.000537899               0.001888824               0.001350925               0.000000000               0.000000000               0.000000000               0.000000000               0.000804898               0.005204500               0.001054552              -0.000348726               0.001851058               0.001502332               0.000000000               0.000000000               0.000000000               0.000000000               0.001344068               0.005230479               0.000932150              -0.000149785               0.001793404               0.001643619               0.000000000               0.000000000               0.000000000               0.000000000               0.001896986               0.005219368               0.000786204               0.000058948               0.001720123               0.001779070               0.000000000               0.000000000               0.000000000               0.000000000               0.002469255               0.005181036               0.000596653               0.000278338               0.001634215               0.001912553               0.000000000               0.000000000               0.000000000               0.000000000               0.003058198               0.005105890               0.000335161               0.000508583               0.001532419               0.002041001               0.000000000               0.000000000               0.000000000               0.000000000               0.003471937               0.005100436               0.000198887               0.000664415               0.001478657               0.002143072               0.000000000               0.000000000               0.000000000               0.000000000              -0.013994782              -0.001242905              -0.000715807              -0.005092677               0.001283248              -0.003809428               0.000000000               0.000000000               0.000000000               0.000000000              -0.009569003              -0.000544438               0.000025416              -0.003520319               0.000991954              -0.002528365               0.000000000               0.000000000               0.000000000               0.000000000              -0.006093105              -0.000078778               0.000721715              -0.002275065               0.000732091              -0.001542975               0.000000000               0.000000000               0.000000000               0.000000000              -0.004210917               0.000837020               0.000958050              -0.001683719               0.000840240              -0.000843479               0.000000000               0.000000000               0.000000000               0.000000000              -0.003048557               0.001768872               0.001008921              -0.001364316               0.001044389              -0.000319927               0.000000000               0.000000000               0.000000000               0.000000000              -0.002235693               0.002588940               0.000982460              -0.001162000               0.001250304               0.000088304               0.000000000               0.000000000               0.000000000               0.000000000              -0.001597044               0.003262673               0.000923202              -0.001006724               0.001423121               0.000416397               0.000000000               0.000000000               0.000000000               0.000000000              -0.001041821               0.003793436               0.000854098              -0.000864861               0.001552753               0.000687892               0.000000000               0.000000000               0.000000000               0.000000000              -0.000516771               0.004210033               0.000790467              -0.000720042               0.001643344               0.000923302               0.000000000               0.000000000               0.000000000               0.000000000               0.000001365               0.004533770               0.000729448              -0.000566208               0.001699977               0.001133769               0.000000000               0.000000000               0.000000000               0.000000000               0.000527873               0.004776269               0.000666441              -0.000399081               0.001725101               0.001326020               0.000000000               0.000000000               0.000000000               0.000000000               0.001081476               0.004949777               0.000604444              -0.000213168               0.001720965               0.001507797               0.000000000               0.000000000               0.000000000               0.000000000               0.001672889               0.005059468               0.000539313              -0.000005101               0.001688173               0.001683072               0.000000000               0.000000000               0.000000000               0.000000000               0.002314797               0.005118232               0.000461389               0.000228268               0.001629971               0.001858239               0.000000000               0.000000000               0.000000000               0.000000000               0.003019992               0.005130586               0.000355445               0.000491169               0.001546455               0.002037624               0.000000000               0.000000000               0.000000000               0.000000000               0.003805499               0.005084299               0.000202173               0.000791517               0.001430911               0.002222427               0.000000000               0.000000000               0.000000000               0.000000000               0.004403894               0.005110765               0.000123877               0.001012605               0.001366036               0.002378641               0.000000000               0.000000000               0.000000000               0.000000000              -0.014414387              -0.001277941              -0.000000000              -0.005245649               0.001322561              -0.003923089               0.000000000               0.000000000               0.000000000               0.000000000              -0.009803920              -0.000699837              -0.000000000              -0.003588988               0.000963044              -0.002625944               0.000000000               0.000000000               0.000000000               0.000000000              -0.006140818              -0.000363240               0.000000000              -0.002257400               0.000631382              -0.001626018               0.000000000               0.000000000               0.000000000               0.000000000              -0.004164799               0.000511261              -0.000000000              -0.001625705               0.000712317              -0.000913388               0.000000000               0.000000000               0.000000000               0.000000000              -0.002959196               0.001444663              -0.000000000              -0.001290279               0.000911641              -0.000378638               0.000000000               0.000000000               0.000000000               0.000000000              -0.002129151               0.002285155               0.000000000              -0.001084074               0.001123068               0.000038995               0.000000000               0.000000000               0.000000000               0.000000000              -0.001486679               0.002987770              -0.000000000              -0.000930974               0.001306238               0.000375264               0.000000000               0.000000000               0.000000000               0.000000000              -0.000929755               0.003555610               0.000000000              -0.000793107               0.001449561               0.000656453               0.000000000               0.000000000               0.000000000               0.000000000              -0.000410914               0.004007953              -0.000000000              -0.000655085               0.001554333               0.000899247               0.000000000               0.000000000               0.000000000               0.000000000               0.000095290               0.004362463              -0.000000000              -0.000509573               0.001623998               0.001114425               0.000000000               0.000000000               0.000000000               0.000000000               0.000621866               0.004637619              -0.000000000              -0.000346502               0.001661358               0.001314856               0.000000000               0.000000000               0.000000000               0.000000000               0.001185859               0.004846330              -0.000000000              -0.000161094               0.001669125               0.001508031               0.000000000               0.000000000               0.000000000               0.000000000               0.001797342               0.004994816               0.000000000               0.000049651               0.001648372               0.001698023               0.000000000               0.000000000               0.000000000               0.000000000               0.002469570               0.005081056              -0.000000000               0.000290954               0.001596684               0.001887638               0.000000000               0.000000000               0.000000000               0.000000000               0.003221850               0.005101703              -0.000000000               0.000570475               0.001510392               0.002080867               0.000000000               0.000000000               0.000000000               0.000000000               0.004086161               0.005063488              -0.000000000               0.000899365               0.001388024               0.002287389               0.000000000               0.000000000               0.000000000               0.000000000               0.004759114               0.005104710              -0.000000000               0.001146568               0.001319364               0.002465931               0.000000000               0.000000000               0.000000000               0.000000000               0.002214125               0.023807689              -0.000000000              -0.002145659               0.008651036               0.006505377               0.000000000               0.000000000               0.000000000               0.000000000               0.002096690               0.018275930              -0.000000000              -0.001498229               0.006591325               0.005093097               0.000000000               0.000000000               0.000000000               0.000000000               0.002667132               0.013797541              -0.000000000              -0.000724516               0.004840640               0.004116123               0.000000000               0.000000000               0.000000000               0.000000000               0.002431590               0.011277932              -0.000000000              -0.000497894               0.003925238               0.003427344               0.000000000               0.000000000               0.000000000               0.000000000               0.001980129               0.009687745              -0.000000000              -0.000468419               0.003385355               0.002916937               0.000000000               0.000000000               0.000000000               0.000000000               0.001515521               0.008574197               0.000000000              -0.000503453               0.003025855               0.002522401               0.000000000               0.000000000               0.000000000               0.000000000               0.001114474               0.007716744              -0.000000000              -0.000546664               0.002754444               0.002207780               0.000000000               0.000000000               0.000000000               0.000000000               0.000787738               0.006987407              -0.000000000              -0.000578023               0.002521786               0.001943764               0.000000000               0.000000000               0.000000000               0.000000000               0.000529897               0.006322245              -0.000000000              -0.000591568               0.002304583               0.001713015               0.000000000               0.000000000               0.000000000               0.000000000               0.000331250               0.005681380               0.000000000              -0.000585952               0.002089092               0.001503139               0.000000000               0.000000000               0.000000000               0.000000000               0.000183184               0.005051611               0.000000000              -0.000562756               0.001871439               0.001308683               0.000000000               0.000000000               0.000000000               0.000000000               0.000073789               0.004422151              -0.000000000              -0.000525097               0.001649068               0.001123971               0.000000000               0.000000000               0.000000000               0.000000000              -0.000009989               0.003777017              -0.000000000              -0.000475872               0.001417617               0.000941745               0.000000000               0.000000000               0.000000000               0.000000000              -0.000071004               0.003094502              -0.000000000              -0.000413438               0.001169303               0.000755865               0.000000000               0.000000000               0.000000000               0.000000000              -0.000089768               0.002351206              -0.000000000              -0.000327563               0.000892915               0.000565352               0.000000000               0.000000000               0.000000000               0.000000000              -0.000055815               0.001517362              -0.000000000              -0.000210600               0.000575982               0.000365382               0.000000000               0.000000000               0.000000000               0.000000000              -0.000095097               0.000877998              -0.000000000              -0.000145411               0.000341133               0.000195722               0.000000000               0.000000000               0.000000000               0.000000000               0.002273684               0.023294604              -0.001567790              -0.002059189               0.008451187               0.006391997               0.000000000               0.000000000               0.000000000               0.000000000               0.002028711               0.017955101              -0.000696959              -0.001483618               0.006479513               0.004995895               0.000000000               0.000000000               0.000000000               0.000000000               0.002462838               0.013672076               0.000160755              -0.000785444               0.004819128               0.004033684               0.000000000               0.000000000               0.000000000               0.000000000               0.002177501               0.011253452               0.000511912              -0.000590117               0.003947819               0.003357702               0.000000000               0.000000000               0.000000000               0.000000000               0.001720989               0.009715235               0.000648307              -0.000569032               0.003428057               0.002859024               0.000000000               0.000000000               0.000000000               0.000000000               0.001271873               0.008627562               0.000689066              -0.000601491               0.003076322               0.002474831               0.000000000               0.000000000               0.000000000               0.000000000               0.000890199               0.007777370               0.000683319              -0.000638345               0.002805212               0.002166867               0.000000000               0.000000000               0.000000000               0.000000000               0.000587541               0.007054579               0.000655107              -0.000661493               0.002572000               0.001910507               0.000000000               0.000000000               0.000000000               0.000000000               0.000357404               0.006393559               0.000617791              -0.000665167               0.002352887               0.001687720               0.000000000               0.000000000               0.000000000               0.000000000               0.000185728               0.005763287               0.000578350              -0.000650761               0.002137997               0.001487236               0.000000000               0.000000000               0.000000000               0.000000000               0.000060254               0.005141059               0.000541962              -0.000620036               0.001920348               0.001300312               0.000000000               0.000000000               0.000000000               0.000000000              -0.000024209               0.004522932               0.000507681              -0.000574444               0.001699110               0.001124666               0.000000000               0.000000000               0.000000000               0.000000000              -0.000082676               0.003899102               0.000466000              -0.000518390               0.001472484               0.000954094               0.000000000               0.000000000               0.000000000               0.000000000              -0.000117709               0.003250544               0.000403470              -0.000450458               0.001233656               0.000783198               0.000000000               0.000000000               0.000000000               0.000000000              -0.000116026               0.002557633               0.000311640              -0.000363213               0.000973607               0.000610394               0.000000000               0.000000000               0.000000000               0.000000000              -0.000070477               0.001805552               0.000180140              -0.000252123               0.000685886               0.000433763               0.000000000               0.000000000               0.000000000               0.000000000              -0.000095060               0.001248557               0.000112827              -0.000191717               0.000480087               0.000288370               0.000000000               0.000000000               0.000000000               0.000000000               0.002416571               0.021830833              -0.002893875              -0.001822637               0.007884417               0.006061780               0.000000000               0.000000000               0.000000000               0.000000000               0.001813410               0.017042082              -0.001278931              -0.001450228               0.006164046               0.004713818               0.000000000               0.000000000               0.000000000               0.000000000               0.001870246               0.013321411               0.000295114              -0.000963832               0.004761703               0.003797871               0.000000000               0.000000000               0.000000000               0.000000000               0.001460409               0.011183530               0.000914492              -0.000850286               0.004011235               0.003160949               0.000000000               0.000000000               0.000000000               0.000000000               0.000999965               0.009781862               0.001142507              -0.000847744               0.003543169               0.002695425               0.000000000               0.000000000               0.000000000               0.000000000               0.000602583               0.008754469               0.001200124              -0.000868338               0.003207573               0.002339235               0.000000000               0.000000000               0.000000000               0.000000000               0.000292109               0.007931455               0.001180153              -0.000881889               0.002937755               0.002055866               0.000000000               0.000000000               0.000000000               0.000000000               0.000063477               0.007222061               0.001122365              -0.000878952               0.002700313               0.001821361               0.000000000               0.000000000               0.000000000               0.000000000              -0.000094500               0.006576727               0.001049335              -0.000857527               0.002478063               0.001620536               0.000000000               0.000000000               0.000000000               0.000000000              -0.000200091               0.005962400               0.000971060              -0.000820332               0.002260891               0.001440559               0.000000000               0.000000000               0.000000000               0.000000000              -0.000261070               0.005366148               0.000896825              -0.000768668               0.002044921               0.001276252               0.000000000               0.000000000               0.000000000               0.000000000              -0.000282082               0.004787473               0.000830366              -0.000704213               0.001830546               0.001126333               0.000000000               0.000000000               0.000000000               0.000000000              -0.000277961               0.004218720               0.000751060              -0.000631574               0.001616751               0.000985177               0.000000000               0.000000000               0.000000000               0.000000000              -0.000245851               0.003652296               0.000635460              -0.000548730               0.001400330               0.000851600               0.000000000               0.000000000               0.000000000               0.000000000              -0.000182612               0.003087262               0.000475751              -0.000454386               0.001180539               0.000726153               0.000000000               0.000000000               0.000000000               0.000000000              -0.000098474               0.002530069               0.000267613              -0.000353186               0.000961076               0.000607891               0.000000000               0.000000000               0.000000000               0.000000000              -0.000090573               0.002151468               0.000163333              -0.000302898               0.000818115               0.000515217               0.000000000               0.000000000               0.000000000               0.000000000               0.002525443               0.019615512              -0.003800272              -0.001504896               0.007040070               0.005535174               0.000000000               0.000000000               0.000000000               0.000000000               0.001424918               0.015675385              -0.001674974              -0.001425076               0.005700101               0.004275025               0.000000000               0.000000000               0.000000000               0.000000000               0.000962726               0.012798405               0.000364279              -0.001238775               0.004679018               0.003440242               0.000000000               0.000000000               0.000000000               0.000000000               0.000415362               0.011054415               0.001118298              -0.001226038               0.004093447               0.002867409               0.000000000               0.000000000               0.000000000               0.000000000              -0.000019189               0.009833282               0.001372604              -0.001236353               0.003689846               0.002453492               0.000000000               0.000000000               0.000000000               0.000000000              -0.000320014               0.008887238               0.001422311              -0.001230907               0.003372685               0.002141778               0.000000000               0.000000000               0.000000000               0.000000000              -0.000510509               0.008102908               0.001380600              -0.001204302               0.003102376               0.001898074               0.000000000               0.000000000               0.000000000               0.000000000              -0.000617550               0.007414310               0.001297778              -0.001158367               0.002857534               0.001699167               0.000000000               0.000000000               0.000000000               0.000000000              -0.000662871               0.006785002               0.001196632              -0.001096699               0.002627211               0.001530512               0.000000000               0.000000000               0.000000000               0.000000000              -0.000665440               0.006189621               0.001092279              -0.001023240               0.002404266               0.001381026               0.000000000               0.000000000               0.000000000               0.000000000              -0.000631432               0.005632833               0.000997508              -0.000940889               0.002191222               0.001250333               0.000000000               0.000000000               0.000000000               0.000000000              -0.000572022               0.005109639               0.000909321              -0.000853211               0.001987600               0.001134388               0.000000000               0.000000000               0.000000000               0.000000000              -0.000488747               0.004615711               0.000805124              -0.000760242               0.001791969               0.001031727               0.000000000               0.000000000               0.000000000               0.000000000              -0.000380589               0.004154675               0.000663280              -0.000662054               0.001605562               0.000943509               0.000000000               0.000000000               0.000000000               0.000000000              -0.000254831               0.003741129               0.000482720              -0.000563202               0.001434764               0.000871563               0.000000000               0.000000000               0.000000000               0.000000000              -0.000126564               0.003393256               0.000263635              -0.000471617               0.001288280               0.000816663               0.000000000               0.000000000               0.000000000               0.000000000              -0.000083235               0.003190620               0.000153056              -0.000430040               0.001206876               0.000776836               0.000000000               0.000000000               0.000000000               0.000000000               0.002447872               0.016910176              -0.004208308              -0.001195820               0.006035275               0.004839455               0.000000000               0.000000000               0.000000000               0.000000000               0.000839898               0.014039675              -0.001871828              -0.001439995               0.005159843               0.003719848               0.000000000               0.000000000               0.000000000               0.000000000              -0.000153550               0.012163092               0.000330019              -0.001577964               0.004580311               0.003002347               0.000000000               0.000000000               0.000000000               0.000000000              -0.000776073               0.010848124               0.001081095              -0.001647039               0.004165018               0.002517979               0.000000000               0.000000000               0.000000000               0.000000000              -0.001120208               0.009819354               0.001309110              -0.001647493               0.003822250               0.002174756               0.000000000               0.000000000               0.000000000               0.000000000              -0.001274646               0.008964121               0.001335568              -0.001598504               0.003520845               0.001922341               0.000000000               0.000000000               0.000000000               0.000000000              -0.001307573               0.008217980               0.001279616              -0.001517584               0.003245160               0.001727577               0.000000000               0.000000000               0.000000000               0.000000000              -0.001262672               0.007546956               0.001185841              -0.001416868               0.002987916               0.001571048               0.000000000               0.000000000               0.000000000               0.000000000              -0.001167427               0.006926968               0.001076151              -0.001303653               0.002743517               0.001439864               0.000000000               0.000000000               0.000000000               0.000000000              -0.001047561               0.006357568               0.000969100              -0.001187529               0.002515011               0.001327482               0.000000000               0.000000000               0.000000000               0.000000000              -0.000916295               0.005842151               0.000873029              -0.001073877               0.002305323               0.001231446               0.000000000               0.000000000               0.000000000               0.000000000              -0.000768331               0.005379080               0.000781970              -0.000960507               0.002113178               0.001152671               0.000000000               0.000000000               0.000000000               0.000000000              -0.000606286               0.004966986               0.000675252              -0.000848229               0.001938388               0.001090160               0.000000000               0.000000000               0.000000000               0.000000000              -0.000435125               0.004612219               0.000536513              -0.000739698               0.001783957               0.001044259               0.000000000               0.000000000               0.000000000               0.000000000              -0.000269262               0.004329301               0.000373902              -0.000642134               0.001657130               0.001014996               0.000000000               0.000000000               0.000000000               0.000000000              -0.000125559               0.004136960               0.000195498              -0.000564203               0.001567041               0.001002837               0.000000000               0.000000000               0.000000000               0.000000000              -0.000066165               0.004055114               0.000106158              -0.000531700               0.001528925               0.000997225               0.000000000               0.000000000               0.000000000               0.000000000               0.002063270               0.014002702              -0.004130127              -0.000976612               0.004993057               0.004016445               0.000000000               0.000000000               0.000000000               0.000000000               0.000071566               0.012319594              -0.001900927              -0.001513109               0.004610860               0.003097750               0.000000000               0.000000000               0.000000000               0.000000000              -0.001342558               0.011470209               0.000167687              -0.001937231               0.004469108               0.002531878               0.000000000               0.000000000               0.000000000               0.000000000              -0.001930471               0.010557246               0.000815033              -0.002043577               0.004200239               0.002156662               0.000000000               0.000000000               0.000000000               0.000000000              -0.002109426               0.009701545               0.000992547              -0.002003723               0.003901724               0.001898001               0.000000000               0.000000000               0.000000000               0.000000000              -0.002075035               0.008925062               0.001002348              -0.001893766               0.003606246               0.001712480               0.000000000               0.000000000               0.000000000               0.000000000              -0.001930855               0.008212189               0.000949017              -0.001750590               0.003320899               0.001570309               0.000000000               0.000000000               0.000000000               0.000000000              -0.001726838               0.007555987               0.000866248              -0.001592059               0.003049323               0.001457264               0.000000000               0.000000000               0.000000000               0.000000000              -0.001490311               0.006957217               0.000773189              -0.001428515               0.002795221               0.001366706               0.000000000               0.000000000               0.000000000               0.000000000              -0.001251481               0.006423086               0.000687469              -0.001272188               0.002565070               0.001292882               0.000000000               0.000000000               0.000000000               0.000000000              -0.001028103               0.005955289               0.000612625              -0.001129947               0.002361725               0.001231778               0.000000000               0.000000000               0.000000000               0.000000000              -0.000807718               0.005551471               0.000539668              -0.000996826               0.002182747               0.001185921               0.000000000               0.000000000               0.000000000               0.000000000              -0.000594599               0.005209147               0.000451599              -0.000874116               0.002027737               0.001153621               0.000000000               0.000000000               0.000000000               0.000000000              -0.000398123               0.004933847               0.000338239              -0.000766025               0.001899941               0.001133916               0.000000000               0.000000000               0.000000000               0.000000000              -0.000230055               0.004736388               0.000217658              -0.000678317               0.001804886               0.001126569               0.000000000               0.000000000               0.000000000               0.000000000              -0.000100363               0.004626756               0.000105606              -0.000615979               0.001747563               0.001131584               0.000000000               0.000000000               0.000000000               0.000000000              -0.000046887               0.004595201               0.000053355              -0.000591981               0.001729045               0.001137064               0.000000000               0.000000000               0.000000000               0.000000000               0.001299174               0.011149078              -0.003653921              -0.000906445               0.004018470               0.003112024               0.000000000               0.000000000               0.000000000               0.000000000              -0.000845070               0.010654832              -0.001821744              -0.001648752               0.004101159               0.002452406               0.000000000               0.000000000               0.000000000               0.000000000              -0.002472332               0.010745189              -0.000129286              -0.002270268               0.004338450               0.002068182               0.000000000               0.000000000               0.000000000               0.000000000              -0.002901387               0.010163793               0.000367704              -0.002358489               0.004174060               0.001815572               0.000000000               0.000000000               0.000000000               0.000000000              -0.002857521               0.009449650               0.000506886              -0.002252771               0.003900776               0.001648005               0.000000000               0.000000000               0.000000000               0.000000000              -0.002615324               0.008739617               0.000525970              -0.002073193               0.003604241               0.001531048               0.000000000               0.000000000               0.000000000               0.000000000              -0.002293868               0.008063595               0.000498774              -0.001868145               0.003310553               0.001442408               0.000000000               0.000000000               0.000000000               0.000000000              -0.001941114               0.007437113               0.000451826              -0.001657553               0.003031530               0.001373978               0.000000000               0.000000000               0.000000000               0.000000000              -0.001587442               0.006871783               0.000398908              -0.001454260               0.002775325               0.001321065               0.000000000               0.000000000               0.000000000               0.000000000              -0.001256785               0.006382329               0.000354249              -0.001269082               0.002550449               0.001281367               0.000000000               0.000000000               0.000000000               0.000000000              -0.000961633               0.005965286               0.000315757              -0.001106270               0.002357166               0.001250895               0.000000000               0.000000000               0.000000000               0.000000000              -0.000698711               0.005611716               0.000273666              -0.000963479               0.002191713               0.001228234               0.000000000               0.000000000               0.000000000               0.000000000              -0.000473211               0.005317311               0.000218053              -0.000842116               0.002053125               0.001211009               0.000000000               0.000000000               0.000000000               0.000000000              -0.000291028               0.005089788               0.000145505              -0.000745357               0.001945031               0.001199674               0.000000000               0.000000000               0.000000000               0.000000000              -0.000152557               0.004937971               0.000078308              -0.000674453               0.001870792               0.001196338               0.000000000               0.000000000               0.000000000               0.000000000              -0.000058419               0.004858606               0.000032503              -0.000629231               0.001829263               0.001200032               0.000000000               0.000000000               0.000000000               0.000000000              -0.000025176               0.004833458               0.000016685              -0.000613622               0.001815677               0.001202055               0.000000000               0.000000000               0.000000000               0.000000000               0.000201854               0.008524786              -0.002899654              -0.000989903               0.003171534               0.002181631               0.000000000               0.000000000               0.000000000               0.000000000              -0.001854010               0.009137445              -0.001691858              -0.001837431               0.003658261               0.001820830               0.000000000               0.000000000               0.000000000               0.000000000              -0.003435668               0.009988335              -0.000546132              -0.002536911               0.004175049               0.001638138               0.000000000               0.000000000               0.000000000               0.000000000              -0.003598611               0.009663113              -0.000181508              -0.002557362               0.004073459               0.001516097               0.000000000               0.000000000               0.000000000               0.000000000              -0.003308275               0.009076227              -0.000043948              -0.002375126               0.003817087               0.001441962               0.000000000               0.000000000               0.000000000               0.000000000              -0.002869428               0.008435128               0.000010776              -0.002130421               0.003521822               0.001391400               0.000000000               0.000000000               0.000000000               0.000000000              -0.002388499               0.007805438               0.000032789              -0.001871362               0.003225574               0.001354212               0.000000000               0.000000000               0.000000000               0.000000000              -0.001914508               0.007217191               0.000040664              -0.001620085               0.002945735               0.001325649               0.000000000               0.000000000               0.000000000               0.000000000              -0.001478042               0.006696434               0.000042370              -0.001391316               0.002695894               0.001304578               0.000000000               0.000000000               0.000000000               0.000000000              -0.001093715               0.006255924               0.000047100              -0.001192130               0.002482664               0.001290533               0.000000000               0.000000000               0.000000000               0.000000000              -0.000765114               0.005879720               0.000050760              -0.001021880               0.002300514               0.001278634               0.000000000               0.000000000               0.000000000               0.000000000              -0.000497630               0.005558509               0.000045586              -0.000881423               0.002146625               0.001265203               0.000000000               0.000000000               0.000000000               0.000000000              -0.000297275               0.005293603               0.000029716              -0.000773177               0.002022242               0.001249066               0.000000000               0.000000000               0.000000000               0.000000000              -0.000156124               0.005099906               0.000008543              -0.000696033               0.001931963               0.001235930               0.000000000               0.000000000               0.000000000               0.000000000              -0.000062697               0.004987260              -0.000003596              -0.000646917               0.001878042               0.001231125               0.000000000               0.000000000               0.000000000               0.000000000              -0.000016187               0.004934166              -0.000002173              -0.000622839               0.001852319               0.001229479               0.000000000               0.000000000               0.000000000               0.000000000              -0.000007621               0.004916407               0.000001987              -0.000617407               0.001844588               0.001227181               0.000000000               0.000000000               0.000000000               0.000000000              -0.001084510               0.006316677              -0.001989967              -0.001196274               0.002504295               0.001308021               0.000000000               0.000000000               0.000000000               0.000000000              -0.002837234               0.007781570              -0.001554583              -0.002036654               0.003272715               0.001236061               0.000000000               0.000000000               0.000000000               0.000000000              -0.004190136               0.009224795              -0.001045073              -0.002724394               0.003983032               0.001258638               0.000000000               0.000000000               0.000000000               0.000000000              -0.004073769               0.009169354              -0.000759486              -0.002673826               0.003947696               0.001273870               0.000000000               0.000000000               0.000000000               0.000000000              -0.003578580               0.008733030              -0.000592924              -0.002433590               0.003722178               0.001288587               0.000000000               0.000000000               0.000000000               0.000000000              -0.002983020               0.008184646              -0.000487117              -0.002141708               0.003442091               0.001300383               0.000000000               0.000000000               0.000000000               0.000000000              -0.002378557               0.007618545              -0.000406004              -0.001844273               0.003154247               0.001309975               0.000000000               0.000000000               0.000000000               0.000000000              -0.001814999               0.007081931              -0.000335714              -0.001565862               0.002882574               0.001316712               0.000000000               0.000000000               0.000000000               0.000000000              -0.001321389               0.006610485              -0.000277278              -0.001321828               0.002644082               0.001322254               0.000000000               0.000000000               0.000000000               0.000000000              -0.000903833               0.006204497              -0.000226237              -0.001114497               0.002439644               0.001325147               0.000000000               0.000000000               0.000000000               0.000000000              -0.000565181               0.005842893              -0.000181050              -0.000942302               0.002261712               0.001319410               0.000000000               0.000000000               0.000000000               0.000000000              -0.000306222               0.005526137              -0.000144739              -0.000805598               0.002110560               0.001304962               0.000000000               0.000000000               0.000000000               0.000000000              -0.000126513               0.005269145              -0.000110785              -0.000706084               0.001991725               0.001285641               0.000000000               0.000000000               0.000000000               0.000000000              -0.000021111               0.005095876              -0.000071336              -0.000644900               0.001913575               0.001268675               0.000000000               0.000000000               0.000000000               0.000000000               0.000022564               0.005008197              -0.000032100              -0.000617562               0.001875236               0.001257675               0.000000000               0.000000000               0.000000000               0.000000000               0.000022501               0.004974673              -0.000005663              -0.000613395               0.001862673               0.001249278               0.000000000               0.000000000               0.000000000               0.000000000               0.000010656               0.004963862               0.000004441              -0.000616485               0.001860099               0.001243614               0.000000000               0.000000000               0.000000000               0.000000000              -0.002573165               0.004273975              -0.001038889              -0.001499180               0.001924370               0.000425190               0.000000000               0.000000000               0.000000000               0.000000000              -0.003660157               0.006203748              -0.001405282              -0.002148023               0.002783903               0.000635880               0.000000000               0.000000000               0.000000000               0.000000000              -0.004641756               0.008075977              -0.001566355              -0.002750149               0.003608682               0.000858533               0.000000000               0.000000000               0.000000000               0.000000000              -0.004373006               0.008425555              -0.001369455              -0.002693065               0.003706178               0.001013113               0.000000000               0.000000000               0.000000000               0.000000000              -0.003794832               0.008269111              -0.001170877              -0.002456695               0.003575241               0.001118546               0.000000000               0.000000000               0.000000000               0.000000000              -0.003148460               0.007925181              -0.001007640              -0.002171315               0.003365472               0.001194157               0.000000000               0.000000000               0.000000000               0.000000000              -0.002508994               0.007515692              -0.000866792              -0.001880329               0.003131982               0.001251652               0.000000000               0.000000000               0.000000000               0.000000000              -0.001913060               0.007094991              -0.000738376              -0.001604268               0.002899729               0.001295462               0.000000000               0.000000000               0.000000000               0.000000000              -0.001385765               0.006696284              -0.000628623              -0.001356694               0.002684304               0.001327610               0.000000000               0.000000000               0.000000000               0.000000000              -0.000938854               0.006327179              -0.000531655              -0.001142965               0.002490027               0.001347062               0.000000000               0.000000000               0.000000000               0.000000000              -0.000575544               0.005981686              -0.000442063              -0.000963538               0.002315055               0.001351517               0.000000000               0.000000000               0.000000000               0.000000000              -0.000296390               0.005661854              -0.000358779              -0.000818876               0.002160225               0.001341348               0.000000000               0.000000000               0.000000000               0.000000000              -0.000097989               0.005388337              -0.000268736              -0.000710286               0.002032856               0.001322570               0.000000000               0.000000000               0.000000000               0.000000000               0.000023255               0.005183850              -0.000170140              -0.000639259               0.001941019               0.001301760               0.000000000               0.000000000               0.000000000               0.000000000               0.000075470               0.005062902              -0.000083847              -0.000604560               0.001889137               0.001284577               0.000000000               0.000000000               0.000000000               0.000000000               0.000074333               0.005008176              -0.000028144              -0.000598146               0.001868757               0.001270612               0.000000000               0.000000000               0.000000000               0.000000000               0.000052998               0.004983891              -0.000005266              -0.000603111               0.001862317               0.001259206               0.000000000               0.000000000               0.000000000               0.000000000              -0.004456415               0.002431196              -0.000123665              -0.001975051               0.001468739              -0.000506312               0.000000000               0.000000000               0.000000000               0.000000000              -0.004583532               0.004606823              -0.001191294              -0.002294672               0.002300482               0.000005810               0.000000000               0.000000000               0.000000000               0.000000000              -0.004999683               0.006702041              -0.001985305              -0.002712630               0.003138201               0.000425571               0.000000000               0.000000000               0.000000000               0.000000000              -0.004596180               0.007431736              -0.001949351              -0.002652528               0.003361396               0.000708868               0.000000000               0.000000000               0.000000000               0.000000000              -0.003977493               0.007598391              -0.001751922              -0.002441353               0.003346556               0.000905203               0.000000000               0.000000000               0.000000000               0.000000000              -0.003317626               0.007514156              -0.001546257              -0.002183374               0.003232485               0.001049110               0.000000000               0.000000000               0.000000000               0.000000000              -0.002666342               0.007306060              -0.001356847              -0.001913131               0.003073039               0.001159908               0.000000000               0.000000000               0.000000000               0.000000000              -0.002051885               0.007029020              -0.001183850              -0.001648081               0.002892343               0.001244263               0.000000000               0.000000000               0.000000000               0.000000000              -0.001494577               0.006727703              -0.001032250              -0.001401426               0.002709687               0.001308261               0.000000000               0.000000000               0.000000000               0.000000000              -0.001006905               0.006423415              -0.000896344              -0.001180513               0.002534621               0.001354108               0.000000000               0.000000000               0.000000000               0.000000000              -0.000597743               0.006122549              -0.000766920              -0.000989470               0.002370652               0.001381183               0.000000000               0.000000000               0.000000000               0.000000000              -0.000274692               0.005826877              -0.000639994              -0.000831367               0.002219395               0.001388028               0.000000000               0.000000000               0.000000000               0.000000000              -0.000028322               0.005548721              -0.000506305              -0.000704209               0.002084291               0.001380082               0.000000000               0.000000000               0.000000000               0.000000000               0.000144066               0.005310733              -0.000357919              -0.000609815               0.001973498               0.001363683               0.000000000               0.000000000               0.000000000               0.000000000               0.000234352               0.005142731              -0.000210356              -0.000554958               0.001899212               0.001344254               0.000000000               0.000000000               0.000000000               0.000000000               0.000240222               0.005045323              -0.000088899              -0.000540581               0.001861951               0.001321370               0.000000000               0.000000000               0.000000000               0.000000000               0.000204478               0.005000340              -0.000031375              -0.000548362               0.001849551               0.001301189               0.000000000               0.000000000               0.000000000               0.000000000              -0.006597417               0.000938891               0.000666288              -0.002591390               0.001176752              -0.001414637               0.000000000               0.000000000               0.000000000               0.000000000              -0.005653000               0.003097751              -0.000902512              -0.002507089               0.001868267              -0.000638822               0.000000000               0.000000000               0.000000000               0.000000000              -0.005289575               0.005127554              -0.002191007              -0.002624529               0.002584009              -0.000040520               0.000000000               0.000000000               0.000000000               0.000000000              -0.004669361               0.006119594              -0.002355732              -0.002515954               0.002878495               0.000362541               0.000000000               0.000000000               0.000000000               0.000000000              -0.003994662               0.006589668              -0.002211802              -0.002321702               0.002970434               0.000648732               0.000000000               0.000000000               0.000000000               0.000000000              -0.003325008               0.006779175              -0.002002495              -0.002094270               0.002957792               0.000863522               0.000000000               0.000000000               0.000000000               0.000000000              -0.002678145               0.006792294              -0.001790208              -0.001853337               0.002881854               0.001028517               0.000000000               0.000000000               0.000000000               0.000000000              -0.002063137               0.006694231              -0.001588968              -0.001610452               0.002768205               0.001157753               0.000000000               0.000000000               0.000000000               0.000000000              -0.001495402               0.006528506              -0.001410953              -0.001376836               0.002635092               0.001258256               0.000000000               0.000000000               0.000000000               0.000000000              -0.000981158               0.006328623              -0.001251293              -0.001159010               0.002495856               0.001336847               0.000000000               0.000000000               0.000000000               0.000000000              -0.000527579               0.006111026              -0.001095095              -0.000961718               0.002357561               0.001395843               0.000000000               0.000000000               0.000000000               0.000000000              -0.000145640               0.005875176              -0.000943527              -0.000789010               0.002221376               0.001432365               0.000000000               0.000000000               0.000000000               0.000000000               0.000163179               0.005630301              -0.000784529              -0.000642594               0.002090946               0.001448352               0.000000000               0.000000000               0.000000000               0.000000000               0.000398405               0.005399509              -0.000594940              -0.000525536               0.001974997               0.001449461               0.000000000               0.000000000               0.000000000               0.000000000               0.000547773               0.005209644              -0.000384140              -0.000445790               0.001885127               0.001439337               0.000000000               0.000000000               0.000000000               0.000000000               0.000596084               0.005080376              -0.000182794              -0.000411514               0.001830613               0.001419099               0.000000000               0.000000000               0.000000000               0.000000000               0.000572352               0.005019544              -0.000081712              -0.000412810               0.001810768               0.001397958               0.000000000               0.000000000               0.000000000               0.000000000              -0.008843734              -0.000124985               0.001217349              -0.003300775               0.001058589              -0.002242186               0.000000000               0.000000000               0.000000000               0.000000000              -0.006802964               0.001763218              -0.000588278              -0.002771510               0.001511566              -0.001259945               0.000000000               0.000000000               0.000000000               0.000000000              -0.005544598               0.003497072              -0.002153544              -0.002516354               0.002004461              -0.000511893               0.000000000               0.000000000               0.000000000               0.000000000              -0.004620300               0.004614162              -0.002492028              -0.002309378               0.002307830              -0.000001548               0.000000000               0.000000000               0.000000000               0.000000000              -0.003851040               0.005318689              -0.002435872              -0.002108972               0.002475868               0.000366897               0.000000000               0.000000000               0.000000000               0.000000000              -0.003163095               0.005753075              -0.002260678              -0.001905291               0.002552769               0.000647478               0.000000000               0.000000000               0.000000000               0.000000000              -0.002528382               0.005991284              -0.002055722              -0.001697050               0.002562757               0.000865707               0.000000000               0.000000000               0.000000000               0.000000000              -0.001930299               0.006090153              -0.001850350              -0.001485128               0.002525073               0.001039945               0.000000000               0.000000000               0.000000000               0.000000000              -0.001366856               0.006091911              -0.001664864              -0.001274057               0.002455302               0.001181245               0.000000000               0.000000000               0.000000000               0.000000000              -0.000836728               0.006029305              -0.001500352              -0.001067434               0.002365559               0.001298125               0.000000000               0.000000000               0.000000000               0.000000000              -0.000342934               0.005920555              -0.001341912              -0.000868668               0.002263055               0.001394386               0.000000000               0.000000000               0.000000000               0.000000000               0.000102201               0.005772176              -0.001183954              -0.000683196               0.002151771               0.001468576               0.000000000               0.000000000               0.000000000               0.000000000               0.000485273               0.005596842              -0.001012820              -0.000517627               0.002038137               0.001520510               0.000000000               0.000000000               0.000000000               0.000000000               0.000806410               0.005409976              -0.000806870              -0.000373843               0.001927921               0.001554079               0.000000000               0.000000000               0.000000000               0.000000000               0.001062180               0.005237129              -0.000560705              -0.000256323               0.001831133               0.001574810               0.000000000               0.000000000               0.000000000               0.000000000               0.001223574               0.005103824              -0.000288887              -0.000179137               0.001760970               0.001581833               0.000000000               0.000000000               0.000000000               0.000000000               0.001271242               0.005043894              -0.000148511              -0.000153771               0.001732538               0.001578767               0.000000000               0.000000000               0.000000000               0.000000000              -0.010993030              -0.000776157               0.001422728              -0.004025364               0.001083061              -0.002942303               0.000000000               0.000000000               0.000000000               0.000000000              -0.007933557               0.000690836              -0.000310129              -0.003061435               0.001250748              -0.001810687               0.000000000               0.000000000               0.000000000               0.000000000              -0.005773822               0.001978617              -0.001869799              -0.002412507               0.001463698              -0.000948810               0.000000000               0.000000000               0.000000000               0.000000000              -0.004493316               0.003086348              -0.002298347              -0.002070783               0.001719031              -0.000351752               0.000000000               0.000000000               0.000000000               0.000000000              -0.003589264               0.003934850              -0.002323630              -0.001837826               0.001924211               0.000086385               0.000000000               0.000000000               0.000000000               0.000000000              -0.002867110               0.004559957              -0.002203246              -0.001645158               0.002068355               0.000423198               0.000000000               0.000000000               0.000000000               0.000000000              -0.002240462               0.004998662              -0.002033094              -0.001465003               0.002154538               0.000689534               0.000000000               0.000000000               0.000000000               0.000000000              -0.001661706               0.005285615              -0.001850346              -0.001283839               0.002189800               0.000905961               0.000000000               0.000000000               0.000000000               0.000000000              -0.001108160               0.005458856              -0.001683018              -0.001097915               0.002185572               0.001087657               0.000000000               0.000000000               0.000000000               0.000000000              -0.000571327               0.005545641              -0.001536641              -0.000907451               0.002151012               0.001243561               0.000000000               0.000000000               0.000000000               0.000000000              -0.000050880               0.005558564              -0.001395402              -0.000713900               0.002090802               0.001376903               0.000000000               0.000000000               0.000000000               0.000000000               0.000444260               0.005516362              -0.001249384              -0.000522947               0.002013085               0.001490137               0.000000000               0.000000000               0.000000000               0.000000000               0.000909834               0.005440876              -0.001089348              -0.000338922               0.001926581               0.001587659               0.000000000               0.000000000               0.000000000               0.000000000               0.001344120               0.005338522              -0.000898352              -0.000163270               0.001833913               0.001670642               0.000000000               0.000000000               0.000000000               0.000000000               0.001749212               0.005225659              -0.000657467               0.000002746               0.001740954               0.001743700               0.000000000               0.000000000               0.000000000               0.000000000               0.002103463               0.005113739              -0.000355812               0.000149580               0.001654703               0.001804282               0.000000000               0.000000000               0.000000000               0.000000000               0.002305760               0.005073613              -0.000198757               0.000230456               0.001614369               0.001844825               0.000000000               0.000000000               0.000000000               0.000000000              -0.012795923              -0.001106431               0.001237825              -0.004660164               0.001184570              -0.003475595               0.000000000               0.000000000               0.000000000               0.000000000              -0.008907575              -0.000081014              -0.000118314              -0.003330211               0.001083058              -0.002247153               0.000000000               0.000000000               0.000000000               0.000000000              -0.005963556               0.000736137              -0.001371712              -0.002328348               0.001021488              -0.001306860               0.000000000               0.000000000               0.000000000               0.000000000              -0.004336230               0.001752688              -0.001766189              -0.001845170               0.001199277              -0.000645893               0.000000000               0.000000000               0.000000000               0.000000000              -0.003287601               0.002666362              -0.001831311              -0.001566143               0.001410824              -0.000155318               0.000000000               0.000000000               0.000000000               0.000000000              -0.002517334               0.003417583              -0.001764880              -0.001371195               0.001596247               0.000225052               0.000000000               0.000000000               0.000000000               0.000000000              -0.001888345               0.004003060              -0.001647178              -0.001208509               0.001737176               0.000528667               0.000000000               0.000000000               0.000000000               0.000000000              -0.001325990               0.004438354              -0.001513400              -0.001052039               0.001830116               0.000778077               0.000000000               0.000000000               0.000000000               0.000000000              -0.000784457               0.004759994              -0.001387657              -0.000889169               0.001883038               0.000993869               0.000000000               0.000000000               0.000000000               0.000000000              -0.000251362               0.004987314              -0.001276264              -0.000717674               0.001901646               0.001183972               0.000000000               0.000000000               0.000000000               0.000000000               0.000275143               0.005128625              -0.001167127              -0.000537899               0.001888824               0.001350925               0.000000000               0.000000000               0.000000000               0.000000000               0.000804898               0.005204500              -0.001054552              -0.000348726               0.001851058               0.001502332               0.000000000               0.000000000               0.000000000               0.000000000               0.001344068               0.005230479              -0.000932150              -0.000149785               0.001793404               0.001643619               0.000000000               0.000000000               0.000000000               0.000000000               0.001896986               0.005219368              -0.000786204               0.000058948               0.001720123               0.001779070               0.000000000               0.000000000               0.000000000               0.000000000               0.002469255               0.005181036              -0.000596653               0.000278338               0.001634215               0.001912553               0.000000000               0.000000000               0.000000000               0.000000000               0.003058198               0.005105890              -0.000335161               0.000508583               0.001532419               0.002041001               0.000000000               0.000000000               0.000000000               0.000000000               0.003471937               0.005100436              -0.000198887               0.000664415               0.001478657               0.002143072               0.000000000               0.000000000               0.000000000               0.000000000              -0.013994782              -0.001242905               0.000715807              -0.005092677               0.001283248              -0.003809428               0.000000000               0.000000000               0.000000000               0.000000000              -0.009569003              -0.000544438              -0.000025416              -0.003520319               0.000991954              -0.002528365               0.000000000               0.000000000               0.000000000               0.000000000              -0.006093105              -0.000078778              -0.000721715              -0.002275065               0.000732091              -0.001542975               0.000000000               0.000000000               0.000000000               0.000000000              -0.004210917               0.000837020              -0.000958050              -0.001683719               0.000840240              -0.000843479               0.000000000               0.000000000               0.000000000               0.000000000              -0.003048557               0.001768872              -0.001008921              -0.001364316               0.001044389              -0.000319927               0.000000000               0.000000000               0.000000000               0.000000000              -0.002235693               0.002588940              -0.000982460              -0.001162000               0.001250304               0.000088304               0.000000000               0.000000000               0.000000000               0.000000000              -0.001597044               0.003262673              -0.000923202              -0.001006724               0.001423121               0.000416397               0.000000000               0.000000000               0.000000000               0.000000000              -0.001041821               0.003793436              -0.000854098              -0.000864861               0.001552753               0.000687892               0.000000000               0.000000000               0.000000000               0.000000000              -0.000516771               0.004210033              -0.000790467              -0.000720042               0.001643344               0.000923302               0.000000000               0.000000000               0.000000000               0.000000000               0.000001365               0.004533770              -0.000729448              -0.000566208               0.001699977               0.001133769               0.000000000               0.000000000               0.000000000               0.000000000               0.000527873               0.004776269              -0.000666441              -0.000399081               0.001725101               0.001326020               0.000000000               0.000000000               0.000000000               0.000000000               0.001081476               0.004949777              -0.000604444              -0.000213168               0.001720965               0.001507797               0.000000000               0.000000000               0.000000000               0.000000000               0.001672889               0.005059468              -0.000539313              -0.000005101               0.001688173               0.001683072               0.000000000               0.000000000               0.000000000               0.000000000               0.002314797               0.005118232              -0.000461389               0.000228268               0.001629971               0.001858239               0.000000000               0.000000000               0.000000000               0.000000000               0.003019992               0.005130586              -0.000355445               0.000491169               0.001546455               0.002037624               0.000000000               0.000000000               0.000000000               0.000000000               0.003805499               0.005084299              -0.000202173               0.000791517               0.001430911               0.002222427               0.000000000               0.000000000               0.000000000               0.000000000               0.004403894               0.005110765              -0.000123877               0.001012605               0.001366036               0.002378641               0.000000000               0.000000000               0.000000000               0.000000000               0.000000000               0.000000000               0.000000000               0.000000000               0.000000000               0.000000000               0.000000000               0.000000000               0.000000000               0.000000000               0.000000000               0.000000000               0.000000000               0.000000000               0.000000000               0.000000000               0.000000000               0.000000000               0.000000000               0.000000000               0.000000000               0.000000000               0.000000000               0.000000000               0.000000000               0.000000000               0.000000000               0.000000000               0.000000000               0.000000000               0.000000000               0.000000000               0.000000000               0.000000000               0.000000000               0.000000000               0.000000000               0.000000000               0.000000000               0.000000000               0.000000000               0.000000000               0.000000000               0.000000000               0.000000000               0.000000000               0.000000000               0.000000000               0.000000000               0.000000000               0.000000000               0.000000000               0.000000000               0.000000000               0.000000000               0.000000000               0.000000000               0.000000000               0.000000000               0.000000000               0.000000000               0.000000000               0.000000000               0.000000000               0.000000000               0.000000000               0.000000000               0.000000000               0.000000000               0.000000000               0.000000000               0.000000000               0.000000000               0.000000000               0.000000000               0.000000000               0.000000000               0.000000000               0.000000000               0.000000000               0.000000000               0.000000000               0.000000000               0.000000000               0.000000000               0.000000000               0.000000000               0.000000000               0.000000000               0.000000000               0.000000000               0.000000000               0.000000000               0.000000000               0.000000000               0.000000000               0.000000000               0.000000000               0.000000000               0.000000000               0.000000000               0.000000000               0.000000000               0.000000000               0.000000000               0.000000000               0.000000000               0.000000000               0.000000000               0.000000000               0.000000000               0.000000000               0.000000000               0.000000000               0.000000000               0.000000000               0.000000000               0.000000000               0.000000000               0.000000000               0.000000000               0.000000000               0.000000000               0.000000000               0.000000000               0.000000000               0.000000000               0.000000000               0.000000000               0.000000000               0.000000000               0.000000000               0.000000000               0.000000000               0.000000000               0.000000000               0.000000000               0.000000000               0.000000000               0.000000000               0.000000000               0.000000000               0.000000000               0.000000000               0.000000000               0.000000000               0.000000000               0.000000000               0.000000000               0.000000000               0.000000000               0.000000000               0.000000000               0.000000000               0.000000000               0.000000000               0.000000000               0.000000000               0.000000000               0.000000000               0.000000000               0.000000000               0.000000000               0.000000000               0.000000000               0.000000000               0.000000000               0.000000000               0.000000000               0.000000000               0.000000000               0.000000000               0.000000000               0.000000000               0.000000000               0.000000000               0.000000000               0.000000000               0.000000000               0.000000000               0.000000000               0.000000000               0.000000000               0.000000000               0.000000000               0.000000000               0.000000000               0.000000000               0.000000000               0.000000000               0.000000000               0.000000000               0.000000000               0.000000000               0.000000000               0.000000000               0.000000000               0.000000000               0.000000000               0.000000000               0.000000000               0.000000000               0.000000000               0.000000000               0.000000000               0.000000000               0.000000000               0.000000000               0.000000000               0.000000000               0.000000000               0.000000000               0.000000000               0.000000000               0.000000000               0.000000000               0.000000000               0.000000000               0.000000000               0.000000000               0.000000000               0.000000000               0.000000000               0.000000000               0.000000000               0.000000000               0.000000000               0.000000000               0.000000000               0.000000000               0.000000000               0.000000000               0.000000000               0.000000000               0.000000000               0.000000000               0.000000000               0.000000000               0.000000000               0.000000000               0.000000000               0.000000000               0.000000000               0.000000000               0.000000000               0.000000000               0.000000000               0.000000000               0.000000000               0.000000000               0.000000000               0.000000000               0.000000000               0.000000000               0.000000000               0.000000000               0.000000000               0.000000000               0.000000000               0.000000000               0.000000000               0.000000000               0.000000000               0.000000000               0.000000000               0.000000000               0.000000000               0.000000000               0.000000000               0.000000000               0.000000000               0.000000000               0.000000000               0.000000000               0.000000000               0.000000000               0.000000000               0.000000000               0.000000000               0.000000000               0.000000000               0.000000000               0.000000000               0.000000000               0.000000000               0.000000000               0.000000000               0.000000000               0.000000000               0.000000000               0.000000000               0.000000000               0.000000000               0.000000000               0.000000000               0.000000000               0.000000000               0.000000000               0.000000000               0.000000000               0.000000000               0.000000000               0.000000000               0.000000000               0.000000000               0.000000000               0.000000000               0.000000000               0.000000000               0.000000000               0.000000000               0.000000000               0.000000000               0.000000000               0.000000000               0.000000000               0.000000000               0.000000000               0.000000000               0.000000000               0.000000000               0.000000000               0.000000000               0.000000000               0.000000000               0.000000000               0.000000000               0.000000000               0.000000000               0.000000000               0.000000000               0.000000000               0.000000000               0.000000000               0.000000000               0.000000000               0.000000000               0.000000000               0.000000000               0.000000000               0.002273684               0.023294604               0.001567790              -0.002059189               0.008451187               0.006391997               0.000000000               0.000000000               0.000000000               0.000000000               0.002028711               0.017955101               0.000696959              -0.001483618               0.006479513               0.004995895               0.000000000               0.000000000               0.000000000               0.000000000               0.002462838               0.013672076              -0.000160755              -0.000785444               0.004819128               0.004033684               0.000000000               0.000000000               0.000000000               0.000000000               0.002177501               0.011253452              -0.000511912              -0.000590117               0.003947819               0.003357702               0.000000000               0.000000000               0.000000000               0.000000000               0.001720989               0.009715235              -0.000648307              -0.000569032               0.003428057               0.002859024               0.000000000               0.000000000               0.000000000               0.000000000               0.001271873               0.008627562              -0.000689066              -0.000601491               0.003076322               0.002474831               0.000000000               0.000000000               0.000000000               0.000000000               0.000890199               0.007777370              -0.000683319              -0.000638345               0.002805212               0.002166867               0.000000000               0.000000000               0.000000000               0.000000000               0.000587541               0.007054579              -0.000655107              -0.000661493               0.002572000               0.001910507               0.000000000               0.000000000               0.000000000               0.000000000               0.000357404               0.006393559              -0.000617791              -0.000665167               0.002352887               0.001687720               0.000000000               0.000000000               0.000000000               0.000000000               0.000185728               0.005763287              -0.000578350              -0.000650761               0.002137997               0.001487236               0.000000000               0.000000000               0.000000000               0.000000000               0.000060254               0.005141059              -0.000541962              -0.000620036               0.001920348               0.001300312               0.000000000               0.000000000               0.000000000               0.000000000              -0.000024209               0.004522932              -0.000507681              -0.000574444               0.001699110               0.001124666               0.000000000               0.000000000               0.000000000               0.000000000              -0.000082676               0.003899102              -0.000466000              -0.000518390               0.001472484               0.000954094               0.000000000               0.000000000               0.000000000               0.000000000              -0.000117709               0.003250544              -0.000403470              -0.000450458               0.001233656               0.000783198               0.000000000               0.000000000               0.000000000               0.000000000              -0.000116026               0.002557633              -0.000311640              -0.000363213               0.000973607               0.000610394               0.000000000               0.000000000               0.000000000               0.000000000              -0.000070477               0.001805552              -0.000180140              -0.000252123               0.000685886               0.000433763               0.000000000               0.000000000               0.000000000               0.000000000              -0.000095060               0.001248557              -0.000112827              -0.000191717               0.000480087               0.000288370               0.000000000               0.000000000               0.000000000               0.000000000               0.002416571               0.021830833               0.002893875              -0.001822637               0.007884417               0.006061780               0.000000000               0.000000000               0.000000000               0.000000000               0.001813410               0.017042082               0.001278931              -0.001450228               0.006164046               0.004713818               0.000000000               0.000000000               0.000000000               0.000000000               0.001870246               0.013321411              -0.000295114              -0.000963832               0.004761703               0.003797871               0.000000000               0.000000000               0.000000000               0.000000000               0.001460409               0.011183530              -0.000914492              -0.000850286               0.004011235               0.003160949               0.000000000               0.000000000               0.000000000               0.000000000               0.000999965               0.009781862              -0.001142507              -0.000847744               0.003543169               0.002695425               0.000000000               0.000000000               0.000000000               0.000000000               0.000602583               0.008754469              -0.001200124              -0.000868338               0.003207573               0.002339235               0.000000000               0.000000000               0.000000000               0.000000000               0.000292109               0.007931455              -0.001180153              -0.000881889               0.002937755               0.002055866               0.000000000               0.000000000               0.000000000               0.000000000               0.000063477               0.007222061              -0.001122365              -0.000878952               0.002700313               0.001821361               0.000000000               0.000000000               0.000000000               0.000000000              -0.000094500               0.006576727              -0.001049335              -0.000857527               0.002478063               0.001620536               0.000000000               0.000000000               0.000000000               0.000000000              -0.000200091               0.005962400              -0.000971060              -0.000820332               0.002260891               0.001440559               0.000000000               0.000000000               0.000000000               0.000000000              -0.000261070               0.005366148              -0.000896825              -0.000768668               0.002044921               0.001276252               0.000000000               0.000000000               0.000000000               0.000000000              -0.000282082               0.004787473              -0.000830366              -0.000704213               0.001830546               0.001126333               0.000000000               0.000000000               0.000000000               0.000000000              -0.000277961               0.004218720              -0.000751060              -0.000631574               0.001616751               0.000985177               0.000000000               0.000000000               0.000000000               0.000000000              -0.000245851               0.003652296              -0.000635460              -0.000548730               0.001400330               0.000851600               0.000000000               0.000000000               0.000000000               0.000000000              -0.000182612               0.003087262              -0.000475751              -0.000454386               0.001180539               0.000726153               0.000000000               0.000000000               0.000000000               0.000000000              -0.000098474               0.002530069              -0.000267613              -0.000353186               0.000961076               0.000607891               0.000000000               0.000000000               0.000000000               0.000000000              -0.000090573               0.002151468              -0.000163333              -0.000302898               0.000818115               0.000515217               0.000000000               0.000000000               0.000000000               0.000000000               0.002525443               0.019615512               0.003800272              -0.001504896               0.007040070               0.005535174               0.000000000               0.000000000               0.000000000               0.000000000               0.001424918               0.015675385               0.001674974              -0.001425076               0.005700101               0.004275025               0.000000000               0.000000000               0.000000000               0.000000000               0.000962726               0.012798405              -0.000364279              -0.001238775               0.004679018               0.003440242               0.000000000               0.000000000               0.000000000               0.000000000               0.000415362               0.011054415              -0.001118298              -0.001226038               0.004093447               0.002867409               0.000000000               0.000000000               0.000000000               0.000000000              -0.000019189               0.009833282              -0.001372604              -0.001236353               0.003689846               0.002453492               0.000000000               0.000000000               0.000000000               0.000000000              -0.000320014               0.008887238              -0.001422311              -0.001230907               0.003372685               0.002141778               0.000000000               0.000000000               0.000000000               0.000000000              -0.000510509               0.008102908              -0.001380600              -0.001204302               0.003102376               0.001898074               0.000000000               0.000000000               0.000000000               0.000000000              -0.000617550               0.007414310              -0.001297778              -0.001158367               0.002857534               0.001699167               0.000000000               0.000000000               0.000000000               0.000000000              -0.000662871               0.006785002              -0.001196632              -0.001096699               0.002627211               0.001530512               0.000000000               0.000000000               0.000000000               0.000000000              -0.000665440               0.006189621              -0.001092279              -0.001023240               0.002404266               0.001381026               0.000000000               0.000000000               0.000000000               0.000000000              -0.000631432               0.005632833              -0.000997508              -0.000940889               0.002191222               0.001250333               0.000000000               0.000000000               0.000000000               0.000000000              -0.000572022               0.005109639              -0.000909321              -0.000853211               0.001987600               0.001134388               0.000000000               0.000000000               0.000000000               0.000000000              -0.000488747               0.004615711              -0.000805124              -0.000760242               0.001791969               0.001031727               0.000000000               0.000000000               0.000000000               0.000000000              -0.000380589               0.004154675              -0.000663280              -0.000662054               0.001605562               0.000943509               0.000000000               0.000000000               0.000000000               0.000000000              -0.000254831               0.003741129              -0.000482720              -0.000563202               0.001434764               0.000871563               0.000000000               0.000000000               0.000000000               0.000000000              -0.000126564               0.003393256              -0.000263635              -0.000471617               0.001288280               0.000816663               0.000000000               0.000000000               0.000000000               0.000000000              -0.000083235               0.003190620              -0.000153056              -0.000430040               0.001206876               0.000776836               0.000000000               0.000000000               0.000000000               0.000000000               0.002447872               0.016910176               0.004208308              -0.001195820               0.006035275               0.004839455               0.000000000               0.000000000               0.000000000               0.000000000               0.000839898               0.014039675               0.001871828              -0.001439995               0.005159843               0.003719848               0.000000000               0.000000000               0.000000000               0.000000000              -0.000153550               0.012163092              -0.000330019              -0.001577964               0.004580311               0.003002347               0.000000000               0.000000000               0.000000000               0.000000000              -0.000776073               0.010848124              -0.001081095              -0.001647039               0.004165018               0.002517979               0.000000000               0.000000000               0.000000000               0.000000000              -0.001120208               0.009819354              -0.001309110              -0.001647493               0.003822250               0.002174756               0.000000000               0.000000000               0.000000000               0.000000000              -0.001274646               0.008964121              -0.001335568              -0.001598504               0.003520845               0.001922341               0.000000000               0.000000000               0.000000000               0.000000000              -0.001307573               0.008217980              -0.001279616              -0.001517584               0.003245160               0.001727577               0.000000000               0.000000000               0.000000000               0.000000000              -0.001262672               0.007546956              -0.001185841              -0.001416868               0.002987916               0.001571048               0.000000000               0.000000000               0.000000000               0.000000000              -0.001167427               0.006926968              -0.001076151              -0.001303653               0.002743517               0.001439864               0.000000000               0.000000000               0.000000000               0.000000000              -0.001047561               0.006357568              -0.000969100              -0.001187529               0.002515011               0.001327482               0.000000000               0.000000000               0.000000000               0.000000000              -0.000916295               0.005842151              -0.000873029              -0.001073877               0.002305323               0.001231446               0.000000000               0.000000000               0.000000000               0.000000000              -0.000768331               0.005379080              -0.000781970              -0.000960507               0.002113178               0.001152671               0.000000000               0.000000000               0.000000000               0.000000000              -0.000606286               0.004966986              -0.000675252              -0.000848229               0.001938388               0.001090160               0.000000000               0.000000000               0.000000000               0.000000000              -0.000435125               0.004612219              -0.000536513              -0.000739698               0.001783957               0.001044259               0.000000000               0.000000000               0.000000000               0.000000000              -0.000269262               0.004329301              -0.000373902              -0.000642134               0.001657130               0.001014996               0.000000000               0.000000000               0.000000000               0.000000000              -0.000125559               0.004136960              -0.000195498              -0.000564203               0.001567041               0.001002837               0.000000000               0.000000000               0.000000000               0.000000000              -0.000066165               0.004055114              -0.000106158              -0.000531700               0.001528925               0.000997225               0.000000000               0.000000000               0.000000000               0.000000000               0.002063270               0.014002702               0.004130127              -0.000976612               0.004993057               0.004016445               0.000000000               0.000000000               0.000000000               0.000000000               0.000071566               0.012319594               0.001900927              -0.001513109               0.004610860               0.003097750               0.000000000               0.000000000               0.000000000               0.000000000              -0.001342558               0.011470209              -0.000167687              -0.001937231               0.004469108               0.002531878               0.000000000               0.000000000               0.000000000               0.000000000              -0.001930471               0.010557246              -0.000815033              -0.002043577               0.004200239               0.002156662               0.000000000               0.000000000               0.000000000               0.000000000              -0.002109426               0.009701545              -0.000992547              -0.002003723               0.003901724               0.001898001               0.000000000               0.000000000               0.000000000               0.000000000              -0.002075035               0.008925062              -0.001002348              -0.001893766               0.003606246               0.001712480               0.000000000               0.000000000               0.000000000               0.000000000              -0.001930855               0.008212189              -0.000949017              -0.001750590               0.003320899               0.001570309               0.000000000               0.000000000               0.000000000               0.000000000              -0.001726838               0.007555987              -0.000866248              -0.001592059               0.003049323               0.001457264               0.000000000               0.000000000               0.000000000               0.000000000              -0.001490311               0.006957217              -0.000773189              -0.001428515               0.002795221               0.001366706               0.000000000               0.000000000               0.000000000               0.000000000              -0.001251481               0.006423086              -0.000687469              -0.001272188               0.002565070               0.001292882               0.000000000               0.000000000               0.000000000               0.000000000              -0.001028103               0.005955289              -0.000612625              -0.001129947               0.002361725               0.001231778               0.000000000               0.000000000               0.000000000               0.000000000              -0.000807718               0.005551471              -0.000539668              -0.000996826               0.002182747               0.001185921               0.000000000               0.000000000               0.000000000               0.000000000              -0.000594599               0.005209147              -0.000451599              -0.000874116               0.002027737               0.001153621               0.000000000               0.000000000               0.000000000               0.000000000              -0.000398123               0.004933847              -0.000338239              -0.000766025               0.001899941               0.001133916               0.000000000               0.000000000               0.000000000               0.000000000              -0.000230055               0.004736388              -0.000217658              -0.000678317               0.001804886               0.001126569               0.000000000               0.000000000               0.000000000               0.000000000              -0.000100363               0.004626756              -0.000105606              -0.000615979               0.001747563               0.001131584               0.000000000               0.000000000               0.000000000               0.000000000              -0.000046887               0.004595201              -0.000053355              -0.000591981               0.001729045               0.001137064               0.000000000               0.000000000               0.000000000               0.000000000               0.001299174               0.011149078               0.003653921              -0.000906445               0.004018470               0.003112024               0.000000000               0.000000000               0.000000000               0.000000000              -0.000845070               0.010654832               0.001821744              -0.001648752               0.004101159               0.002452406               0.000000000               0.000000000               0.000000000               0.000000000              -0.002472332               0.010745189               0.000129286              -0.002270268               0.004338450               0.002068182               0.000000000               0.000000000               0.000000000               0.000000000              -0.002901387               0.010163793              -0.000367704              -0.002358489               0.004174060               0.001815572               0.000000000               0.000000000               0.000000000               0.000000000              -0.002857521               0.009449650              -0.000506886              -0.002252771               0.003900776               0.001648005               0.000000000               0.000000000               0.000000000               0.000000000              -0.002615324               0.008739617              -0.000525970              -0.002073193               0.003604241               0.001531048               0.000000000               0.000000000               0.000000000               0.000000000              -0.002293868               0.008063595              -0.000498774              -0.001868145               0.003310553               0.001442408               0.000000000               0.000000000               0.000000000               0.000000000              -0.001941114               0.007437113              -0.000451826              -0.001657553               0.003031530               0.001373978               0.000000000               0.000000000               0.000000000               0.000000000              -0.001587442               0.006871783              -0.000398908              -0.001454260               0.002775325               0.001321065               0.000000000               0.000000000               0.000000000               0.000000000              -0.001256785               0.006382329              -0.000354249              -0.001269082               0.002550449               0.001281367               0.000000000               0.000000000               0.000000000               0.000000000              -0.000961633               0.005965286              -0.000315757              -0.001106270               0.002357166               0.001250895               0.000000000               0.000000000               0.000000000               0.000000000              -0.000698711               0.005611716              -0.000273666              -0.000963479               0.002191713               0.001228234               0.000000000               0.000000000               0.000000000               0.000000000              -0.000473211               0.005317311              -0.000218053              -0.000842116               0.002053125               0.001211009               0.000000000               0.000000000               0.000000000               0.000000000              -0.000291028               0.005089788              -0.000145505              -0.000745357               0.001945031               0.001199674               0.000000000               0.000000000               0.000000000               0.000000000              -0.000152557               0.004937971              -0.000078308              -0.000674453               0.001870792               0.001196338               0.000000000               0.000000000               0.000000000               0.000000000              -0.000058419               0.004858606              -0.000032503              -0.000629231               0.001829263               0.001200032               0.000000000               0.000000000               0.000000000               0.000000000              -0.000025176               0.004833458              -0.000016685              -0.000613622               0.001815677               0.001202055               0.000000000               0.000000000               0.000000000               0.000000000               0.000201854               0.008524786               0.002899654              -0.000989903               0.003171534               0.002181631               0.000000000               0.000000000               0.000000000               0.000000000              -0.001854010               0.009137445               0.001691858              -0.001837431               0.003658261               0.001820830               0.000000000               0.000000000               0.000000000               0.000000000              -0.003435668               0.009988335               0.000546132              -0.002536911               0.004175049               0.001638138               0.000000000               0.000000000               0.000000000               0.000000000              -0.003598611               0.009663113               0.000181508              -0.002557362               0.004073459               0.001516097               0.000000000               0.000000000               0.000000000               0.000000000              -0.003308275               0.009076227               0.000043948              -0.002375126               0.003817087               0.001441962               0.000000000               0.000000000               0.000000000               0.000000000              -0.002869428               0.008435128              -0.000010776              -0.002130421               0.003521822               0.001391400               0.000000000               0.000000000               0.000000000               0.000000000              -0.002388499               0.007805438              -0.000032789              -0.001871362               0.003225574               0.001354212               0.000000000               0.000000000               0.000000000               0.000000000              -0.001914508               0.007217191              -0.000040664              -0.001620085               0.002945735               0.001325649               0.000000000               0.000000000               0.000000000               0.000000000              -0.001478042               0.006696434              -0.000042370              -0.001391316               0.002695894               0.001304578               0.000000000               0.000000000               0.000000000               0.000000000              -0.001093715               0.006255924              -0.000047100              -0.001192130               0.002482664               0.001290533               0.000000000               0.000000000               0.000000000               0.000000000              -0.000765114               0.005879720              -0.000050760              -0.001021880               0.002300514               0.001278634               0.000000000               0.000000000               0.000000000               0.000000000              -0.000497630               0.005558509              -0.000045586              -0.000881423               0.002146625               0.001265203               0.000000000               0.000000000               0.000000000               0.000000000              -0.000297275               0.005293603              -0.000029716              -0.000773177               0.002022242               0.001249066               0.000000000               0.000000000               0.000000000               0.000000000              -0.000156124               0.005099906              -0.000008543              -0.000696033               0.001931963               0.001235930               0.000000000               0.000000000               0.000000000               0.000000000              -0.000062697               0.004987260               0.000003596              -0.000646917               0.001878042               0.001231125               0.000000000               0.000000000               0.000000000               0.000000000              -0.000016187               0.004934166               0.000002173              -0.000622839               0.001852319               0.001229479               0.000000000               0.000000000               0.000000000               0.000000000              -0.000007621               0.004916407              -0.000001987              -0.000617407               0.001844588               0.001227181               0.000000000               0.000000000               0.000000000               0.000000000              -0.001084510               0.006316677               0.001989967              -0.001196274               0.002504295               0.001308021               0.000000000               0.000000000               0.000000000               0.000000000              -0.002837234               0.007781570               0.001554583              -0.002036654               0.003272715               0.001236061               0.000000000               0.000000000               0.000000000               0.000000000              -0.004190136               0.009224795               0.001045073              -0.002724394               0.003983032               0.001258638               0.000000000               0.000000000               0.000000000               0.000000000              -0.004073769               0.009169354               0.000759486              -0.002673826               0.003947696               0.001273870               0.000000000               0.000000000               0.000000000               0.000000000              -0.003578580               0.008733030               0.000592924              -0.002433590               0.003722178               0.001288587               0.000000000               0.000000000               0.000000000               0.000000000              -0.002983020               0.008184646               0.000487117              -0.002141708               0.003442091               0.001300383               0.000000000               0.000000000               0.000000000               0.000000000              -0.002378557               0.007618545               0.000406004              -0.001844273               0.003154247               0.001309975               0.000000000               0.000000000               0.000000000               0.000000000              -0.001814999               0.007081931               0.000335714              -0.001565862               0.002882574               0.001316712               0.000000000               0.000000000               0.000000000               0.000000000              -0.001321389               0.006610485               0.000277278              -0.001321828               0.002644082               0.001322254               0.000000000               0.000000000               0.000000000               0.000000000              -0.000903833               0.006204497               0.000226237              -0.001114497               0.002439644               0.001325147               0.000000000               0.000000000               0.000000000               0.000000000              -0.000565181               0.005842893               0.000181050              -0.000942302               0.002261712               0.001319410               0.000000000               0.000000000               0.000000000               0.000000000              -0.000306222               0.005526137               0.000144739              -0.000805598               0.002110560               0.001304962               0.000000000               0.000000000               0.000000000               0.000000000              -0.000126513               0.005269145               0.000110785              -0.000706084               0.001991725               0.001285641               0.000000000               0.000000000               0.000000000               0.000000000              -0.000021111               0.005095876               0.000071336              -0.000644900               0.001913575               0.001268675               0.000000000               0.000000000               0.000000000               0.000000000               0.000022564               0.005008197               0.000032100              -0.000617562               0.001875236               0.001257675               0.000000000               0.000000000               0.000000000               0.000000000               0.000022501               0.004974673               0.000005663              -0.000613395               0.001862673               0.001249278               0.000000000               0.000000000               0.000000000               0.000000000               0.000010656               0.004963862              -0.000004441              -0.000616485               0.001860099               0.001243614               0.000000000               0.000000000               0.000000000               0.000000000              -0.002573165               0.004273975               0.001038889              -0.001499180               0.001924370               0.000425190               0.000000000               0.000000000               0.000000000               0.000000000              -0.003660157               0.006203748               0.001405282              -0.002148023               0.002783903               0.000635880               0.000000000               0.000000000               0.000000000               0.000000000              -0.004641756               0.008075977               0.001566355              -0.002750149               0.003608682               0.000858533               0.000000000               0.000000000               0.000000000               0.000000000              -0.004373006               0.008425555               0.001369455              -0.002693065               0.003706178               0.001013113               0.000000000               0.000000000               0.000000000               0.000000000              -0.003794832               0.008269111               0.001170877              -0.002456695               0.003575241               0.001118546               0.000000000               0.000000000               0.000000000               0.000000000              -0.003148460               0.007925181               0.001007640              -0.002171315               0.003365472               0.001194157               0.000000000               0.000000000               0.000000000               0.000000000              -0.002508994               0.007515692               0.000866792              -0.001880329               0.003131982               0.001251652               0.000000000               0.000000000               0.000000000               0.000000000              -0.001913060               0.007094991               0.000738376              -0.001604268               0.002899729               0.001295462               0.000000000               0.000000000               0.000000000               0.000000000              -0.001385765               0.006696284               0.000628623              -0.001356694               0.002684304               0.001327610               0.000000000               0.000000000               0.000000000               0.000000000              -0.000938854               0.006327179               0.000531655              -0.001142965               0.002490027               0.001347062               0.000000000               0.000000000               0.000000000               0.000000000              -0.000575544               0.005981686               0.000442063              -0.000963538               0.002315055               0.001351517               0.000000000               0.000000000               0.000000000               0.000000000              -0.000296390               0.005661854               0.000358779              -0.000818876               0.002160225               0.001341348               0.000000000               0.000000000               0.000000000               0.000000000              -0.000097989               0.005388337               0.000268736              -0.000710286               0.002032856               0.001322570               0.000000000               0.000000000               0.000000000               0.000000000               0.000023255               0.005183850               0.000170140              -0.000639259               0.001941019               0.001301760               0.000000000               0.000000000               0.000000000               0.000000000               0.000075470               0.005062902               0.000083847              -0.000604560               0.001889137               0.001284577               0.000000000               0.000000000               0.000000000               0.000000000               0.000074333               0.005008176               0.000028144              -0.000598146               0.001868757               0.001270612               0.000000000               0.000000000               0.000000000               0.000000000               0.000052998               0.004983891               0.000005266              -0.000603111               0.001862317               0.001259206               0.000000000               0.000000000               0.000000000               0.000000000              -0.004456415               0.002431196               0.000123665              -0.001975051               0.001468739              -0.000506312               0.000000000               0.000000000               0.000000000               0.000000000              -0.004583532               0.004606823               0.001191294              -0.002294672               0.002300482               0.000005810               0.000000000               0.000000000               0.000000000               0.000000000              -0.004999683               0.006702041               0.001985305              -0.002712630               0.003138201               0.000425571               0.000000000               0.000000000               0.000000000               0.000000000              -0.004596180               0.007431736               0.001949351              -0.002652528               0.003361396               0.000708868               0.000000000               0.000000000               0.000000000               0.000000000              -0.003977493               0.007598391               0.001751922              -0.002441353               0.003346556               0.000905203               0.000000000               0.000000000               0.000000000               0.000000000              -0.003317626               0.007514156               0.001546257              -0.002183374               0.003232485               0.001049110               0.000000000               0.000000000               0.000000000               0.000000000              -0.002666342               0.007306060               0.001356847              -0.001913131               0.003073039               0.001159908               0.000000000               0.000000000               0.000000000               0.000000000              -0.002051885               0.007029020               0.001183850              -0.001648081               0.002892343               0.001244263               0.000000000               0.000000000               0.000000000               0.000000000              -0.001494577               0.006727703               0.001032250              -0.001401426               0.002709687               0.001308261               0.000000000               0.000000000               0.000000000               0.000000000              -0.001006905               0.006423415               0.000896344              -0.001180513               0.002534621               0.001354108               0.000000000               0.000000000               0.000000000               0.000000000              -0.000597743               0.006122549               0.000766920              -0.000989470               0.002370652               0.001381183               0.000000000               0.000000000               0.000000000               0.000000000              -0.000274692               0.005826877               0.000639994              -0.000831367               0.002219395               0.001388028               0.000000000               0.000000000               0.000000000               0.000000000              -0.000028322               0.005548721               0.000506305              -0.000704209               0.002084291               0.001380082               0.000000000               0.000000000               0.000000000               0.000000000               0.000144066               0.005310733               0.000357919              -0.000609815               0.001973498               0.001363683               0.000000000               0.000000000               0.000000000               0.000000000               0.000234352               0.005142731               0.000210356              -0.000554958               0.001899212               0.001344254               0.000000000               0.000000000               0.000000000               0.000000000               0.000240222               0.005045323               0.000088899              -0.000540581               0.001861951               0.001321370               0.000000000               0.000000000               0.000000000               0.000000000               0.000204478               0.005000340               0.000031375              -0.000548362               0.001849551               0.001301189               0.000000000               0.000000000               0.000000000               0.000000000              -0.006597417               0.000938891              -0.000666288              -0.002591390               0.001176752              -0.001414637               0.000000000               0.000000000               0.000000000               0.000000000              -0.005653000               0.003097751               0.000902512              -0.002507089               0.001868267              -0.000638822               0.000000000               0.000000000               0.000000000               0.000000000              -0.005289575               0.005127554               0.002191007              -0.002624529               0.002584009              -0.000040520               0.000000000               0.000000000               0.000000000               0.000000000              -0.004669361               0.006119594               0.002355732              -0.002515954               0.002878495               0.000362541               0.000000000               0.000000000               0.000000000               0.000000000              -0.003994662               0.006589668               0.002211802              -0.002321702               0.002970434               0.000648732               0.000000000               0.000000000               0.000000000               0.000000000              -0.003325008               0.006779175               0.002002495              -0.002094270               0.002957792               0.000863522               0.000000000               0.000000000               0.000000000               0.000000000              -0.002678145               0.006792294               0.001790208              -0.001853337               0.002881854               0.001028517               0.000000000               0.000000000               0.000000000               0.000000000              -0.002063137               0.006694231               0.001588968              -0.001610452               0.002768205               0.001157753               0.000000000               0.000000000               0.000000000               0.000000000              -0.001495402               0.006528506               0.001410953              -0.001376836               0.002635092               0.001258256               0.000000000               0.000000000               0.000000000               0.000000000              -0.000981158               0.006328623               0.001251293              -0.001159010               0.002495856               0.001336847               0.000000000               0.000000000               0.000000000               0.000000000              -0.000527579               0.006111026               0.001095095              -0.000961718               0.002357561               0.001395843               0.000000000               0.000000000               0.000000000               0.000000000              -0.000145640               0.005875176               0.000943527              -0.000789010               0.002221376               0.001432365               0.000000000               0.000000000               0.000000000               0.000000000               0.000163179               0.005630301               0.000784529              -0.000642594               0.002090946               0.001448352               0.000000000               0.000000000               0.000000000               0.000000000               0.000398405               0.005399509               0.000594940              -0.000525536               0.001974997               0.001449461               0.000000000               0.000000000               0.000000000               0.000000000               0.000547773               0.005209644               0.000384140              -0.000445790               0.001885127               0.001439337               0.000000000               0.000000000               0.000000000               0.000000000               0.000596084               0.005080376               0.000182794              -0.000411514               0.001830613               0.001419099               0.000000000               0.000000000               0.000000000               0.000000000               0.000572352               0.005019544               0.000081712              -0.000412810               0.001810768               0.001397958               0.000000000               0.000000000               0.000000000               0.000000000              -0.008843734              -0.000124985              -0.001217349              -0.003300775               0.001058589              -0.002242186               0.000000000               0.000000000               0.000000000               0.000000000              -0.006802964               0.001763218               0.000588278              -0.002771510               0.001511566              -0.001259945               0.000000000               0.000000000               0.000000000               0.000000000              -0.005544598               0.003497072               0.002153544              -0.002516354               0.002004461              -0.000511893               0.000000000               0.000000000               0.000000000               0.000000000              -0.004620300               0.004614162               0.002492028              -0.002309378               0.002307830              -0.000001548               0.000000000               0.000000000               0.000000000               0.000000000              -0.003851040               0.005318689               0.002435872              -0.002108972               0.002475868               0.000366897               0.000000000               0.000000000               0.000000000               0.000000000              -0.003163095               0.005753075               0.002260678              -0.001905291               0.002552769               0.000647478               0.000000000               0.000000000               0.000000000               0.000000000              -0.002528382               0.005991284               0.002055722              -0.001697050               0.002562757               0.000865707               0.000000000               0.000000000               0.000000000               0.000000000              -0.001930299               0.006090153               0.001850350              -0.001485128               0.002525073               0.001039945               0.000000000               0.000000000               0.000000000               0.000000000              -0.001366856               0.006091911               0.001664864              -0.001274057               0.002455302               0.001181245               0.000000000               0.000000000               0.000000000               0.000000000              -0.000836728               0.006029305               0.001500352              -0.001067434               0.002365559               0.001298125               0.000000000               0.000000000               0.000000000               0.000000000              -0.000342934               0.005920555               0.001341912              -0.000868668               0.002263055               0.001394386               0.000000000               0.000000000               0.000000000               0.000000000               0.000102201               0.005772176               0.001183954              -0.000683196               0.002151771               0.001468576               0.000000000               0.000000000               0.000000000               0.000000000               0.000485273               0.005596842               0.001012820              -0.000517627               0.002038137               0.001520510               0.000000000               0.000000000               0.000000000               0.000000000               0.000806410               0.005409976               0.000806870              -0.000373843               0.001927921               0.001554079               0.000000000               0.000000000               0.000000000               0.000000000               0.001062180               0.005237129               0.000560705              -0.000256323               0.001831133               0.001574810               0.000000000               0.000000000               0.000000000               0.000000000               0.001223574               0.005103824               0.000288887              -0.000179137               0.001760970               0.001581833               0.000000000               0.000000000               0.000000000               0.000000000               0.001271242               0.005043894               0.000148511              -0.000153771               0.001732538               0.001578767               0.000000000               0.000000000               0.000000000               0.000000000              -0.010993030              -0.000776157              -0.001422728              -0.004025364               0.001083061              -0.002942303               0.000000000               0.000000000               0.000000000               0.000000000              -0.007933557               0.000690836               0.000310129              -0.003061435               0.001250748              -0.001810687               0.000000000               0.000000000               0.000000000               0.000000000              -0.005773822               0.001978617               0.001869799              -0.002412507               0.001463698              -0.000948810               0.000000000               0.000000000               0.000000000               0.000000000              -0.004493316               0.003086348               0.002298347              -0.002070783               0.001719031              -0.000351752               0.000000000               0.000000000               0.000000000               0.000000000              -0.003589264               0.003934850               0.002323630              -0.001837826               0.001924211               0.000086385               0.000000000               0.000000000               0.000000000               0.000000000              -0.002867110               0.004559957               0.002203246              -0.001645158               0.002068355               0.000423198               0.000000000               0.000000000               0.000000000               0.000000000              -0.002240462               0.004998662               0.002033094              -0.001465003               0.002154538               0.000689534               0.000000000               0.000000000               0.000000000               0.000000000              -0.001661706               0.005285615               0.001850346              -0.001283839               0.002189800               0.000905961               0.000000000               0.000000000               0.000000000               0.000000000              -0.001108160               0.005458856               0.001683018              -0.001097915               0.002185572               0.001087657               0.000000000               0.000000000               0.000000000               0.000000000              -0.000571327               0.005545641               0.001536641              -0.000907451               0.002151012               0.001243561               0.000000000               0.000000000               0.000000000               0.000000000              -0.000050880               0.005558564               0.001395402              -0.000713900               0.002090802               0.001376903               0.000000000               0.000000000               0.000000000               0.000000000               0.000444260               0.005516362               0.001249384              -0.000522947               0.002013085               0.001490137               0.000000000               0.000000000               0.000000000               0.000000000               0.000909834               0.005440876               0.001089348              -0.000338922               0.001926581               0.001587659               0.000000000               0.000000000               0.000000000               0.000000000               0.001344120               0.005338522               0.000898352              -0.000163270               0.001833913               0.001670642               0.000000000               0.000000000               0.000000000               0.000000000               0.001749212               0.005225659               0.000657467               0.000002746               0.001740954               0.001743700               0.000000000               0.000000000               0.000000000               0.000000000               0.002103463               0.005113739               0.000355812               0.000149580               0.001654703               0.001804282               0.000000000               0.000000000               0.000000000               0.000000000               0.002305760               0.005073613               0.000198757               0.000230456               0.001614369               0.001844825               0.000000000               0.000000000               0.000000000               0.000000000              -0.012795923              -0.001106431              -0.001237825              -0.004660164               0.001184570              -0.003475595               0.000000000               0.000000000               0.000000000               0.000000000              -0.008907575              -0.000081014               0.000118314              -0.003330211               0.001083058              -0.002247153               0.000000000               0.000000000               0.000000000               0.000000000              -0.005963556               0.000736137               0.001371712              -0.002328348               0.001021488              -0.001306860               0.000000000               0.000000000               0.000000000               0.000000000              -0.004336230               0.001752688               0.001766189              -0.001845170               0.001199277              -0.000645893               0.000000000               0.000000000               0.000000000               0.000000000              -0.003287601               0.002666362               0.001831311              -0.001566143               0.001410824              -0.000155318               0.000000000               0.000000000               0.000000000               0.000000000              -0.002517334               0.003417583               0.001764880              -0.001371195               0.001596247               0.000225052               0.000000000               0.000000000               0.000000000               0.000000000              -0.001888345               0.004003060               0.001647178              -0.001208509               0.001737176               0.000528667               0.000000000               0.000000000               0.000000000               0.000000000              -0.001325990               0.004438354               0.001513400              -0.001052039               0.001830116               0.000778077               0.000000000               0.000000000               0.000000000               0.000000000              -0.000784457               0.004759994               0.001387657              -0.000889169               0.001883038               0.000993869               0.000000000               0.000000000               0.000000000               0.000000000              -0.000251362               0.004987314               0.001276264              -0.000717674               0.001901646               0.001183972               0.000000000               0.000000000               0.000000000               0.000000000               0.000275143               0.005128625               0.001167127              -0.000537899               0.001888824               0.001350925               0.000000000               0.000000000               0.000000000               0.000000000               0.000804898               0.005204500               0.001054552              -0.000348726               0.001851058               0.001502332               0.000000000               0.000000000               0.000000000               0.000000000               0.001344068               0.005230479               0.000932150              -0.000149785               0.001793404               0.001643619               0.000000000               0.000000000               0.000000000               0.000000000               0.001896986               0.005219368               0.000786204               0.000058948               0.001720123               0.001779070               0.000000000               0.000000000               0.000000000               0.000000000               0.002469255               0.005181036               0.000596653               0.000278338               0.001634215               0.001912553               0.000000000               0.000000000               0.000000000               0.000000000               0.003058198               0.005105890               0.000335161               0.000508583               0.001532419               0.002041001               0.000000000               0.000000000               0.000000000               0.000000000               0.003471937               0.005100436               0.000198887               0.000664415               0.001478657               0.002143072               0.000000000               0.000000000               0.000000000               0.000000000              -0.013994782              -0.001242905              -0.000715807              -0.005092677               0.001283248              -0.003809428               0.000000000               0.000000000               0.000000000               0.000000000              -0.009569003              -0.000544438               0.000025416              -0.003520319               0.000991954              -0.002528365               0.000000000               0.000000000               0.000000000               0.000000000              -0.006093105              -0.000078778               0.000721715              -0.002275065               0.000732091              -0.001542975               0.000000000               0.000000000               0.000000000               0.000000000              -0.004210917               0.000837020               0.000958050              -0.001683719               0.000840240              -0.000843479               0.000000000               0.000000000               0.000000000               0.000000000              -0.003048557               0.001768872               0.001008921              -0.001364316               0.001044389              -0.000319927               0.000000000               0.000000000               0.000000000               0.000000000              -0.002235693               0.002588940               0.000982460              -0.001162000               0.001250304               0.000088304               0.000000000               0.000000000               0.000000000               0.000000000              -0.001597044               0.003262673               0.000923202              -0.001006724               0.001423121               0.000416397               0.000000000               0.000000000               0.000000000               0.000000000              -0.001041821               0.003793436               0.000854098              -0.000864861               0.001552753               0.000687892               0.000000000               0.000000000               0.000000000               0.000000000              -0.000516771               0.004210033               0.000790467              -0.000720042               0.001643344               0.000923302               0.000000000               0.000000000               0.000000000               0.000000000               0.000001365               0.004533770               0.000729448              -0.000566208               0.001699977               0.001133769               0.000000000               0.000000000               0.000000000               0.000000000               0.000527873               0.004776269               0.000666441              -0.000399081               0.001725101               0.001326020               0.000000000               0.000000000               0.000000000               0.000000000               0.001081476               0.004949777               0.000604444              -0.000213168               0.001720965               0.001507797               0.000000000               0.000000000               0.000000000               0.000000000               0.001672889               0.005059468               0.000539313              -0.000005101               0.001688173               0.001683072               0.000000000               0.000000000               0.000000000               0.000000000               0.002314797               0.005118232               0.000461389               0.000228268               0.001629971               0.001858239               0.000000000               0.000000000               0.000000000               0.000000000               0.003019992               0.005130586               0.000355445               0.000491169               0.001546455               0.002037624               0.000000000               0.000000000               0.000000000               0.000000000               0.003805499               0.005084299               0.000202173               0.000791517               0.001430911               0.002222427               0.000000000               0.000000000               0.000000000               0.000000000               0.004403894               0.005110765               0.000123877               0.001012605               0.001366036               0.002378641               0.000000000               0.000000000               0.000000000               0.000000000               0.000000000               0.000000000               0.000000000               0.000000000               0.000000000               0.000000000               0.000000000               0.000000000               0.000000000               0.000000000               0.000000000               0.000000000               0.000000000               0.000000000               0.000000000               0.000000000               0.000000000               0.000000000               0.000000000               0.000000000               0.000000000               0.000000000               0.000000000               0.000000000               0.000000000               0.000000000               0.000000000               0.000000000               0.000000000               0.000000000               0.000000000               0.000000000               0.000000000               0.000000000               0.000000000               0.000000000               0.000000000               0.000000000               0.000000000               0.000000000               0.000000000               0.000000000               0.000000000               0.000000000               0.000000000               0.000000000               0.000000000               0.000000000               0.000000000               0.000000000               0.000000000               0.000000000               0.000000000               0.000000000               0.000000000               0.000000000               0.000000000               0.000000000               0.000000000               0.000000000               0.000000000               0.000000000               0.000000000               0.000000000               0.000000000               0.000000000               0.000000000               0.000000000               0.000000000               0.000000000               0.000000000               0.000000000               0.000000000               0.000000000               0.000000000               0.000000000               0.000000000               0.000000000               0.000000000               0.000000000               0.000000000               0.000000000               0.000000000               0.000000000               0.000000000               0.000000000               0.000000000               0.000000000               0.000000000               0.000000000               0.000000000               0.000000000               0.000000000               0.000000000               0.000000000               0.000000000               0.000000000               0.000000000               0.000000000               0.000000000               0.000000000               0.000000000               0.000000000               0.000000000               0.000000000               0.000000000               0.000000000               0.000000000               0.000000000               0.000000000               0.000000000               0.000000000               0.000000000               0.000000000               0.000000000               0.000000000               0.000000000               0.000000000               0.000000000               0.000000000               0.000000000               0.000000000               0.000000000               0.000000000               0.000000000               0.000000000               0.000000000               0.000000000               0.000000000               0.000000000               0.000000000               0.000000000               0.000000000               0.000000000               0.000000000               0.000000000               0.000000000               0.000000000               0.000000000               0.000000000               0.000000000               0.000000000               0.000000000               0.000000000               0.000000000               0.000000000               0.000000000               0.000000000               0.000000000               0.000000000               0.000000000               0.000000000               0.000000000               0.000000000               0.000000000               0.000000000               0.000000000               0.000000000               0.000000000               0.000000000               0.000000000               0.000000000               0.000000000               0.000000000               0.000000000               0.000000000               0.000000000               0.000000000               0.000000000               0.000000000 </DataArray>
</PointData>
</Piece>
</UnstructuredGrid> </VTKFile>
