<?xml version="1.0"?>
<VTKFile type="UnstructuredGrid" version="0.1">
<UnstructuredGrid>
<Piece NumberOfPoints="      1156" NumberOfCells="      1024">
<Points>
<DataArray type="Float64"                                    Name="coordinates"                                                      NumberOfComponents=" 3" format="ascii">
              0.133000000               0.000000000               0.000000000               0.155937500               0.000000000               0.000000000               0.178875000               0.000000000               0.000000000               0.201812500               0.000000000               0.000000000               0.224750000               0.000000000               0.000000000               0.247687500               0.000000000               0.000000000               0.270625000               0.000000000               0.000000000               0.293562500               0.000000000               0.000000000               0.316500000               0.000000000               0.000000000               0.339437500               0.000000000               0.000000000               0.362375000               0.000000000               0.000000000               0.385312500               0.000000000               0.000000000               0.408250000               0.000000000               0.000000000               0.431187500               0.000000000               0.000000000               0.454125000               0.000000000               0.000000000               0.477062500               0.000000000               0.000000000               0.500000000               0.000000000               0.000000000               0.132359569               0.013036280               0.000000000               0.155337096               0.016127762               0.000000000               0.178314623               0.019219245               0.000000000               0.201292150               0.022310727               0.000000000               0.224269676               0.025402210               0.000000000               0.247247203               0.028493692               0.000000000               0.270224730               0.031585175               0.000000000               0.293202257               0.034676657               0.000000000               0.316179784               0.037768140               0.000000000               0.339157311               0.040859622               0.000000000               0.362134838               0.043951105               0.000000000               0.385112365               0.047042587               0.000000000               0.408089892               0.050134070               0.000000000               0.431067419               0.053225552               0.000000000               0.454044946               0.056317035               0.000000000               0.477022473               0.059408517               0.000000000               0.500000000               0.062500000               0.000000000               0.130444442               0.025947013               0.000000000               0.153541665               0.032137825               0.000000000               0.176638887               0.038328636               0.000000000               0.199736109               0.044519448               0.000000000               0.222833332               0.050710260               0.000000000               0.245930554               0.056901071               0.000000000               0.269027776               0.063091883               0.000000000               0.292124999               0.069282695               0.000000000               0.315222221               0.075473506               0.000000000               0.338319444               0.081664318               0.000000000               0.361416666               0.087855130               0.000000000               0.384513888               0.094045942               0.000000000               0.407611111               0.100236753               0.000000000               0.430708333               0.106427565               0.000000000               0.453805555               0.112618377               0.000000000               0.476902778               0.118809188               0.000000000               0.500000000               0.125000000               0.000000000               0.127273065               0.038607862               0.000000000               0.150568498               0.047913621               0.000000000               0.173863932               0.057219379               0.000000000               0.197159365               0.066525138               0.000000000               0.220454798               0.075830897               0.000000000               0.243750232               0.085136655               0.000000000               0.267045665               0.094442414               0.000000000               0.290341099               0.103748172               0.000000000               0.313636532               0.113053931               0.000000000               0.336931966               0.122359690               0.000000000               0.360227399               0.131665448               0.000000000               0.383522833               0.140971207               0.000000000               0.406818266               0.150276966               0.000000000               0.430113700               0.159582724               0.000000000               0.453409133               0.168888483               0.000000000               0.476704567               0.178194241               0.000000000               0.500000000               0.187500000               0.000000000               0.122875978               0.050896897               0.000000000               0.146446229               0.063340840               0.000000000               0.170016481               0.075784784               0.000000000               0.193586732               0.088228728               0.000000000               0.217156983               0.100672672               0.000000000               0.240727235               0.113116616               0.000000000               0.264297486               0.125560560               0.000000000               0.287867738               0.138004504               0.000000000               0.311437989               0.150448448               0.000000000               0.335008240               0.162892392               0.000000000               0.358578492               0.175336336               0.000000000               0.382148743               0.187780280               0.000000000               0.405718994               0.200224224               0.000000000               0.429289246               0.212668168               0.000000000               0.452859497               0.225112112               0.000000000               0.476429749               0.237556056               0.000000000               0.500000000               0.250000000               0.000000000               0.117295528               0.062695766               0.000000000               0.141214558               0.078308531               0.000000000               0.165133587               0.093921295               0.000000000               0.189052617               0.109534060               0.000000000               0.212971646               0.125146824               0.000000000               0.236890676               0.140759589               0.000000000               0.260809705               0.156372354               0.000000000               0.284728735               0.171985118               0.000000000               0.308647764               0.187597883               0.000000000               0.332566794               0.203210648               0.000000000               0.356485823               0.218823412               0.000000000               0.380404853               0.234436177               0.000000000               0.404323882               0.250048941               0.000000000               0.428242912               0.265661706               0.000000000               0.452161941               0.281274471               0.000000000               0.476080971               0.296887235               0.000000000               0.500000000               0.312500000               0.000000000               0.110585458               0.073890841               0.000000000               0.134923867               0.092710163               0.000000000               0.159262276               0.111529486               0.000000000               0.183600685               0.130348808               0.000000000               0.207939094               0.149168131               0.000000000               0.232277503               0.167987453               0.000000000               0.256615912               0.186806776               0.000000000               0.280954320               0.205626098               0.000000000               0.305292729               0.224445420               0.000000000               0.329631138               0.243264743               0.000000000               0.353969547               0.262084065               0.000000000               0.378307956               0.280903388               0.000000000               0.402646365               0.299722710               0.000000000               0.426984773               0.318542033               0.000000000               0.451323182               0.337361355               0.000000000               0.475661591               0.356180678               0.000000000               0.500000000               0.375000000               0.000000000               0.102810390               0.084374307               0.000000000               0.127634741               0.106444663               0.000000000               0.152459092               0.128515018               0.000000000               0.177283442               0.150585374               0.000000000               0.202107793               0.172655730               0.000000000               0.226932143               0.194726086               0.000000000               0.251756494               0.216796442               0.000000000               0.276580845               0.238866798               0.000000000               0.301405195               0.260937153               0.000000000               0.326229546               0.283007509               0.000000000               0.351053896               0.305077865               0.000000000               0.375878247               0.327148221               0.000000000               0.400702598               0.349218577               0.000000000               0.425526948               0.371288933               0.000000000               0.450351299               0.393359288               0.000000000               0.475175649               0.415429644               0.000000000               0.500000000               0.437500000               0.000000000               0.094045202               0.094045202               0.000000000               0.119417377               0.119417377               0.000000000               0.144789552               0.144789552               0.000000000               0.170161727               0.170161727               0.000000000               0.195533901               0.195533901               0.000000000               0.220906076               0.220906076               0.000000000               0.246278251               0.246278251               0.000000000               0.271650426               0.271650426               0.000000000               0.297022601               0.297022601               0.000000000               0.322394776               0.322394776               0.000000000               0.347766951               0.347766951               0.000000000               0.373139126               0.373139126               0.000000000               0.398511300               0.398511300               0.000000000               0.423883475               0.423883475               0.000000000               0.449255650               0.449255650               0.000000000               0.474627825               0.474627825               0.000000000               0.500000000               0.500000000               0.000000000               0.084374307               0.102810390               0.000000000               0.106444663               0.127634741               0.000000000               0.128515018               0.152459092               0.000000000               0.150585374               0.177283442               0.000000000               0.172655730               0.202107793               0.000000000               0.194726086               0.226932143               0.000000000               0.216796442               0.251756494               0.000000000               0.238866798               0.276580845               0.000000000               0.260937153               0.301405195               0.000000000               0.283007509               0.326229546               0.000000000               0.305077865               0.351053896               0.000000000               0.327148221               0.375878247               0.000000000               0.349218577               0.400702598               0.000000000               0.371288933               0.425526948               0.000000000               0.393359288               0.450351299               0.000000000               0.415429644               0.475175649               0.000000000               0.437500000               0.500000000               0.000000000               0.073890841               0.110585458               0.000000000               0.092710163               0.134923867               0.000000000               0.111529486               0.159262276               0.000000000               0.130348808               0.183600685               0.000000000               0.149168131               0.207939094               0.000000000               0.167987453               0.232277503               0.000000000               0.186806776               0.256615912               0.000000000               0.205626098               0.280954320               0.000000000               0.224445420               0.305292729               0.000000000               0.243264743               0.329631138               0.000000000               0.262084065               0.353969547               0.000000000               0.280903388               0.378307956               0.000000000               0.299722710               0.402646365               0.000000000               0.318542033               0.426984773               0.000000000               0.337361355               0.451323182               0.000000000               0.356180678               0.475661591               0.000000000               0.375000000               0.500000000               0.000000000               0.062695766               0.117295528               0.000000000               0.078308531               0.141214558               0.000000000               0.093921295               0.165133587               0.000000000               0.109534060               0.189052617               0.000000000               0.125146824               0.212971646               0.000000000               0.140759589               0.236890676               0.000000000               0.156372354               0.260809705               0.000000000               0.171985118               0.284728735               0.000000000               0.187597883               0.308647764               0.000000000               0.203210648               0.332566794               0.000000000               0.218823412               0.356485823               0.000000000               0.234436177               0.380404853               0.000000000               0.250048941               0.404323882               0.000000000               0.265661706               0.428242912               0.000000000               0.281274471               0.452161941               0.000000000               0.296887235               0.476080971               0.000000000               0.312500000               0.500000000               0.000000000               0.050896897               0.122875978               0.000000000               0.063340840               0.146446229               0.000000000               0.075784784               0.170016481               0.000000000               0.088228728               0.193586732               0.000000000               0.100672672               0.217156983               0.000000000               0.113116616               0.240727235               0.000000000               0.125560560               0.264297486               0.000000000               0.138004504               0.287867738               0.000000000               0.150448448               0.311437989               0.000000000               0.162892392               0.335008240               0.000000000               0.175336336               0.358578492               0.000000000               0.187780280               0.382148743               0.000000000               0.200224224               0.405718994               0.000000000               0.212668168               0.429289246               0.000000000               0.225112112               0.452859497               0.000000000               0.237556056               0.476429749               0.000000000               0.250000000               0.500000000               0.000000000               0.038607862               0.127273065               0.000000000               0.047913621               0.150568498               0.000000000               0.057219379               0.173863932               0.000000000               0.066525138               0.197159365               0.000000000               0.075830897               0.220454798               0.000000000               0.085136655               0.243750232               0.000000000               0.094442414               0.267045665               0.000000000               0.103748172               0.290341099               0.000000000               0.113053931               0.313636532               0.000000000               0.122359690               0.336931966               0.000000000               0.131665448               0.360227399               0.000000000               0.140971207               0.383522833               0.000000000               0.150276966               0.406818266               0.000000000               0.159582724               0.430113700               0.000000000               0.168888483               0.453409133               0.000000000               0.178194241               0.476704567               0.000000000               0.187500000               0.500000000               0.000000000               0.025947013               0.130444442               0.000000000               0.032137825               0.153541665               0.000000000               0.038328636               0.176638887               0.000000000               0.044519448               0.199736109               0.000000000               0.050710260               0.222833332               0.000000000               0.056901071               0.245930554               0.000000000               0.063091883               0.269027776               0.000000000               0.069282695               0.292124999               0.000000000               0.075473506               0.315222221               0.000000000               0.081664318               0.338319444               0.000000000               0.087855130               0.361416666               0.000000000               0.094045942               0.384513888               0.000000000               0.100236753               0.407611111               0.000000000               0.106427565               0.430708333               0.000000000               0.112618377               0.453805555               0.000000000               0.118809188               0.476902778               0.000000000               0.125000000               0.500000000               0.000000000               0.013036280               0.132359569               0.000000000               0.016127762               0.155337096               0.000000000               0.019219245               0.178314623               0.000000000               0.022310727               0.201292150               0.000000000               0.025402210               0.224269676               0.000000000               0.028493692               0.247247203               0.000000000               0.031585175               0.270224730               0.000000000               0.034676657               0.293202257               0.000000000               0.037768140               0.316179784               0.000000000               0.040859622               0.339157311               0.000000000               0.043951105               0.362134838               0.000000000               0.047042587               0.385112365               0.000000000               0.050134070               0.408089892               0.000000000               0.053225552               0.431067419               0.000000000               0.056317035               0.454044946               0.000000000               0.059408517               0.477022473               0.000000000               0.062500000               0.500000000               0.000000000               0.000000000               0.133000000               0.000000000               0.000000000               0.155937500               0.000000000               0.000000000               0.178875000               0.000000000               0.000000000               0.201812500               0.000000000               0.000000000               0.224750000               0.000000000               0.000000000               0.247687500               0.000000000               0.000000000               0.270625000               0.000000000               0.000000000               0.293562500               0.000000000               0.000000000               0.316500000               0.000000000               0.000000000               0.339437500               0.000000000               0.000000000               0.362375000               0.000000000               0.000000000               0.385312500               0.000000000               0.000000000               0.408250000               0.000000000               0.000000000               0.431187500               0.000000000               0.000000000               0.454125000               0.000000000               0.000000000               0.477062500               0.000000000               0.000000000               0.500000000               0.000000000               0.133000000               0.000000000               0.000000000               0.155937500               0.000000000               0.000000000               0.178875000               0.000000000               0.000000000               0.201812500               0.000000000               0.000000000               0.224750000               0.000000000               0.000000000               0.247687500               0.000000000               0.000000000               0.270625000               0.000000000               0.000000000               0.293562500               0.000000000               0.000000000               0.316500000               0.000000000               0.000000000               0.339437500               0.000000000               0.000000000               0.362375000               0.000000000               0.000000000               0.385312500               0.000000000               0.000000000               0.408250000               0.000000000               0.000000000               0.431187500               0.000000000               0.000000000               0.454125000               0.000000000               0.000000000               0.477062500               0.000000000               0.000000000               0.500000000               0.000000000               0.000000000               0.132359569              -0.013036280               0.000000000               0.155337096              -0.016127762               0.000000000               0.178314623              -0.019219245               0.000000000               0.201292150              -0.022310727               0.000000000               0.224269676              -0.025402210               0.000000000               0.247247203              -0.028493692               0.000000000               0.270224730              -0.031585175               0.000000000               0.293202257              -0.034676657               0.000000000               0.316179784              -0.037768140               0.000000000               0.339157311              -0.040859622               0.000000000               0.362134838              -0.043951105               0.000000000               0.385112365              -0.047042587               0.000000000               0.408089892              -0.050134070               0.000000000               0.431067419              -0.053225552               0.000000000               0.454044946              -0.056317035               0.000000000               0.477022473              -0.059408517               0.000000000               0.500000000              -0.062500000               0.000000000               0.130444442              -0.025947013               0.000000000               0.153541665              -0.032137825               0.000000000               0.176638887              -0.038328636               0.000000000               0.199736109              -0.044519448               0.000000000               0.222833332              -0.050710260               0.000000000               0.245930554              -0.056901071               0.000000000               0.269027776              -0.063091883               0.000000000               0.292124999              -0.069282695               0.000000000               0.315222221              -0.075473506               0.000000000               0.338319444              -0.081664318               0.000000000               0.361416666              -0.087855130               0.000000000               0.384513888              -0.094045942               0.000000000               0.407611111              -0.100236753               0.000000000               0.430708333              -0.106427565               0.000000000               0.453805555              -0.112618377               0.000000000               0.476902778              -0.118809188               0.000000000               0.500000000              -0.125000000               0.000000000               0.127273065              -0.038607862               0.000000000               0.150568498              -0.047913621               0.000000000               0.173863932              -0.057219379               0.000000000               0.197159365              -0.066525138               0.000000000               0.220454798              -0.075830897               0.000000000               0.243750232              -0.085136655               0.000000000               0.267045665              -0.094442414               0.000000000               0.290341099              -0.103748172               0.000000000               0.313636532              -0.113053931               0.000000000               0.336931966              -0.122359690               0.000000000               0.360227399              -0.131665448               0.000000000               0.383522833              -0.140971207               0.000000000               0.406818266              -0.150276966               0.000000000               0.430113700              -0.159582724               0.000000000               0.453409133              -0.168888483               0.000000000               0.476704567              -0.178194241               0.000000000               0.500000000              -0.187500000               0.000000000               0.122875978              -0.050896897               0.000000000               0.146446229              -0.063340840               0.000000000               0.170016481              -0.075784784               0.000000000               0.193586732              -0.088228728               0.000000000               0.217156983              -0.100672672               0.000000000               0.240727235              -0.113116616               0.000000000               0.264297486              -0.125560560               0.000000000               0.287867738              -0.138004504               0.000000000               0.311437989              -0.150448448               0.000000000               0.335008240              -0.162892392               0.000000000               0.358578492              -0.175336336               0.000000000               0.382148743              -0.187780280               0.000000000               0.405718994              -0.200224224               0.000000000               0.429289246              -0.212668168               0.000000000               0.452859497              -0.225112112               0.000000000               0.476429749              -0.237556056               0.000000000               0.500000000              -0.250000000               0.000000000               0.117295528              -0.062695766               0.000000000               0.141214558              -0.078308531               0.000000000               0.165133587              -0.093921295               0.000000000               0.189052617              -0.109534060               0.000000000               0.212971646              -0.125146824               0.000000000               0.236890676              -0.140759589               0.000000000               0.260809705              -0.156372354               0.000000000               0.284728735              -0.171985118               0.000000000               0.308647764              -0.187597883               0.000000000               0.332566794              -0.203210648               0.000000000               0.356485823              -0.218823412               0.000000000               0.380404853              -0.234436177               0.000000000               0.404323882              -0.250048941               0.000000000               0.428242912              -0.265661706               0.000000000               0.452161941              -0.281274471               0.000000000               0.476080971              -0.296887235               0.000000000               0.500000000              -0.312500000               0.000000000               0.110585458              -0.073890841               0.000000000               0.134923867              -0.092710163               0.000000000               0.159262276              -0.111529486               0.000000000               0.183600685              -0.130348808               0.000000000               0.207939094              -0.149168131               0.000000000               0.232277503              -0.167987453               0.000000000               0.256615912              -0.186806776               0.000000000               0.280954320              -0.205626098               0.000000000               0.305292729              -0.224445420               0.000000000               0.329631138              -0.243264743               0.000000000               0.353969547              -0.262084065               0.000000000               0.378307956              -0.280903388               0.000000000               0.402646365              -0.299722710               0.000000000               0.426984773              -0.318542033               0.000000000               0.451323182              -0.337361355               0.000000000               0.475661591              -0.356180678               0.000000000               0.500000000              -0.375000000               0.000000000               0.102810390              -0.084374307               0.000000000               0.127634741              -0.106444663               0.000000000               0.152459092              -0.128515018               0.000000000               0.177283442              -0.150585374               0.000000000               0.202107793              -0.172655730               0.000000000               0.226932143              -0.194726086               0.000000000               0.251756494              -0.216796442               0.000000000               0.276580845              -0.238866798               0.000000000               0.301405195              -0.260937153               0.000000000               0.326229546              -0.283007509               0.000000000               0.351053896              -0.305077865               0.000000000               0.375878247              -0.327148221               0.000000000               0.400702598              -0.349218577               0.000000000               0.425526948              -0.371288933               0.000000000               0.450351299              -0.393359288               0.000000000               0.475175649              -0.415429644               0.000000000               0.500000000              -0.437500000               0.000000000               0.094045202              -0.094045202               0.000000000               0.119417377              -0.119417377               0.000000000               0.144789552              -0.144789552               0.000000000               0.170161727              -0.170161727               0.000000000               0.195533901              -0.195533901               0.000000000               0.220906076              -0.220906076               0.000000000               0.246278251              -0.246278251               0.000000000               0.271650426              -0.271650426               0.000000000               0.297022601              -0.297022601               0.000000000               0.322394776              -0.322394776               0.000000000               0.347766951              -0.347766951               0.000000000               0.373139126              -0.373139126               0.000000000               0.398511300              -0.398511300               0.000000000               0.423883475              -0.423883475               0.000000000               0.449255650              -0.449255650               0.000000000               0.474627825              -0.474627825               0.000000000               0.500000000              -0.500000000               0.000000000               0.084374307              -0.102810390               0.000000000               0.106444663              -0.127634741               0.000000000               0.128515018              -0.152459092               0.000000000               0.150585374              -0.177283442               0.000000000               0.172655730              -0.202107793               0.000000000               0.194726086              -0.226932143               0.000000000               0.216796442              -0.251756494               0.000000000               0.238866798              -0.276580845               0.000000000               0.260937153              -0.301405195               0.000000000               0.283007509              -0.326229546               0.000000000               0.305077865              -0.351053896               0.000000000               0.327148221              -0.375878247               0.000000000               0.349218577              -0.400702598               0.000000000               0.371288933              -0.425526948               0.000000000               0.393359288              -0.450351299               0.000000000               0.415429644              -0.475175649               0.000000000               0.437500000              -0.500000000               0.000000000               0.073890841              -0.110585458               0.000000000               0.092710163              -0.134923867               0.000000000               0.111529486              -0.159262276               0.000000000               0.130348808              -0.183600685               0.000000000               0.149168131              -0.207939094               0.000000000               0.167987453              -0.232277503               0.000000000               0.186806776              -0.256615912               0.000000000               0.205626098              -0.280954320               0.000000000               0.224445420              -0.305292729               0.000000000               0.243264743              -0.329631138               0.000000000               0.262084065              -0.353969547               0.000000000               0.280903388              -0.378307956               0.000000000               0.299722710              -0.402646365               0.000000000               0.318542033              -0.426984773               0.000000000               0.337361355              -0.451323182               0.000000000               0.356180678              -0.475661591               0.000000000               0.375000000              -0.500000000               0.000000000               0.062695766              -0.117295528               0.000000000               0.078308531              -0.141214558               0.000000000               0.093921295              -0.165133587               0.000000000               0.109534060              -0.189052617               0.000000000               0.125146824              -0.212971646               0.000000000               0.140759589              -0.236890676               0.000000000               0.156372354              -0.260809705               0.000000000               0.171985118              -0.284728735               0.000000000               0.187597883              -0.308647764               0.000000000               0.203210648              -0.332566794               0.000000000               0.218823412              -0.356485823               0.000000000               0.234436177              -0.380404853               0.000000000               0.250048941              -0.404323882               0.000000000               0.265661706              -0.428242912               0.000000000               0.281274471              -0.452161941               0.000000000               0.296887235              -0.476080971               0.000000000               0.312500000              -0.500000000               0.000000000               0.050896897              -0.122875978               0.000000000               0.063340840              -0.146446229               0.000000000               0.075784784              -0.170016481               0.000000000               0.088228728              -0.193586732               0.000000000               0.100672672              -0.217156983               0.000000000               0.113116616              -0.240727235               0.000000000               0.125560560              -0.264297486               0.000000000               0.138004504              -0.287867738               0.000000000               0.150448448              -0.311437989               0.000000000               0.162892392              -0.335008240               0.000000000               0.175336336              -0.358578492               0.000000000               0.187780280              -0.382148743               0.000000000               0.200224224              -0.405718994               0.000000000               0.212668168              -0.429289246               0.000000000               0.225112112              -0.452859497               0.000000000               0.237556056              -0.476429749               0.000000000               0.250000000              -0.500000000               0.000000000               0.038607862              -0.127273065               0.000000000               0.047913621              -0.150568498               0.000000000               0.057219379              -0.173863932               0.000000000               0.066525138              -0.197159365               0.000000000               0.075830897              -0.220454798               0.000000000               0.085136655              -0.243750232               0.000000000               0.094442414              -0.267045665               0.000000000               0.103748172              -0.290341099               0.000000000               0.113053931              -0.313636532               0.000000000               0.122359690              -0.336931966               0.000000000               0.131665448              -0.360227399               0.000000000               0.140971207              -0.383522833               0.000000000               0.150276966              -0.406818266               0.000000000               0.159582724              -0.430113700               0.000000000               0.168888483              -0.453409133               0.000000000               0.178194241              -0.476704567               0.000000000               0.187500000              -0.500000000               0.000000000               0.025947013              -0.130444442               0.000000000               0.032137825              -0.153541665               0.000000000               0.038328636              -0.176638887               0.000000000               0.044519448              -0.199736109               0.000000000               0.050710260              -0.222833332               0.000000000               0.056901071              -0.245930554               0.000000000               0.063091883              -0.269027776               0.000000000               0.069282695              -0.292124999               0.000000000               0.075473506              -0.315222221               0.000000000               0.081664318              -0.338319444               0.000000000               0.087855130              -0.361416666               0.000000000               0.094045942              -0.384513888               0.000000000               0.100236753              -0.407611111               0.000000000               0.106427565              -0.430708333               0.000000000               0.112618377              -0.453805555               0.000000000               0.118809188              -0.476902778               0.000000000               0.125000000              -0.500000000               0.000000000               0.013036280              -0.132359569               0.000000000               0.016127762              -0.155337096               0.000000000               0.019219245              -0.178314623               0.000000000               0.022310727              -0.201292150               0.000000000               0.025402210              -0.224269676               0.000000000               0.028493692              -0.247247203               0.000000000               0.031585175              -0.270224730               0.000000000               0.034676657              -0.293202257               0.000000000               0.037768140              -0.316179784               0.000000000               0.040859622              -0.339157311               0.000000000               0.043951105              -0.362134838               0.000000000               0.047042587              -0.385112365               0.000000000               0.050134070              -0.408089892               0.000000000               0.053225552              -0.431067419               0.000000000               0.056317035              -0.454044946               0.000000000               0.059408517              -0.477022473               0.000000000               0.062500000              -0.500000000               0.000000000               0.000000000              -0.133000000               0.000000000               0.000000000              -0.155937500               0.000000000               0.000000000              -0.178875000               0.000000000               0.000000000              -0.201812500               0.000000000               0.000000000              -0.224750000               0.000000000               0.000000000              -0.247687500               0.000000000               0.000000000              -0.270625000               0.000000000               0.000000000              -0.293562500               0.000000000               0.000000000              -0.316500000               0.000000000               0.000000000              -0.339437500               0.000000000               0.000000000              -0.362375000               0.000000000               0.000000000              -0.385312500               0.000000000               0.000000000              -0.408250000               0.000000000               0.000000000              -0.431187500               0.000000000               0.000000000              -0.454125000               0.000000000               0.000000000              -0.477062500               0.000000000               0.000000000              -0.500000000               0.000000000              -0.133000000               0.000000000               0.000000000              -0.155937500               0.000000000               0.000000000              -0.178875000               0.000000000               0.000000000              -0.201812500               0.000000000               0.000000000              -0.224750000               0.000000000               0.000000000              -0.247687500               0.000000000               0.000000000              -0.270625000               0.000000000               0.000000000              -0.293562500               0.000000000               0.000000000              -0.316500000               0.000000000               0.000000000              -0.339437500               0.000000000               0.000000000              -0.362375000               0.000000000               0.000000000              -0.385312500               0.000000000               0.000000000              -0.408250000               0.000000000               0.000000000              -0.431187500               0.000000000               0.000000000              -0.454125000               0.000000000               0.000000000              -0.477062500               0.000000000               0.000000000              -0.500000000               0.000000000               0.000000000              -0.132359569              -0.013036280               0.000000000              -0.155337096              -0.016127762               0.000000000              -0.178314623              -0.019219245               0.000000000              -0.201292150              -0.022310727               0.000000000              -0.224269676              -0.025402210               0.000000000              -0.247247203              -0.028493692               0.000000000              -0.270224730              -0.031585175               0.000000000              -0.293202257              -0.034676657               0.000000000              -0.316179784              -0.037768140               0.000000000              -0.339157311              -0.040859622               0.000000000              -0.362134838              -0.043951105               0.000000000              -0.385112365              -0.047042587               0.000000000              -0.408089892              -0.050134070               0.000000000              -0.431067419              -0.053225552               0.000000000              -0.454044946              -0.056317035               0.000000000              -0.477022473              -0.059408517               0.000000000              -0.500000000              -0.062500000               0.000000000              -0.130444442              -0.025947013               0.000000000              -0.153541665              -0.032137825               0.000000000              -0.176638887              -0.038328636               0.000000000              -0.199736109              -0.044519448               0.000000000              -0.222833332              -0.050710260               0.000000000              -0.245930554              -0.056901071               0.000000000              -0.269027776              -0.063091883               0.000000000              -0.292124999              -0.069282695               0.000000000              -0.315222221              -0.075473506               0.000000000              -0.338319444              -0.081664318               0.000000000              -0.361416666              -0.087855130               0.000000000              -0.384513888              -0.094045942               0.000000000              -0.407611111              -0.100236753               0.000000000              -0.430708333              -0.106427565               0.000000000              -0.453805555              -0.112618377               0.000000000              -0.476902778              -0.118809188               0.000000000              -0.500000000              -0.125000000               0.000000000              -0.127273065              -0.038607862               0.000000000              -0.150568498              -0.047913621               0.000000000              -0.173863932              -0.057219379               0.000000000              -0.197159365              -0.066525138               0.000000000              -0.220454798              -0.075830897               0.000000000              -0.243750232              -0.085136655               0.000000000              -0.267045665              -0.094442414               0.000000000              -0.290341099              -0.103748172               0.000000000              -0.313636532              -0.113053931               0.000000000              -0.336931966              -0.122359690               0.000000000              -0.360227399              -0.131665448               0.000000000              -0.383522833              -0.140971207               0.000000000              -0.406818266              -0.150276966               0.000000000              -0.430113700              -0.159582724               0.000000000              -0.453409133              -0.168888483               0.000000000              -0.476704567              -0.178194241               0.000000000              -0.500000000              -0.187500000               0.000000000              -0.122875978              -0.050896897               0.000000000              -0.146446229              -0.063340840               0.000000000              -0.170016481              -0.075784784               0.000000000              -0.193586732              -0.088228728               0.000000000              -0.217156983              -0.100672672               0.000000000              -0.240727235              -0.113116616               0.000000000              -0.264297486              -0.125560560               0.000000000              -0.287867738              -0.138004504               0.000000000              -0.311437989              -0.150448448               0.000000000              -0.335008240              -0.162892392               0.000000000              -0.358578492              -0.175336336               0.000000000              -0.382148743              -0.187780280               0.000000000              -0.405718994              -0.200224224               0.000000000              -0.429289246              -0.212668168               0.000000000              -0.452859497              -0.225112112               0.000000000              -0.476429749              -0.237556056               0.000000000              -0.500000000              -0.250000000               0.000000000              -0.117295528              -0.062695766               0.000000000              -0.141214558              -0.078308531               0.000000000              -0.165133587              -0.093921295               0.000000000              -0.189052617              -0.109534060               0.000000000              -0.212971646              -0.125146824               0.000000000              -0.236890676              -0.140759589               0.000000000              -0.260809705              -0.156372354               0.000000000              -0.284728735              -0.171985118               0.000000000              -0.308647764              -0.187597883               0.000000000              -0.332566794              -0.203210648               0.000000000              -0.356485823              -0.218823412               0.000000000              -0.380404853              -0.234436177               0.000000000              -0.404323882              -0.250048941               0.000000000              -0.428242912              -0.265661706               0.000000000              -0.452161941              -0.281274471               0.000000000              -0.476080971              -0.296887235               0.000000000              -0.500000000              -0.312500000               0.000000000              -0.110585458              -0.073890841               0.000000000              -0.134923867              -0.092710163               0.000000000              -0.159262276              -0.111529486               0.000000000              -0.183600685              -0.130348808               0.000000000              -0.207939094              -0.149168131               0.000000000              -0.232277503              -0.167987453               0.000000000              -0.256615912              -0.186806776               0.000000000              -0.280954320              -0.205626098               0.000000000              -0.305292729              -0.224445420               0.000000000              -0.329631138              -0.243264743               0.000000000              -0.353969547              -0.262084065               0.000000000              -0.378307956              -0.280903388               0.000000000              -0.402646365              -0.299722710               0.000000000              -0.426984773              -0.318542033               0.000000000              -0.451323182              -0.337361355               0.000000000              -0.475661591              -0.356180678               0.000000000              -0.500000000              -0.375000000               0.000000000              -0.102810390              -0.084374307               0.000000000              -0.127634741              -0.106444663               0.000000000              -0.152459092              -0.128515018               0.000000000              -0.177283442              -0.150585374               0.000000000              -0.202107793              -0.172655730               0.000000000              -0.226932143              -0.194726086               0.000000000              -0.251756494              -0.216796442               0.000000000              -0.276580845              -0.238866798               0.000000000              -0.301405195              -0.260937153               0.000000000              -0.326229546              -0.283007509               0.000000000              -0.351053896              -0.305077865               0.000000000              -0.375878247              -0.327148221               0.000000000              -0.400702598              -0.349218577               0.000000000              -0.425526948              -0.371288933               0.000000000              -0.450351299              -0.393359288               0.000000000              -0.475175649              -0.415429644               0.000000000              -0.500000000              -0.437500000               0.000000000              -0.094045202              -0.094045202               0.000000000              -0.119417377              -0.119417377               0.000000000              -0.144789552              -0.144789552               0.000000000              -0.170161727              -0.170161727               0.000000000              -0.195533901              -0.195533901               0.000000000              -0.220906076              -0.220906076               0.000000000              -0.246278251              -0.246278251               0.000000000              -0.271650426              -0.271650426               0.000000000              -0.297022601              -0.297022601               0.000000000              -0.322394776              -0.322394776               0.000000000              -0.347766951              -0.347766951               0.000000000              -0.373139126              -0.373139126               0.000000000              -0.398511300              -0.398511300               0.000000000              -0.423883475              -0.423883475               0.000000000              -0.449255650              -0.449255650               0.000000000              -0.474627825              -0.474627825               0.000000000              -0.500000000              -0.500000000               0.000000000              -0.084374307              -0.102810390               0.000000000              -0.106444663              -0.127634741               0.000000000              -0.128515018              -0.152459092               0.000000000              -0.150585374              -0.177283442               0.000000000              -0.172655730              -0.202107793               0.000000000              -0.194726086              -0.226932143               0.000000000              -0.216796442              -0.251756494               0.000000000              -0.238866798              -0.276580845               0.000000000              -0.260937153              -0.301405195               0.000000000              -0.283007509              -0.326229546               0.000000000              -0.305077865              -0.351053896               0.000000000              -0.327148221              -0.375878247               0.000000000              -0.349218577              -0.400702598               0.000000000              -0.371288933              -0.425526948               0.000000000              -0.393359288              -0.450351299               0.000000000              -0.415429644              -0.475175649               0.000000000              -0.437500000              -0.500000000               0.000000000              -0.073890841              -0.110585458               0.000000000              -0.092710163              -0.134923867               0.000000000              -0.111529486              -0.159262276               0.000000000              -0.130348808              -0.183600685               0.000000000              -0.149168131              -0.207939094               0.000000000              -0.167987453              -0.232277503               0.000000000              -0.186806776              -0.256615912               0.000000000              -0.205626098              -0.280954320               0.000000000              -0.224445420              -0.305292729               0.000000000              -0.243264743              -0.329631138               0.000000000              -0.262084065              -0.353969547               0.000000000              -0.280903388              -0.378307956               0.000000000              -0.299722710              -0.402646365               0.000000000              -0.318542033              -0.426984773               0.000000000              -0.337361355              -0.451323182               0.000000000              -0.356180678              -0.475661591               0.000000000              -0.375000000              -0.500000000               0.000000000              -0.062695766              -0.117295528               0.000000000              -0.078308531              -0.141214558               0.000000000              -0.093921295              -0.165133587               0.000000000              -0.109534060              -0.189052617               0.000000000              -0.125146824              -0.212971646               0.000000000              -0.140759589              -0.236890676               0.000000000              -0.156372354              -0.260809705               0.000000000              -0.171985118              -0.284728735               0.000000000              -0.187597883              -0.308647764               0.000000000              -0.203210648              -0.332566794               0.000000000              -0.218823412              -0.356485823               0.000000000              -0.234436177              -0.380404853               0.000000000              -0.250048941              -0.404323882               0.000000000              -0.265661706              -0.428242912               0.000000000              -0.281274471              -0.452161941               0.000000000              -0.296887235              -0.476080971               0.000000000              -0.312500000              -0.500000000               0.000000000              -0.050896897              -0.122875978               0.000000000              -0.063340840              -0.146446229               0.000000000              -0.075784784              -0.170016481               0.000000000              -0.088228728              -0.193586732               0.000000000              -0.100672672              -0.217156983               0.000000000              -0.113116616              -0.240727235               0.000000000              -0.125560560              -0.264297486               0.000000000              -0.138004504              -0.287867738               0.000000000              -0.150448448              -0.311437989               0.000000000              -0.162892392              -0.335008240               0.000000000              -0.175336336              -0.358578492               0.000000000              -0.187780280              -0.382148743               0.000000000              -0.200224224              -0.405718994               0.000000000              -0.212668168              -0.429289246               0.000000000              -0.225112112              -0.452859497               0.000000000              -0.237556056              -0.476429749               0.000000000              -0.250000000              -0.500000000               0.000000000              -0.038607862              -0.127273065               0.000000000              -0.047913621              -0.150568498               0.000000000              -0.057219379              -0.173863932               0.000000000              -0.066525138              -0.197159365               0.000000000              -0.075830897              -0.220454798               0.000000000              -0.085136655              -0.243750232               0.000000000              -0.094442414              -0.267045665               0.000000000              -0.103748172              -0.290341099               0.000000000              -0.113053931              -0.313636532               0.000000000              -0.122359690              -0.336931966               0.000000000              -0.131665448              -0.360227399               0.000000000              -0.140971207              -0.383522833               0.000000000              -0.150276966              -0.406818266               0.000000000              -0.159582724              -0.430113700               0.000000000              -0.168888483              -0.453409133               0.000000000              -0.178194241              -0.476704567               0.000000000              -0.187500000              -0.500000000               0.000000000              -0.025947013              -0.130444442               0.000000000              -0.032137825              -0.153541665               0.000000000              -0.038328636              -0.176638887               0.000000000              -0.044519448              -0.199736109               0.000000000              -0.050710260              -0.222833332               0.000000000              -0.056901071              -0.245930554               0.000000000              -0.063091883              -0.269027776               0.000000000              -0.069282695              -0.292124999               0.000000000              -0.075473506              -0.315222221               0.000000000              -0.081664318              -0.338319444               0.000000000              -0.087855130              -0.361416666               0.000000000              -0.094045942              -0.384513888               0.000000000              -0.100236753              -0.407611111               0.000000000              -0.106427565              -0.430708333               0.000000000              -0.112618377              -0.453805555               0.000000000              -0.118809188              -0.476902778               0.000000000              -0.125000000              -0.500000000               0.000000000              -0.013036280              -0.132359569               0.000000000              -0.016127762              -0.155337096               0.000000000              -0.019219245              -0.178314623               0.000000000              -0.022310727              -0.201292150               0.000000000              -0.025402210              -0.224269676               0.000000000              -0.028493692              -0.247247203               0.000000000              -0.031585175              -0.270224730               0.000000000              -0.034676657              -0.293202257               0.000000000              -0.037768140              -0.316179784               0.000000000              -0.040859622              -0.339157311               0.000000000              -0.043951105              -0.362134838               0.000000000              -0.047042587              -0.385112365               0.000000000              -0.050134070              -0.408089892               0.000000000              -0.053225552              -0.431067419               0.000000000              -0.056317035              -0.454044946               0.000000000              -0.059408517              -0.477022473               0.000000000              -0.062500000              -0.500000000               0.000000000               0.000000000              -0.133000000               0.000000000               0.000000000              -0.155937500               0.000000000               0.000000000              -0.178875000               0.000000000               0.000000000              -0.201812500               0.000000000               0.000000000              -0.224750000               0.000000000               0.000000000              -0.247687500               0.000000000               0.000000000              -0.270625000               0.000000000               0.000000000              -0.293562500               0.000000000               0.000000000              -0.316500000               0.000000000               0.000000000              -0.339437500               0.000000000               0.000000000              -0.362375000               0.000000000               0.000000000              -0.385312500               0.000000000               0.000000000              -0.408250000               0.000000000               0.000000000              -0.431187500               0.000000000               0.000000000              -0.454125000               0.000000000               0.000000000              -0.477062500               0.000000000               0.000000000              -0.500000000               0.000000000              -0.133000000               0.000000000               0.000000000              -0.155937500               0.000000000               0.000000000              -0.178875000               0.000000000               0.000000000              -0.201812500               0.000000000               0.000000000              -0.224750000               0.000000000               0.000000000              -0.247687500               0.000000000               0.000000000              -0.270625000               0.000000000               0.000000000              -0.293562500               0.000000000               0.000000000              -0.316500000               0.000000000               0.000000000              -0.339437500               0.000000000               0.000000000              -0.362375000               0.000000000               0.000000000              -0.385312500               0.000000000               0.000000000              -0.408250000               0.000000000               0.000000000              -0.431187500               0.000000000               0.000000000              -0.454125000               0.000000000               0.000000000              -0.477062500               0.000000000               0.000000000              -0.500000000               0.000000000               0.000000000              -0.132359569               0.013036280               0.000000000              -0.155337096               0.016127762               0.000000000              -0.178314623               0.019219245               0.000000000              -0.201292150               0.022310727               0.000000000              -0.224269676               0.025402210               0.000000000              -0.247247203               0.028493692               0.000000000              -0.270224730               0.031585175               0.000000000              -0.293202257               0.034676657               0.000000000              -0.316179784               0.037768140               0.000000000              -0.339157311               0.040859622               0.000000000              -0.362134838               0.043951105               0.000000000              -0.385112365               0.047042587               0.000000000              -0.408089892               0.050134070               0.000000000              -0.431067419               0.053225552               0.000000000              -0.454044946               0.056317035               0.000000000              -0.477022473               0.059408517               0.000000000              -0.500000000               0.062500000               0.000000000              -0.130444442               0.025947013               0.000000000              -0.153541665               0.032137825               0.000000000              -0.176638887               0.038328636               0.000000000              -0.199736109               0.044519448               0.000000000              -0.222833332               0.050710260               0.000000000              -0.245930554               0.056901071               0.000000000              -0.269027776               0.063091883               0.000000000              -0.292124999               0.069282695               0.000000000              -0.315222221               0.075473506               0.000000000              -0.338319444               0.081664318               0.000000000              -0.361416666               0.087855130               0.000000000              -0.384513888               0.094045942               0.000000000              -0.407611111               0.100236753               0.000000000              -0.430708333               0.106427565               0.000000000              -0.453805555               0.112618377               0.000000000              -0.476902778               0.118809188               0.000000000              -0.500000000               0.125000000               0.000000000              -0.127273065               0.038607862               0.000000000              -0.150568498               0.047913621               0.000000000              -0.173863932               0.057219379               0.000000000              -0.197159365               0.066525138               0.000000000              -0.220454798               0.075830897               0.000000000              -0.243750232               0.085136655               0.000000000              -0.267045665               0.094442414               0.000000000              -0.290341099               0.103748172               0.000000000              -0.313636532               0.113053931               0.000000000              -0.336931966               0.122359690               0.000000000              -0.360227399               0.131665448               0.000000000              -0.383522833               0.140971207               0.000000000              -0.406818266               0.150276966               0.000000000              -0.430113700               0.159582724               0.000000000              -0.453409133               0.168888483               0.000000000              -0.476704567               0.178194241               0.000000000              -0.500000000               0.187500000               0.000000000              -0.122875978               0.050896897               0.000000000              -0.146446229               0.063340840               0.000000000              -0.170016481               0.075784784               0.000000000              -0.193586732               0.088228728               0.000000000              -0.217156983               0.100672672               0.000000000              -0.240727235               0.113116616               0.000000000              -0.264297486               0.125560560               0.000000000              -0.287867738               0.138004504               0.000000000              -0.311437989               0.150448448               0.000000000              -0.335008240               0.162892392               0.000000000              -0.358578492               0.175336336               0.000000000              -0.382148743               0.187780280               0.000000000              -0.405718994               0.200224224               0.000000000              -0.429289246               0.212668168               0.000000000              -0.452859497               0.225112112               0.000000000              -0.476429749               0.237556056               0.000000000              -0.500000000               0.250000000               0.000000000              -0.117295528               0.062695766               0.000000000              -0.141214558               0.078308531               0.000000000              -0.165133587               0.093921295               0.000000000              -0.189052617               0.109534060               0.000000000              -0.212971646               0.125146824               0.000000000              -0.236890676               0.140759589               0.000000000              -0.260809705               0.156372354               0.000000000              -0.284728735               0.171985118               0.000000000              -0.308647764               0.187597883               0.000000000              -0.332566794               0.203210648               0.000000000              -0.356485823               0.218823412               0.000000000              -0.380404853               0.234436177               0.000000000              -0.404323882               0.250048941               0.000000000              -0.428242912               0.265661706               0.000000000              -0.452161941               0.281274471               0.000000000              -0.476080971               0.296887235               0.000000000              -0.500000000               0.312500000               0.000000000              -0.110585458               0.073890841               0.000000000              -0.134923867               0.092710163               0.000000000              -0.159262276               0.111529486               0.000000000              -0.183600685               0.130348808               0.000000000              -0.207939094               0.149168131               0.000000000              -0.232277503               0.167987453               0.000000000              -0.256615912               0.186806776               0.000000000              -0.280954320               0.205626098               0.000000000              -0.305292729               0.224445420               0.000000000              -0.329631138               0.243264743               0.000000000              -0.353969547               0.262084065               0.000000000              -0.378307956               0.280903388               0.000000000              -0.402646365               0.299722710               0.000000000              -0.426984773               0.318542033               0.000000000              -0.451323182               0.337361355               0.000000000              -0.475661591               0.356180678               0.000000000              -0.500000000               0.375000000               0.000000000              -0.102810390               0.084374307               0.000000000              -0.127634741               0.106444663               0.000000000              -0.152459092               0.128515018               0.000000000              -0.177283442               0.150585374               0.000000000              -0.202107793               0.172655730               0.000000000              -0.226932143               0.194726086               0.000000000              -0.251756494               0.216796442               0.000000000              -0.276580845               0.238866798               0.000000000              -0.301405195               0.260937153               0.000000000              -0.326229546               0.283007509               0.000000000              -0.351053896               0.305077865               0.000000000              -0.375878247               0.327148221               0.000000000              -0.400702598               0.349218577               0.000000000              -0.425526948               0.371288933               0.000000000              -0.450351299               0.393359288               0.000000000              -0.475175649               0.415429644               0.000000000              -0.500000000               0.437500000               0.000000000              -0.094045202               0.094045202               0.000000000              -0.119417377               0.119417377               0.000000000              -0.144789552               0.144789552               0.000000000              -0.170161727               0.170161727               0.000000000              -0.195533901               0.195533901               0.000000000              -0.220906076               0.220906076               0.000000000              -0.246278251               0.246278251               0.000000000              -0.271650426               0.271650426               0.000000000              -0.297022601               0.297022601               0.000000000              -0.322394776               0.322394776               0.000000000              -0.347766951               0.347766951               0.000000000              -0.373139126               0.373139126               0.000000000              -0.398511300               0.398511300               0.000000000              -0.423883475               0.423883475               0.000000000              -0.449255650               0.449255650               0.000000000              -0.474627825               0.474627825               0.000000000              -0.500000000               0.500000000               0.000000000              -0.084374307               0.102810390               0.000000000              -0.106444663               0.127634741               0.000000000              -0.128515018               0.152459092               0.000000000              -0.150585374               0.177283442               0.000000000              -0.172655730               0.202107793               0.000000000              -0.194726086               0.226932143               0.000000000              -0.216796442               0.251756494               0.000000000              -0.238866798               0.276580845               0.000000000              -0.260937153               0.301405195               0.000000000              -0.283007509               0.326229546               0.000000000              -0.305077865               0.351053896               0.000000000              -0.327148221               0.375878247               0.000000000              -0.349218577               0.400702598               0.000000000              -0.371288933               0.425526948               0.000000000              -0.393359288               0.450351299               0.000000000              -0.415429644               0.475175649               0.000000000              -0.437500000               0.500000000               0.000000000              -0.073890841               0.110585458               0.000000000              -0.092710163               0.134923867               0.000000000              -0.111529486               0.159262276               0.000000000              -0.130348808               0.183600685               0.000000000              -0.149168131               0.207939094               0.000000000              -0.167987453               0.232277503               0.000000000              -0.186806776               0.256615912               0.000000000              -0.205626098               0.280954320               0.000000000              -0.224445420               0.305292729               0.000000000              -0.243264743               0.329631138               0.000000000              -0.262084065               0.353969547               0.000000000              -0.280903388               0.378307956               0.000000000              -0.299722710               0.402646365               0.000000000              -0.318542033               0.426984773               0.000000000              -0.337361355               0.451323182               0.000000000              -0.356180678               0.475661591               0.000000000              -0.375000000               0.500000000               0.000000000              -0.062695766               0.117295528               0.000000000              -0.078308531               0.141214558               0.000000000              -0.093921295               0.165133587               0.000000000              -0.109534060               0.189052617               0.000000000              -0.125146824               0.212971646               0.000000000              -0.140759589               0.236890676               0.000000000              -0.156372354               0.260809705               0.000000000              -0.171985118               0.284728735               0.000000000              -0.187597883               0.308647764               0.000000000              -0.203210648               0.332566794               0.000000000              -0.218823412               0.356485823               0.000000000              -0.234436177               0.380404853               0.000000000              -0.250048941               0.404323882               0.000000000              -0.265661706               0.428242912               0.000000000              -0.281274471               0.452161941               0.000000000              -0.296887235               0.476080971               0.000000000              -0.312500000               0.500000000               0.000000000              -0.050896897               0.122875978               0.000000000              -0.063340840               0.146446229               0.000000000              -0.075784784               0.170016481               0.000000000              -0.088228728               0.193586732               0.000000000              -0.100672672               0.217156983               0.000000000              -0.113116616               0.240727235               0.000000000              -0.125560560               0.264297486               0.000000000              -0.138004504               0.287867738               0.000000000              -0.150448448               0.311437989               0.000000000              -0.162892392               0.335008240               0.000000000              -0.175336336               0.358578492               0.000000000              -0.187780280               0.382148743               0.000000000              -0.200224224               0.405718994               0.000000000              -0.212668168               0.429289246               0.000000000              -0.225112112               0.452859497               0.000000000              -0.237556056               0.476429749               0.000000000              -0.250000000               0.500000000               0.000000000              -0.038607862               0.127273065               0.000000000              -0.047913621               0.150568498               0.000000000              -0.057219379               0.173863932               0.000000000              -0.066525138               0.197159365               0.000000000              -0.075830897               0.220454798               0.000000000              -0.085136655               0.243750232               0.000000000              -0.094442414               0.267045665               0.000000000              -0.103748172               0.290341099               0.000000000              -0.113053931               0.313636532               0.000000000              -0.122359690               0.336931966               0.000000000              -0.131665448               0.360227399               0.000000000              -0.140971207               0.383522833               0.000000000              -0.150276966               0.406818266               0.000000000              -0.159582724               0.430113700               0.000000000              -0.168888483               0.453409133               0.000000000              -0.178194241               0.476704567               0.000000000              -0.187500000               0.500000000               0.000000000              -0.025947013               0.130444442               0.000000000              -0.032137825               0.153541665               0.000000000              -0.038328636               0.176638887               0.000000000              -0.044519448               0.199736109               0.000000000              -0.050710260               0.222833332               0.000000000              -0.056901071               0.245930554               0.000000000              -0.063091883               0.269027776               0.000000000              -0.069282695               0.292124999               0.000000000              -0.075473506               0.315222221               0.000000000              -0.081664318               0.338319444               0.000000000              -0.087855130               0.361416666               0.000000000              -0.094045942               0.384513888               0.000000000              -0.100236753               0.407611111               0.000000000              -0.106427565               0.430708333               0.000000000              -0.112618377               0.453805555               0.000000000              -0.118809188               0.476902778               0.000000000              -0.125000000               0.500000000               0.000000000              -0.013036280               0.132359569               0.000000000              -0.016127762               0.155337096               0.000000000              -0.019219245               0.178314623               0.000000000              -0.022310727               0.201292150               0.000000000              -0.025402210               0.224269676               0.000000000              -0.028493692               0.247247203               0.000000000              -0.031585175               0.270224730               0.000000000              -0.034676657               0.293202257               0.000000000              -0.037768140               0.316179784               0.000000000              -0.040859622               0.339157311               0.000000000              -0.043951105               0.362134838               0.000000000              -0.047042587               0.385112365               0.000000000              -0.050134070               0.408089892               0.000000000              -0.053225552               0.431067419               0.000000000              -0.056317035               0.454044946               0.000000000              -0.059408517               0.477022473               0.000000000              -0.062500000               0.500000000               0.000000000               0.000000000               0.133000000               0.000000000               0.000000000               0.155937500               0.000000000               0.000000000               0.178875000               0.000000000               0.000000000               0.201812500               0.000000000               0.000000000               0.224750000               0.000000000               0.000000000               0.247687500               0.000000000               0.000000000               0.270625000               0.000000000               0.000000000               0.293562500               0.000000000               0.000000000               0.316500000               0.000000000               0.000000000               0.339437500               0.000000000               0.000000000               0.362375000               0.000000000               0.000000000               0.385312500               0.000000000               0.000000000               0.408250000               0.000000000               0.000000000               0.431187500               0.000000000               0.000000000               0.454125000               0.000000000               0.000000000               0.477062500               0.000000000               0.000000000               0.500000000               0.000000000 </DataArray>
</Points>
<Cells>
<DataArray type="Int32"                                    Name="connectivity"                                                      NumberOfComponents=" 1" format="ascii">
         0          1         18         17          1          2         19         18          2          3         20         19          3          4         21         20          4          5         22         21          5          6         23         22          6          7         24         23          7          8         25         24          8          9         26         25          9         10         27         26         10         11         28         27         11         12         29         28         12         13         30         29         13         14         31         30         14         15         32         31         15         16         33         32         17         18         35         34         18         19         36         35         19         20         37         36         20         21         38         37         21         22         39         38         22         23         40         39         23         24         41         40         24         25         42         41         25         26         43         42         26         27         44         43         27         28         45         44         28         29         46         45         29         30         47         46         30         31         48         47         31         32         49         48         32         33         50         49         34         35         52         51         35         36         53         52         36         37         54         53         37         38         55         54         38         39         56         55         39         40         57         56         40         41         58         57         41         42         59         58         42         43         60         59         43         44         61         60         44         45         62         61         45         46         63         62         46         47         64         63         47         48         65         64         48         49         66         65         49         50         67         66         51         52         69         68         52         53         70         69         53         54         71         70         54         55         72         71         55         56         73         72         56         57         74         73         57         58         75         74         58         59         76         75         59         60         77         76         60         61         78         77         61         62         79         78         62         63         80         79         63         64         81         80         64         65         82         81         65         66         83         82         66         67         84         83         68         69         86         85         69         70         87         86         70         71         88         87         71         72         89         88         72         73         90         89         73         74         91         90         74         75         92         91         75         76         93         92         76         77         94         93         77         78         95         94         78         79         96         95         79         80         97         96         80         81         98         97         81         82         99         98         82         83        100         99         83         84        101        100         85         86        103        102         86         87        104        103         87         88        105        104         88         89        106        105         89         90        107        106         90         91        108        107         91         92        109        108         92         93        110        109         93         94        111        110         94         95        112        111         95         96        113        112         96         97        114        113         97         98        115        114         98         99        116        115         99        100        117        116        100        101        118        117        102        103        120        119        103        104        121        120        104        105        122        121        105        106        123        122        106        107        124        123        107        108        125        124        108        109        126        125        109        110        127        126        110        111        128        127        111        112        129        128        112        113        130        129        113        114        131        130        114        115        132        131        115        116        133        132        116        117        134        133        117        118        135        134        119        120        137        136        120        121        138        137        121        122        139        138        122        123        140        139        123        124        141        140        124        125        142        141        125        126        143        142        126        127        144        143        127        128        145        144        128        129        146        145        129        130        147        146        130        131        148        147        131        132        149        148        132        133        150        149        133        134        151        150        134        135        152        151        136        137        154        153        137        138        155        154        138        139        156        155        139        140        157        156        140        141        158        157        141        142        159        158        142        143        160        159        143        144        161        160        144        145        162        161        145        146        163        162        146        147        164        163        147        148        165        164        148        149        166        165        149        150        167        166        150        151        168        167        151        152        169        168        153        154        171        170        154        155        172        171        155        156        173        172        156        157        174        173        157        158        175        174        158        159        176        175        159        160        177        176        160        161        178        177        161        162        179        178        162        163        180        179        163        164        181        180        164        165        182        181        165        166        183        182        166        167        184        183        167        168        185        184        168        169        186        185        170        171        188        187        171        172        189        188        172        173        190        189        173        174        191        190        174        175        192        191        175        176        193        192        176        177        194        193        177        178        195        194        178        179        196        195        179        180        197        196        180        181        198        197        181        182        199        198        182        183        200        199        183        184        201        200        184        185        202        201        185        186        203        202        187        188        205        204        188        189        206        205        189        190        207        206        190        191        208        207        191        192        209        208        192        193        210        209        193        194        211        210        194        195        212        211        195        196        213        212        196        197        214        213        197        198        215        214        198        199        216        215        199        200        217        216        200        201        218        217        201        202        219        218        202        203        220        219        204        205        222        221        205        206        223        222        206        207        224        223        207        208        225        224        208        209        226        225        209        210        227        226        210        211        228        227        211        212        229        228        212        213        230        229        213        214        231        230        214        215        232        231        215        216        233        232        216        217        234        233        217        218        235        234        218        219        236        235        219        220        237        236        221        222        239        238        222        223        240        239        223        224        241        240        224        225        242        241        225        226        243        242        226        227        244        243        227        228        245        244        228        229        246        245        229        230        247        246        230        231        248        247        231        232        249        248        232        233        250        249        233        234        251        250        234        235        252        251        235        236        253        252        236        237        254        253        238        239        256        255        239        240        257        256        240        241        258        257        241        242        259        258        242        243        260        259        243        244        261        260        244        245        262        261        245        246        263        262        246        247        264        263        247        248        265        264        248        249        266        265        249        250        267        266        250        251        268        267        251        252        269        268        252        253        270        269        253        254        271        270        255        256        273        272        256        257        274        273        257        258        275        274        258        259        276        275        259        260        277        276        260        261        278        277        261        262        279        278        262        263        280        279        263        264        281        280        264        265        282        281        265        266        283        282        266        267        284        283        267        268        285        284        268        269        286        285        269        270        287        286        270        271        288        287        306        307          1          0        307        308          2          1        308        309          3          2        309        310          4          3        310        311          5          4        311        312          6          5        312        313          7          6        313        314          8          7        314        315          9          8        315        316         10          9        316        317         11         10        317        318         12         11        318        319         13         12        319        320         14         13        320        321         15         14        321        322         16         15        323        324        307        306        324        325        308        307        325        326        309        308        326        327        310        309        327        328        311        310        328        329        312        311        329        330        313        312        330        331        314        313        331        332        315        314        332        333        316        315        333        334        317        316        334        335        318        317        335        336        319        318        336        337        320        319        337        338        321        320        338        339        322        321        340        341        324        323        341        342        325        324        342        343        326        325        343        344        327        326        344        345        328        327        345        346        329        328        346        347        330        329        347        348        331        330        348        349        332        331        349        350        333        332        350        351        334        333        351        352        335        334        352        353        336        335        353        354        337        336        354        355        338        337        355        356        339        338        357        358        341        340        358        359        342        341        359        360        343        342        360        361        344        343        361        362        345        344        362        363        346        345        363        364        347        346        364        365        348        347        365        366        349        348        366        367        350        349        367        368        351        350        368        369        352        351        369        370        353        352        370        371        354        353        371        372        355        354        372        373        356        355        374        375        358        357        375        376        359        358        376        377        360        359        377        378        361        360        378        379        362        361        379        380        363        362        380        381        364        363        381        382        365        364        382        383        366        365        383        384        367        366        384        385        368        367        385        386        369        368        386        387        370        369        387        388        371        370        388        389        372        371        389        390        373        372        391        392        375        374        392        393        376        375        393        394        377        376        394        395        378        377        395        396        379        378        396        397        380        379        397        398        381        380        398        399        382        381        399        400        383        382        400        401        384        383        401        402        385        384        402        403        386        385        403        404        387        386        404        405        388        387        405        406        389        388        406        407        390        389        408        409        392        391        409        410        393        392        410        411        394        393        411        412        395        394        412        413        396        395        413        414        397        396        414        415        398        397        415        416        399        398        416        417        400        399        417        418        401        400        418        419        402        401        419        420        403        402        420        421        404        403        421        422        405        404        422        423        406        405        423        424        407        406        425        426        409        408        426        427        410        409        427        428        411        410        428        429        412        411        429        430        413        412        430        431        414        413        431        432        415        414        432        433        416        415        433        434        417        416        434        435        418        417        435        436        419        418        436        437        420        419        437        438        421        420        438        439        422        421        439        440        423        422        440        441        424        423        442        443        426        425        443        444        427        426        444        445        428        427        445        446        429        428        446        447        430        429        447        448        431        430        448        449        432        431        449        450        433        432        450        451        434        433        451        452        435        434        452        453        436        435        453        454        437        436        454        455        438        437        455        456        439        438        456        457        440        439        457        458        441        440        459        460        443        442        460        461        444        443        461        462        445        444        462        463        446        445        463        464        447        446        464        465        448        447        465        466        449        448        466        467        450        449        467        468        451        450        468        469        452        451        469        470        453        452        470        471        454        453        471        472        455        454        472        473        456        455        473        474        457        456        474        475        458        457        476        477        460        459        477        478        461        460        478        479        462        461        479        480        463        462        480        481        464        463        481        482        465        464        482        483        466        465        483        484        467        466        484        485        468        467        485        486        469        468        486        487        470        469        487        488        471        470        488        489        472        471        489        490        473        472        490        491        474        473        491        492        475        474        493        494        477        476        494        495        478        477        495        496        479        478        496        497        480        479        497        498        481        480        498        499        482        481        499        500        483        482        500        501        484        483        501        502        485        484        502        503        486        485        503        504        487        486        504        505        488        487        505        506        489        488        506        507        490        489        507        508        491        490        508        509        492        491        510        511        494        493        511        512        495        494        512        513        496        495        513        514        497        496        514        515        498        497        515        516        499        498        516        517        500        499        517        518        501        500        518        519        502        501        519        520        503        502        520        521        504        503        521        522        505        504        522        523        506        505        523        524        507        506        524        525        508        507        525        526        509        508        527        528        511        510        528        529        512        511        529        530        513        512        530        531        514        513        531        532        515        514        532        533        516        515        533        534        517        516        534        535        518        517        535        536        519        518        536        537        520        519        537        538        521        520        538        539        522        521        539        540        523        522        540        541        524        523        541        542        525        524        542        543        526        525        544        545        528        527        545        546        529        528        546        547        530        529        547        548        531        530        548        549        532        531        549        550        533        532        550        551        534        533        551        552        535        534        552        553        536        535        553        554        537        536        554        555        538        537        555        556        539        538        556        557        540        539        557        558        541        540        558        559        542        541        559        560        543        542        561        562        545        544        562        563        546        545        563        564        547        546        564        565        548        547        565        566        549        548        566        567        550        549        567        568        551        550        568        569        552        551        569        570        553        552        570        571        554        553        571        572        555        554        572        573        556        555        573        574        557        556        574        575        558        557        575        576        559        558        576        577        560        559        578        579        596        595        579        580        597        596        580        581        598        597        581        582        599        598        582        583        600        599        583        584        601        600        584        585        602        601        585        586        603        602        586        587        604        603        587        588        605        604        588        589        606        605        589        590        607        606        590        591        608        607        591        592        609        608        592        593        610        609        593        594        611        610        595        596        613        612        596        597        614        613        597        598        615        614        598        599        616        615        599        600        617        616        600        601        618        617        601        602        619        618        602        603        620        619        603        604        621        620        604        605        622        621        605        606        623        622        606        607        624        623        607        608        625        624        608        609        626        625        609        610        627        626        610        611        628        627        612        613        630        629        613        614        631        630        614        615        632        631        615        616        633        632        616        617        634        633        617        618        635        634        618        619        636        635        619        620        637        636        620        621        638        637        621        622        639        638        622        623        640        639        623        624        641        640        624        625        642        641        625        626        643        642        626        627        644        643        627        628        645        644        629        630        647        646        630        631        648        647        631        632        649        648        632        633        650        649        633        634        651        650        634        635        652        651        635        636        653        652        636        637        654        653        637        638        655        654        638        639        656        655        639        640        657        656        640        641        658        657        641        642        659        658        642        643        660        659        643        644        661        660        644        645        662        661        646        647        664        663        647        648        665        664        648        649        666        665        649        650        667        666        650        651        668        667        651        652        669        668        652        653        670        669        653        654        671        670        654        655        672        671        655        656        673        672        656        657        674        673        657        658        675        674        658        659        676        675        659        660        677        676        660        661        678        677        661        662        679        678        663        664        681        680        664        665        682        681        665        666        683        682        666        667        684        683        667        668        685        684        668        669        686        685        669        670        687        686        670        671        688        687        671        672        689        688        672        673        690        689        673        674        691        690        674        675        692        691        675        676        693        692        676        677        694        693        677        678        695        694        678        679        696        695        680        681        698        697        681        682        699        698        682        683        700        699        683        684        701        700        684        685        702        701        685        686        703        702        686        687        704        703        687        688        705        704        688        689        706        705        689        690        707        706        690        691        708        707        691        692        709        708        692        693        710        709        693        694        711        710        694        695        712        711        695        696        713        712        697        698        715        714        698        699        716        715        699        700        717        716        700        701        718        717        701        702        719        718        702        703        720        719        703        704        721        720        704        705        722        721        705        706        723        722        706        707        724        723        707        708        725        724        708        709        726        725        709        710        727        726        710        711        728        727        711        712        729        728        712        713        730        729        714        715        732        731        715        716        733        732        716        717        734        733        717        718        735        734        718        719        736        735        719        720        737        736        720        721        738        737        721        722        739        738        722        723        740        739        723        724        741        740        724        725        742        741        725        726        743        742        726        727        744        743        727        728        745        744        728        729        746        745        729        730        747        746        731        732        749        748        732        733        750        749        733        734        751        750        734        735        752        751        735        736        753        752        736        737        754        753        737        738        755        754        738        739        756        755        739        740        757        756        740        741        758        757        741        742        759        758        742        743        760        759        743        744        761        760        744        745        762        761        745        746        763        762        746        747        764        763        748        749        766        765        749        750        767        766        750        751        768        767        751        752        769        768        752        753        770        769        753        754        771        770        754        755        772        771        755        756        773        772        756        757        774        773        757        758        775        774        758        759        776        775        759        760        777        776        760        761        778        777        761        762        779        778        762        763        780        779        763        764        781        780        765        766        783        782        766        767        784        783        767        768        785        784        768        769        786        785        769        770        787        786        770        771        788        787        771        772        789        788        772        773        790        789        773        774        791        790        774        775        792        791        775        776        793        792        776        777        794        793        777        778        795        794        778        779        796        795        779        780        797        796        780        781        798        797        782        783        800        799        783        784        801        800        784        785        802        801        785        786        803        802        786        787        804        803        787        788        805        804        788        789        806        805        789        790        807        806        790        791        808        807        791        792        809        808        792        793        810        809        793        794        811        810        794        795        812        811        795        796        813        812        796        797        814        813        797        798        815        814        799        800        817        816        800        801        818        817        801        802        819        818        802        803        820        819        803        804        821        820        804        805        822        821        805        806        823        822        806        807        824        823        807        808        825        824        808        809        826        825        809        810        827        826        810        811        828        827        811        812        829        828        812        813        830        829        813        814        831        830        814        815        832        831        816        817        834        833        817        818        835        834        818        819        836        835        819        820        837        836        820        821        838        837        821        822        839        838        822        823        840        839        823        824        841        840        824        825        842        841        825        826        843        842        826        827        844        843        827        828        845        844        828        829        846        845        829        830        847        846        830        831        848        847        831        832        849        848        833        834        562        561        834        835        563        562        835        836        564        563        836        837        565        564        837        838        566        565        838        839        567        566        839        840        568        567        840        841        569        568        841        842        570        569        842        843        571        570        843        844        572        571        844        845        573        572        845        846        574        573        846        847        575        574        847        848        576        575        848        849        577        576        884        885        579        578        885        886        580        579        886        887        581        580        887        888        582        581        888        889        583        582        889        890        584        583        890        891        585        584        891        892        586        585        892        893        587        586        893        894        588        587        894        895        589        588        895        896        590        589        896        897        591        590        897        898        592        591        898        899        593        592        899        900        594        593        901        902        885        884        902        903        886        885        903        904        887        886        904        905        888        887        905        906        889        888        906        907        890        889        907        908        891        890        908        909        892        891        909        910        893        892        910        911        894        893        911        912        895        894        912        913        896        895        913        914        897        896        914        915        898        897        915        916        899        898        916        917        900        899        918        919        902        901        919        920        903        902        920        921        904        903        921        922        905        904        922        923        906        905        923        924        907        906        924        925        908        907        925        926        909        908        926        927        910        909        927        928        911        910        928        929        912        911        929        930        913        912        930        931        914        913        931        932        915        914        932        933        916        915        933        934        917        916        935        936        919        918        936        937        920        919        937        938        921        920        938        939        922        921        939        940        923        922        940        941        924        923        941        942        925        924        942        943        926        925        943        944        927        926        944        945        928        927        945        946        929        928        946        947        930        929        947        948        931        930        948        949        932        931        949        950        933        932        950        951        934        933        952        953        936        935        953        954        937        936        954        955        938        937        955        956        939        938        956        957        940        939        957        958        941        940        958        959        942        941        959        960        943        942        960        961        944        943        961        962        945        944        962        963        946        945        963        964        947        946        964        965        948        947        965        966        949        948        966        967        950        949        967        968        951        950        969        970        953        952        970        971        954        953        971        972        955        954        972        973        956        955        973        974        957        956        974        975        958        957        975        976        959        958        976        977        960        959        977        978        961        960        978        979        962        961        979        980        963        962        980        981        964        963        981        982        965        964        982        983        966        965        983        984        967        966        984        985        968        967        986        987        970        969        987        988        971        970        988        989        972        971        989        990        973        972        990        991        974        973        991        992        975        974        992        993        976        975        993        994        977        976        994        995        978        977        995        996        979        978        996        997        980        979        997        998        981        980        998        999        982        981        999       1000        983        982       1000       1001        984        983       1001       1002        985        984       1003       1004        987        986       1004       1005        988        987       1005       1006        989        988       1006       1007        990        989       1007       1008        991        990       1008       1009        992        991       1009       1010        993        992       1010       1011        994        993       1011       1012        995        994       1012       1013        996        995       1013       1014        997        996       1014       1015        998        997       1015       1016        999        998       1016       1017       1000        999       1017       1018       1001       1000       1018       1019       1002       1001       1020       1021       1004       1003       1021       1022       1005       1004       1022       1023       1006       1005       1023       1024       1007       1006       1024       1025       1008       1007       1025       1026       1009       1008       1026       1027       1010       1009       1027       1028       1011       1010       1028       1029       1012       1011       1029       1030       1013       1012       1030       1031       1014       1013       1031       1032       1015       1014       1032       1033       1016       1015       1033       1034       1017       1016       1034       1035       1018       1017       1035       1036       1019       1018       1037       1038       1021       1020       1038       1039       1022       1021       1039       1040       1023       1022       1040       1041       1024       1023       1041       1042       1025       1024       1042       1043       1026       1025       1043       1044       1027       1026       1044       1045       1028       1027       1045       1046       1029       1028       1046       1047       1030       1029       1047       1048       1031       1030       1048       1049       1032       1031       1049       1050       1033       1032       1050       1051       1034       1033       1051       1052       1035       1034       1052       1053       1036       1035       1054       1055       1038       1037       1055       1056       1039       1038       1056       1057       1040       1039       1057       1058       1041       1040       1058       1059       1042       1041       1059       1060       1043       1042       1060       1061       1044       1043       1061       1062       1045       1044       1062       1063       1046       1045       1063       1064       1047       1046       1064       1065       1048       1047       1065       1066       1049       1048       1066       1067       1050       1049       1067       1068       1051       1050       1068       1069       1052       1051       1069       1070       1053       1052       1071       1072       1055       1054       1072       1073       1056       1055       1073       1074       1057       1056       1074       1075       1058       1057       1075       1076       1059       1058       1076       1077       1060       1059       1077       1078       1061       1060       1078       1079       1062       1061       1079       1080       1063       1062       1080       1081       1064       1063       1081       1082       1065       1064       1082       1083       1066       1065       1083       1084       1067       1066       1084       1085       1068       1067       1085       1086       1069       1068       1086       1087       1070       1069       1088       1089       1072       1071       1089       1090       1073       1072       1090       1091       1074       1073       1091       1092       1075       1074       1092       1093       1076       1075       1093       1094       1077       1076       1094       1095       1078       1077       1095       1096       1079       1078       1096       1097       1080       1079       1097       1098       1081       1080       1098       1099       1082       1081       1099       1100       1083       1082       1100       1101       1084       1083       1101       1102       1085       1084       1102       1103       1086       1085       1103       1104       1087       1086       1105       1106       1089       1088       1106       1107       1090       1089       1107       1108       1091       1090       1108       1109       1092       1091       1109       1110       1093       1092       1110       1111       1094       1093       1111       1112       1095       1094       1112       1113       1096       1095       1113       1114       1097       1096       1114       1115       1098       1097       1115       1116       1099       1098       1116       1117       1100       1099       1117       1118       1101       1100       1118       1119       1102       1101       1119       1120       1103       1102       1120       1121       1104       1103       1122       1123       1106       1105       1123       1124       1107       1106       1124       1125       1108       1107       1125       1126       1109       1108       1126       1127       1110       1109       1127       1128       1111       1110       1128       1129       1112       1111       1129       1130       1113       1112       1130       1131       1114       1113       1131       1132       1115       1114       1132       1133       1116       1115       1133       1134       1117       1116       1134       1135       1118       1117       1135       1136       1119       1118       1136       1137       1120       1119       1137       1138       1121       1120        272        273       1123       1122        273        274       1124       1123        274        275       1125       1124        275        276       1126       1125        276        277       1127       1126        277        278       1128       1127        278        279       1129       1128        279        280       1130       1129        280        281       1131       1130        281        282       1132       1131        282        283       1133       1132        283        284       1134       1133        284        285       1135       1134        285        286       1136       1135        286        287       1137       1136        287        288       1138       1137 </DataArray>
<DataArray type="Int32"                                    Name="offsets"                                                      NumberOfComponents=" 1" format="ascii">
         4          8         12         16         20         24         28         32         36         40         44         48         52         56         60         64         68         72         76         80         84         88         92         96        100        104        108        112        116        120        124        128        132        136        140        144        148        152        156        160        164        168        172        176        180        184        188        192        196        200        204        208        212        216        220        224        228        232        236        240        244        248        252        256        260        264        268        272        276        280        284        288        292        296        300        304        308        312        316        320        324        328        332        336        340        344        348        352        356        360        364        368        372        376        380        384        388        392        396        400        404        408        412        416        420        424        428        432        436        440        444        448        452        456        460        464        468        472        476        480        484        488        492        496        500        504        508        512        516        520        524        528        532        536        540        544        548        552        556        560        564        568        572        576        580        584        588        592        596        600        604        608        612        616        620        624        628        632        636        640        644        648        652        656        660        664        668        672        676        680        684        688        692        696        700        704        708        712        716        720        724        728        732        736        740        744        748        752        756        760        764        768        772        776        780        784        788        792        796        800        804        808        812        816        820        824        828        832        836        840        844        848        852        856        860        864        868        872        876        880        884        888        892        896        900        904        908        912        916        920        924        928        932        936        940        944        948        952        956        960        964        968        972        976        980        984        988        992        996       1000       1004       1008       1012       1016       1020       1024       1028       1032       1036       1040       1044       1048       1052       1056       1060       1064       1068       1072       1076       1080       1084       1088       1092       1096       1100       1104       1108       1112       1116       1120       1124       1128       1132       1136       1140       1144       1148       1152       1156       1160       1164       1168       1172       1176       1180       1184       1188       1192       1196       1200       1204       1208       1212       1216       1220       1224       1228       1232       1236       1240       1244       1248       1252       1256       1260       1264       1268       1272       1276       1280       1284       1288       1292       1296       1300       1304       1308       1312       1316       1320       1324       1328       1332       1336       1340       1344       1348       1352       1356       1360       1364       1368       1372       1376       1380       1384       1388       1392       1396       1400       1404       1408       1412       1416       1420       1424       1428       1432       1436       1440       1444       1448       1452       1456       1460       1464       1468       1472       1476       1480       1484       1488       1492       1496       1500       1504       1508       1512       1516       1520       1524       1528       1532       1536       1540       1544       1548       1552       1556       1560       1564       1568       1572       1576       1580       1584       1588       1592       1596       1600       1604       1608       1612       1616       1620       1624       1628       1632       1636       1640       1644       1648       1652       1656       1660       1664       1668       1672       1676       1680       1684       1688       1692       1696       1700       1704       1708       1712       1716       1720       1724       1728       1732       1736       1740       1744       1748       1752       1756       1760       1764       1768       1772       1776       1780       1784       1788       1792       1796       1800       1804       1808       1812       1816       1820       1824       1828       1832       1836       1840       1844       1848       1852       1856       1860       1864       1868       1872       1876       1880       1884       1888       1892       1896       1900       1904       1908       1912       1916       1920       1924       1928       1932       1936       1940       1944       1948       1952       1956       1960       1964       1968       1972       1976       1980       1984       1988       1992       1996       2000       2004       2008       2012       2016       2020       2024       2028       2032       2036       2040       2044       2048       2052       2056       2060       2064       2068       2072       2076       2080       2084       2088       2092       2096       2100       2104       2108       2112       2116       2120       2124       2128       2132       2136       2140       2144       2148       2152       2156       2160       2164       2168       2172       2176       2180       2184       2188       2192       2196       2200       2204       2208       2212       2216       2220       2224       2228       2232       2236       2240       2244       2248       2252       2256       2260       2264       2268       2272       2276       2280       2284       2288       2292       2296       2300       2304       2308       2312       2316       2320       2324       2328       2332       2336       2340       2344       2348       2352       2356       2360       2364       2368       2372       2376       2380       2384       2388       2392       2396       2400       2404       2408       2412       2416       2420       2424       2428       2432       2436       2440       2444       2448       2452       2456       2460       2464       2468       2472       2476       2480       2484       2488       2492       2496       2500       2504       2508       2512       2516       2520       2524       2528       2532       2536       2540       2544       2548       2552       2556       2560       2564       2568       2572       2576       2580       2584       2588       2592       2596       2600       2604       2608       2612       2616       2620       2624       2628       2632       2636       2640       2644       2648       2652       2656       2660       2664       2668       2672       2676       2680       2684       2688       2692       2696       2700       2704       2708       2712       2716       2720       2724       2728       2732       2736       2740       2744       2748       2752       2756       2760       2764       2768       2772       2776       2780       2784       2788       2792       2796       2800       2804       2808       2812       2816       2820       2824       2828       2832       2836       2840       2844       2848       2852       2856       2860       2864       2868       2872       2876       2880       2884       2888       2892       2896       2900       2904       2908       2912       2916       2920       2924       2928       2932       2936       2940       2944       2948       2952       2956       2960       2964       2968       2972       2976       2980       2984       2988       2992       2996       3000       3004       3008       3012       3016       3020       3024       3028       3032       3036       3040       3044       3048       3052       3056       3060       3064       3068       3072       3076       3080       3084       3088       3092       3096       3100       3104       3108       3112       3116       3120       3124       3128       3132       3136       3140       3144       3148       3152       3156       3160       3164       3168       3172       3176       3180       3184       3188       3192       3196       3200       3204       3208       3212       3216       3220       3224       3228       3232       3236       3240       3244       3248       3252       3256       3260       3264       3268       3272       3276       3280       3284       3288       3292       3296       3300       3304       3308       3312       3316       3320       3324       3328       3332       3336       3340       3344       3348       3352       3356       3360       3364       3368       3372       3376       3380       3384       3388       3392       3396       3400       3404       3408       3412       3416       3420       3424       3428       3432       3436       3440       3444       3448       3452       3456       3460       3464       3468       3472       3476       3480       3484       3488       3492       3496       3500       3504       3508       3512       3516       3520       3524       3528       3532       3536       3540       3544       3548       3552       3556       3560       3564       3568       3572       3576       3580       3584       3588       3592       3596       3600       3604       3608       3612       3616       3620       3624       3628       3632       3636       3640       3644       3648       3652       3656       3660       3664       3668       3672       3676       3680       3684       3688       3692       3696       3700       3704       3708       3712       3716       3720       3724       3728       3732       3736       3740       3744       3748       3752       3756       3760       3764       3768       3772       3776       3780       3784       3788       3792       3796       3800       3804       3808       3812       3816       3820       3824       3828       3832       3836       3840       3844       3848       3852       3856       3860       3864       3868       3872       3876       3880       3884       3888       3892       3896       3900       3904       3908       3912       3916       3920       3924       3928       3932       3936       3940       3944       3948       3952       3956       3960       3964       3968       3972       3976       3980       3984       3988       3992       3996       4000       4004       4008       4012       4016       4020       4024       4028       4032       4036       4040       4044       4048       4052       4056       4060       4064       4068       4072       4076       4080       4084       4088       4092       4096 </DataArray>
<DataArray type="UInt8"                                    Name="types"                                                      NumberOfComponents=" 1" format="ascii">
         9          9          9          9          9          9          9          9          9          9          9          9          9          9          9          9          9          9          9          9          9          9          9          9          9          9          9          9          9          9          9          9          9          9          9          9          9          9          9          9          9          9          9          9          9          9          9          9          9          9          9          9          9          9          9          9          9          9          9          9          9          9          9          9          9          9          9          9          9          9          9          9          9          9          9          9          9          9          9          9          9          9          9          9          9          9          9          9          9          9          9          9          9          9          9          9          9          9          9          9          9          9          9          9          9          9          9          9          9          9          9          9          9          9          9          9          9          9          9          9          9          9          9          9          9          9          9          9          9          9          9          9          9          9          9          9          9          9          9          9          9          9          9          9          9          9          9          9          9          9          9          9          9          9          9          9          9          9          9          9          9          9          9          9          9          9          9          9          9          9          9          9          9          9          9          9          9          9          9          9          9          9          9          9          9          9          9          9          9          9          9          9          9          9          9          9          9          9          9          9          9          9          9          9          9          9          9          9          9          9          9          9          9          9          9          9          9          9          9          9          9          9          9          9          9          9          9          9          9          9          9          9          9          9          9          9          9          9          9          9          9          9          9          9          9          9          9          9          9          9          9          9          9          9          9          9          9          9          9          9          9          9          9          9          9          9          9          9          9          9          9          9          9          9          9          9          9          9          9          9          9          9          9          9          9          9          9          9          9          9          9          9          9          9          9          9          9          9          9          9          9          9          9          9          9          9          9          9          9          9          9          9          9          9          9          9          9          9          9          9          9          9          9          9          9          9          9          9          9          9          9          9          9          9          9          9          9          9          9          9          9          9          9          9          9          9          9          9          9          9          9          9          9          9          9          9          9          9          9          9          9          9          9          9          9          9          9          9          9          9          9          9          9          9          9          9          9          9          9          9          9          9          9          9          9          9          9          9          9          9          9          9          9          9          9          9          9          9          9          9          9          9          9          9          9          9          9          9          9          9          9          9          9          9          9          9          9          9          9          9          9          9          9          9          9          9          9          9          9          9          9          9          9          9          9          9          9          9          9          9          9          9          9          9          9          9          9          9          9          9          9          9          9          9          9          9          9          9          9          9          9          9          9          9          9          9          9          9          9          9          9          9          9          9          9          9          9          9          9          9          9          9          9          9          9          9          9          9          9          9          9          9          9          9          9          9          9          9          9          9          9          9          9          9          9          9          9          9          9          9          9          9          9          9          9          9          9          9          9          9          9          9          9          9          9          9          9          9          9          9          9          9          9          9          9          9          9          9          9          9          9          9          9          9          9          9          9          9          9          9          9          9          9          9          9          9          9          9          9          9          9          9          9          9          9          9          9          9          9          9          9          9          9          9          9          9          9          9          9          9          9          9          9          9          9          9          9          9          9          9          9          9          9          9          9          9          9          9          9          9          9          9          9          9          9          9          9          9          9          9          9          9          9          9          9          9          9          9          9          9          9          9          9          9          9          9          9          9          9          9          9          9          9          9          9          9          9          9          9          9          9          9          9          9          9          9          9          9          9          9          9          9          9          9          9          9          9          9          9          9          9          9          9          9          9          9          9          9          9          9          9          9          9          9          9          9          9          9          9          9          9          9          9          9          9          9          9          9          9          9          9          9          9          9          9          9          9          9          9          9          9          9          9          9          9          9          9          9          9          9          9          9          9          9          9          9          9          9          9          9          9          9          9          9          9          9          9          9          9          9          9          9          9          9          9          9          9          9          9          9          9          9          9          9          9          9          9          9          9          9          9          9          9          9          9          9          9          9          9          9          9          9          9          9          9          9          9          9          9          9          9          9          9          9          9          9          9          9          9          9          9          9          9          9          9          9          9          9          9          9          9          9          9          9          9          9          9          9          9          9          9          9          9          9          9          9          9          9          9          9          9          9          9          9          9          9          9          9          9          9          9          9          9          9          9          9          9          9          9          9          9          9          9          9          9          9          9          9          9          9          9          9          9          9          9          9          9          9          9          9          9          9          9          9          9          9          9          9          9          9          9          9          9          9          9          9          9          9          9          9          9          9          9          9          9          9          9          9          9          9          9          9          9          9          9          9          9          9          9          9          9          9          9          9          9          9          9          9          9          9          9          9          9          9          9          9          9          9          9          9          9          9          9          9          9          9          9          9          9          9          9          9          9          9          9          9          9          9          9          9          9          9          9          9          9          9          9          9          9          9          9          9          9          9          9          9          9          9          9          9          9          9          9          9          9          9          9          9          9          9          9          9          9          9          9          9          9          9          9          9          9          9          9          9          9          9          9          9          9          9          9          9          9          9          9          9          9          9          9          9          9          9          9          9          9          9          9          9          9          9          9          9          9          9          9          9          9          9          9          9          9          9          9          9          9          9          9          9          9          9          9          9          9          9 </DataArray>
</Cells>
<CellData>
<DataArray type="Int32"                                    Name="material"                                                      NumberOfComponents=" 1" format="ascii">
         1          1          1          1          1          1          1          1          1          1          1          1          1          1          1          1          1          1          1          1          1          1          1          1          1          1          1          1          1          1          1          1          1          1          1          1          1          1          1          1          1          1          1          1          1          1          1          1          1          1          1          1          1          1          1          1          1          1          1          1          1          1          1          1          1          1          1          1          1          1          1          1          1          1          1          1          1          1          1          1          1          1          1          1          1          1          1          1          1          1          1          1          1          1          1          1          1          1          1          1          1          1          1          1          1          1          1          1          1          1          1          1          1          1          1          1          1          1          1          1          1          1          1          1          1          1          1          1          1          1          1          1          1          1          1          1          1          1          1          1          1          1          1          1          1          1          1          1          1          1          1          1          1          1          1          1          1          1          1          1          1          1          1          1          1          1          1          1          1          1          1          1          1          1          1          1          1          1          1          1          1          1          1          1          1          1          1          1          1          1          1          1          1          1          1          1          1          1          1          1          1          1          1          1          1          1          1          1          1          1          1          1          1          1          1          1          1          1          1          1          1          1          1          1          1          1          1          1          1          1          1          1          1          1          1          1          1          1          1          1          1          1          1          1          1          1          1          1          1          1          1          1          1          1          1          1          1          1          1          1          1          1          1          1          1          1          1          1          1          1          1          1          1          1          1          1          1          1          1          1          1          1          1          1          1          1          1          1          1          1          1          1          1          1          1          1          1          1          1          1          1          1          1          1          1          1          1          1          1          1          1          1          1          1          1          1          1          1          1          1          1          1          1          1          1          1          1          1          1          1          1          1          1          1          1          1          1          1          1          1          1          1          1          1          1          1          1          1          1          1          1          1          1          1          1          1          1          1          1          1          1          1          1          1          1          1          1          1          1          1          1          1          1          1          1          1          1          1          1          1          1          1          1          1          1          1          1          1          1          1          1          1          1          1          1          1          1          1          1          1          1          1          1          1          1          1          1          1          1          1          1          1          1          1          1          1          1          1          1          1          1          1          1          1          1          1          1          1          1          1          1          1          1          1          1          1          1          1          1          1          1          1          1          1          1          1          1          1          1          1          1          1          1          1          1          1          1          1          1          1          1          1          1          1          1          1          1          1          1          1          1          1          1          1          1          1          1          1          1          1          1          1          1          1          1          1          1          1          1          1          1          1          1          1          1          1          1          1          1          1          1          1          1          1          1          1          1          1          1          1          1          1          1          1          1          1          1          1          1          1          1          1          1          1          1          1          1          1          1          1          1          1          1          1          1          1          1          1          1          1          1          1          1          1          1          1          1          1          1          1          1          1          1          1          1          1          1          1          1          1          1          1          1          1          1          1          1          1          1          1          1          1          1          1          1          1          1          1          1          1          1          1          1          1          1          1          1          1          1          1          1          1          1          1          1          1          1          1          1          1          1          1          1          1          1          1          1          1          1          1          1          1          1          1          1          1          1          1          1          1          1          1          1          1          1          1          1          1          1          1          1          1          1          1          1          1          1          1          1          1          1          1          1          1          1          1          1          1          1          1          1          1          1          1          1          1          1          1          1          1          1          1          1          1          1          1          1          1          1          1          1          1          1          1          1          1          1          1          1          1          1          1          1          1          1          1          1          1          1          1          1          1          1          1          1          1          1          1          1          1          1          1          1          1          1          1          1          1          1          1          1          1          1          1          1          1          1          1          1          1          1          1          1          1          1          1          1          1          1          1          1          1          1          1          1          1          1          1          1          1          1          1          1          1          1          1          1          1          1          1          1          1          1          1          1          1          1          1          1          1          1          1          1          1          1          1          1          1          1          1          1          1          1          1          1          1          1          1          1          1          1          1          1          1          1          1          1          1          1          1          1          1          1          1          1          1          1          1          1          1          1          1          1          1          1          1          1          1          1          1          1          1          1          1          1          1          1          1          1          1          1          1          1          1          1          1          1          1          1          1          1          1          1          1          1          1          1          1          1          1          1          1          1          1          1          1          1          1          1          1          1          1          1          1          1          1          1          1          1          1          1          1          1          1          1          1          1          1          1          1          1          1          1          1          1          1          1          1          1          1          1          1          1          1          1          1          1          1          1          1          1          1          1          1          1          1          1          1          1          1          1          1          1          1          1          1          1          1          1          1          1          1          1          1          1          1          1          1          1          1          1          1          1          1          1          1          1          1          1          1          1          1          1          1          1          1          1          1          1          1          1          1          1          1          1          1          1          1          1          1          1          1          1          1          1          1          1          1          1          1          1          1          1          1          1          1          1          1          1          1          1          1          1          1          1          1          1          1          1          1          1          1          1          1          1          1          1          1          1          1          1          1          1          1          1          1          1          1          1          1          1          1          1          1          1          1          1          1          1          1          1          1          1          1          1          1          1          1          1          1          1          1          1          1 </DataArray>
</CellData>
<PointData>
<DataArray type="Float64"                                    Name="u"                                                      NumberOfComponents=" 3" format="ascii">
             -0.000081430               0.000000000               0.999999994              -0.000103002              -0.000000000               0.999999994              -0.000113114              -0.000000000               0.999999994              -0.000118913              -0.000000000               0.999999994              -0.000123228              -0.000000000               0.999999994              -0.000127403               0.000000000               0.999999994              -0.000132095               0.000000000               0.999999994              -0.000137504               0.000000000               0.999999994              -0.000143761              -0.000000000               0.999999994              -0.000150874               0.000000000               0.999999994              -0.000158896               0.000000000               0.999999994              -0.000167770               0.000000000               0.999999994              -0.000177427               0.000000000               0.999999994              -0.000187825               0.000000000               0.999999994              -0.000198903               0.000000000               0.999999994              -0.000210569               0.000000000               0.999999994              -0.000222690               0.000000000               0.999999994              -0.000080919               0.000054157               0.999999994              -0.000101470               0.000047258               0.999999994              -0.000110997               0.000045188               0.999999994              -0.000116487               0.000045741               0.999999994              -0.000120743               0.000047829               0.999999994              -0.000124942               0.000050954               0.999999994              -0.000129643               0.000054704               0.999999994              -0.000135113               0.000058934               0.999999994              -0.000141431               0.000063510               0.999999994              -0.000148620               0.000068345               0.999999994              -0.000156689               0.000073326               0.999999994              -0.000165538               0.000078421               0.999999994              -0.000175142               0.000083534               0.999999994              -0.000185486               0.000088517               0.999999994              -0.000196507               0.000093265               0.999999994              -0.000208156               0.000097622               0.999999994              -0.000220347               0.000101402               0.999999994              -0.000079425               0.000107752               0.999999994              -0.000096916               0.000094039               0.999999994              -0.000104716               0.000090209               0.999999994              -0.000109351               0.000091535               0.999999994              -0.000113284               0.000095983               0.999999994              -0.000117513               0.000102392               0.999999994              -0.000122418               0.000110133               0.999999994              -0.000128162               0.000118761               0.999999994              -0.000134749               0.000128008               0.999999994              -0.000142142               0.000137717               0.999999994              -0.000150353               0.000147727               0.999999994              -0.000159255               0.000157999               0.999999994              -0.000168854               0.000168392               0.999999994              -0.000179166               0.000178697               0.999999994              -0.000190163               0.000188776               0.999999994              -0.000201871               0.000198358               0.999999994              -0.000214252               0.000207187               0.999999994              -0.000077014               0.000160205               0.999999994              -0.000089630               0.000139904               0.999999994              -0.000094891               0.000134922               0.999999994              -0.000098435               0.000137580               0.999999994              -0.000102087               0.000144770               0.999999994              -0.000106521               0.000154799               0.999999994              -0.000111916               0.000166705               0.999999994              -0.000118251               0.000179780               0.999999994              -0.000125431               0.000193720               0.999999994              -0.000133366               0.000208270               0.999999994              -0.000142059               0.000223336               0.999999994              -0.000151445               0.000238800               0.999999994              -0.000161504               0.000254596               0.999999994              -0.000172238               0.000270462               0.999999994              -0.000183655               0.000286322               0.999999994              -0.000195792               0.000301962               0.999999994              -0.000208594               0.000317154               0.999999994              -0.000073708               0.000210951               0.999999994              -0.000080018               0.000184555               0.999999994              -0.000082551               0.000179118               0.999999994              -0.000085206               0.000183796               0.999999994              -0.000089030               0.000194089               0.999999994              -0.000094195               0.000207954               0.999999994              -0.000100519               0.000224049               0.999999994              -0.000107798               0.000241559               0.999999994              -0.000115953               0.000260146               0.999999994              -0.000124888               0.000279487               0.999999994              -0.000134550               0.000299433               0.999999994              -0.000144935               0.000319974               0.999999994              -0.000155988               0.000341003               0.999999994              -0.000167666               0.000362424               0.999999994              -0.000179988               0.000384048               0.999999994              -0.000192816               0.000405694               0.999999994              -0.000206042               0.000427051               0.999999994              -0.000069513               0.000259459               0.999999994              -0.000068629               0.000227827               0.999999994              -0.000068824               0.000222632               0.999999994              -0.000071242               0.000229757               0.999999994              -0.000075877               0.000243518               0.999999994              -0.000082321               0.000261235               0.999999994              -0.000089934               0.000281380               0.999999994              -0.000098474               0.000303177               0.999999994              -0.000107895               0.000326229               0.999999994              -0.000118106               0.000350225               0.999999994              -0.000129053               0.000374878               0.999999994              -0.000140616               0.000400341               0.999999994              -0.000152804               0.000426463               0.999999994              -0.000165548               0.000453189               0.999999994              -0.000178713               0.000480315               0.999999994              -0.000192190               0.000507417               0.999999994              -0.000205803               0.000534296               0.999999994              -0.000064516               0.000305229               0.999999994              -0.000056221               0.000269547               0.999999994              -0.000054743               0.000265270               0.999999994              -0.000057772               0.000275061               0.999999994              -0.000063852               0.000292324               0.999999994              -0.000071853               0.000313742               0.999999994              -0.000081026               0.000337807               0.999999994              -0.000091075               0.000363704               0.999999994              -0.000101905               0.000391053               0.999999994              -0.000113502               0.000419498               0.999999994              -0.000125776               0.000448761               0.999999994              -0.000138640               0.000478925               0.999999994              -0.000152044               0.000509948               0.999999994              -0.000165849               0.000541653               0.999999994              -0.000179906               0.000573607               0.999999994              -0.000193996               0.000605460               0.999999994              -0.000207919               0.000636871               0.999999994              -0.000058861               0.000347717               0.999999994              -0.000043548               0.000309574               0.999999994              -0.000041447               0.000306573               0.999999994              -0.000045880               0.000319027               0.999999994              -0.000053778               0.000339663               0.999999994              -0.000063526               0.000364685               0.999999994              -0.000074256               0.000392545               0.999999994              -0.000085752               0.000422443               0.999999994              -0.000098076               0.000453946               0.999999994              -0.000111038               0.000486759               0.999999994              -0.000124616               0.000520473               0.999999994              -0.000138822               0.000555274               0.999999994              -0.000153465               0.000590833               0.999999994              -0.000168286               0.000626752               0.999999994              -0.000183069               0.000662743               0.999999994              -0.000197520               0.000698347               0.999999994              -0.000211523               0.000733428               0.999999994              -0.000053010               0.000386089               0.999999994              -0.000031268               0.000347744               0.999999994              -0.000029837               0.000346098               0.999999994              -0.000036012               0.000361103               0.999999994              -0.000045804               0.000385005               0.999999994              -0.000057178               0.000413656               0.999999994              -0.000069484               0.000445270               0.999999994              -0.000082516               0.000479123               0.999999994              -0.000096156               0.000514730               0.999999994              -0.000110387               0.000551778               0.999999994              -0.000125257               0.000589878               0.999999994              -0.000140663               0.000628882               0.999999994              -0.000156287               0.000668424               0.999999994              -0.000171821               0.000707955               0.999999994              -0.000186943               0.000747195               0.999999994              -0.000201678               0.000786016               0.999999994              -0.000216131               0.000824347               0.999999994              -0.000047663               0.000421667               0.999999994              -0.000022182               0.000387552               0.999999994              -0.000018875               0.000382754               0.999999994              -0.000023750               0.000393732               0.999999994              -0.000032463               0.000413731               0.999999994              -0.000042928               0.000439013               0.999999994              -0.000054190               0.000467527               0.999999994              -0.000065935               0.000498365               0.999999994              -0.000078056               0.000530920               0.999999994              -0.000090585               0.000564893               0.999999994              -0.000103569               0.000599933               0.999999994              -0.000116898               0.000635912               0.999999994              -0.000130578               0.000672604               0.999999994              -0.000144333               0.000709646               0.999999994              -0.000157818               0.000746731               0.999999994              -0.000170943               0.000783602               0.999999994              -0.000183933               0.000820184               0.999999994              -0.000041773               0.000453528               0.999999994              -0.000014869               0.000425260               0.999999994              -0.000009642               0.000419491               0.999999994              -0.000012864               0.000427456               0.999999994              -0.000020248               0.000443961               0.999999994              -0.000029485               0.000466048               0.999999994              -0.000039504               0.000491745               0.999999994              -0.000049921               0.000519884               0.999999994              -0.000060610               0.000549784               0.999999994              -0.000071511               0.000580924               0.999999994              -0.000082601               0.000613200               0.999999994              -0.000093749               0.000646310               0.999999994              -0.000105126               0.000680306               0.999999994              -0.000116546               0.000714831               0.999999994              -0.000127785               0.000749651               0.999999994              -0.000138601               0.000784413               0.999999994              -0.000149034               0.000819175               0.999999994              -0.000035453               0.000481198               0.999999994              -0.000009254               0.000459923               0.999999994              -0.000002621               0.000454780               0.999999994              -0.000004267               0.000460878               0.999999994              -0.000010032               0.000474768               0.999999994              -0.000017644               0.000494101               0.999999994              -0.000026213               0.000517220               0.999999994              -0.000035248               0.000542954               0.999999994              -0.000044476               0.000570562               0.999999994              -0.000053689               0.000599526               0.999999994              -0.000062833               0.000629491               0.999999994              -0.000071821               0.000660309               0.999999994              -0.000080719               0.000691873               0.999999994              -0.000089557               0.000724081               0.999999994              -0.000098159               0.000756733               0.999999994              -0.000106158               0.000789547               0.999999994              -0.000113208               0.000822455               0.999999994              -0.000028783               0.000504255               0.999999994              -0.000005336               0.000490251               0.999999994               0.000001814               0.000486893               0.999999994               0.000001570               0.000492375               0.999999994              -0.000002418               0.000504605               0.999999994              -0.000008258               0.000521860               0.999999994              -0.000015194               0.000542728               0.999999994              -0.000022747               0.000566422               0.999999994              -0.000030356               0.000592096               0.999999994              -0.000037843               0.000619287               0.999999994              -0.000045081               0.000647572               0.999999994              -0.000051997               0.000676723               0.999999994              -0.000058624               0.000706587               0.999999994              -0.000064967               0.000736974               0.999999994              -0.000070787               0.000767765               0.999999994              -0.000075678               0.000798969               0.999999994              -0.000079157               0.000830401               0.999999994              -0.000021844               0.000522353               0.999999994              -0.000002777               0.000515224               0.999999994               0.000003812               0.000514253               0.999999994               0.000004513               0.000519946               0.999999994               0.000002153               0.000531318               0.999999994              -0.000001991               0.000547152               0.999999994              -0.000007180               0.000566468               0.999999994              -0.000013013               0.000588559               0.999999994              -0.000018923               0.000612818               0.999999994              -0.000024660               0.000638703               0.999999994              -0.000030030               0.000665780               0.999999994              -0.000035039               0.000693799               0.999999994              -0.000039650               0.000722556               0.999999994              -0.000043815               0.000751817               0.999999994              -0.000047174               0.000781483               0.999999994              -0.000049215               0.000811533               0.999999994              -0.000049454               0.000841917               0.999999994              -0.000014675               0.000535335               0.999999994              -0.000001280               0.000533719               0.999999994               0.000003753               0.000535174               0.999999994               0.000004771               0.000541570               0.999999994               0.000003591               0.000552684               0.999999994               0.000001047               0.000567732               0.999999994              -0.000002399               0.000586045               0.999999994              -0.000006444               0.000607124               0.999999994              -0.000010523               0.000630400               0.999999994              -0.000014416               0.000655399               0.999999994              -0.000017988               0.000681751               0.999999994              -0.000021267               0.000709154               0.999999994              -0.000024132               0.000737391               0.999999994              -0.000026461               0.000766242               0.999999994              -0.000027995               0.000795595               0.999999994              -0.000028190               0.000825272               0.999999994              -0.000026418               0.000855142               0.999999994              -0.000007371               0.000543144               0.999999994              -0.000000488               0.000545038               0.999999994               0.000002252               0.000548272               0.999999994               0.000002931               0.000555421               0.999999994               0.000002496               0.000566546               0.999999994               0.000001337               0.000581233               0.999999994              -0.000000389               0.000599024               0.999999994              -0.000002496               0.000619511               0.999999994              -0.000004638               0.000642346               0.999999994              -0.000006619               0.000667059               0.999999994              -0.000008420               0.000693150               0.999999994              -0.000009960               0.000720358               0.999999994              -0.000011272               0.000748528               0.999999994              -0.000012253               0.000777402               0.999999994              -0.000012738               0.000806779               0.999999994              -0.000012422               0.000836520               0.999999994              -0.000010745               0.000866384               0.999999994              -0.000000000               0.000545759               0.999999994               0.000000000               0.000548902               0.999999994               0.000000000               0.000552777               0.999999994               0.000000000               0.000560196               0.999999994               0.000000000               0.000571419               0.999999994              -0.000000000               0.000585984               0.999999994               0.000000000               0.000603564               0.999999994               0.000000000               0.000623918               0.999999994               0.000000000               0.000646639               0.999999994               0.000000000               0.000671267               0.999999994              -0.000000000               0.000697383               0.999999994               0.000000000               0.000724627               0.999999994               0.000000000               0.000752783               0.999999994               0.000000000               0.000781680               0.999999994              -0.000000000               0.000811085               0.999999994              -0.000000000               0.000840891               0.999999994              -0.000000000               0.000870848               0.999999994              -0.000081430               0.000000000               0.999999994              -0.000103002              -0.000000000               0.999999994              -0.000113114              -0.000000000               0.999999994              -0.000118913              -0.000000000               0.999999994              -0.000123228              -0.000000000               0.999999994              -0.000127403               0.000000000               0.999999994              -0.000132095               0.000000000               0.999999994              -0.000137504               0.000000000               0.999999994              -0.000143761              -0.000000000               0.999999994              -0.000150874               0.000000000               0.999999994              -0.000158896               0.000000000               0.999999994              -0.000167770               0.000000000               0.999999994              -0.000177427               0.000000000               0.999999994              -0.000187825               0.000000000               0.999999994              -0.000198903               0.000000000               0.999999994              -0.000210569               0.000000000               0.999999994              -0.000222690               0.000000000               0.999999994              -0.000080919              -0.000054157               0.999999994              -0.000101470              -0.000047258               0.999999994              -0.000110997              -0.000045188               0.999999994              -0.000116487              -0.000045741               0.999999994              -0.000120743              -0.000047829               0.999999994              -0.000124942              -0.000050954               0.999999994              -0.000129643              -0.000054704               0.999999994              -0.000135113              -0.000058934               0.999999994              -0.000141431              -0.000063510               0.999999994              -0.000148620              -0.000068345               0.999999994              -0.000156689              -0.000073326               0.999999994              -0.000165538              -0.000078421               0.999999994              -0.000175142              -0.000083534               0.999999994              -0.000185486              -0.000088517               0.999999994              -0.000196507              -0.000093265               0.999999994              -0.000208156              -0.000097622               0.999999994              -0.000220347              -0.000101402               0.999999994              -0.000079425              -0.000107752               0.999999994              -0.000096916              -0.000094039               0.999999994              -0.000104716              -0.000090209               0.999999994              -0.000109351              -0.000091535               0.999999994              -0.000113284              -0.000095983               0.999999994              -0.000117513              -0.000102392               0.999999994              -0.000122418              -0.000110133               0.999999994              -0.000128162              -0.000118761               0.999999994              -0.000134749              -0.000128008               0.999999994              -0.000142142              -0.000137717               0.999999994              -0.000150353              -0.000147727               0.999999994              -0.000159255              -0.000157999               0.999999994              -0.000168854              -0.000168392               0.999999994              -0.000179166              -0.000178697               0.999999994              -0.000190163              -0.000188776               0.999999994              -0.000201871              -0.000198358               0.999999994              -0.000214252              -0.000207187               0.999999994              -0.000077014              -0.000160205               0.999999994              -0.000089630              -0.000139904               0.999999994              -0.000094891              -0.000134922               0.999999994              -0.000098435              -0.000137580               0.999999994              -0.000102087              -0.000144770               0.999999994              -0.000106521              -0.000154799               0.999999994              -0.000111916              -0.000166705               0.999999994              -0.000118251              -0.000179780               0.999999994              -0.000125431              -0.000193720               0.999999994              -0.000133366              -0.000208270               0.999999994              -0.000142059              -0.000223336               0.999999994              -0.000151445              -0.000238800               0.999999994              -0.000161504              -0.000254596               0.999999994              -0.000172238              -0.000270462               0.999999994              -0.000183655              -0.000286322               0.999999994              -0.000195792              -0.000301962               0.999999994              -0.000208594              -0.000317154               0.999999994              -0.000073708              -0.000210951               0.999999994              -0.000080018              -0.000184555               0.999999994              -0.000082551              -0.000179118               0.999999994              -0.000085206              -0.000183796               0.999999994              -0.000089030              -0.000194089               0.999999994              -0.000094195              -0.000207954               0.999999994              -0.000100519              -0.000224049               0.999999994              -0.000107798              -0.000241559               0.999999994              -0.000115953              -0.000260146               0.999999994              -0.000124888              -0.000279487               0.999999994              -0.000134550              -0.000299433               0.999999994              -0.000144935              -0.000319974               0.999999994              -0.000155988              -0.000341003               0.999999994              -0.000167666              -0.000362424               0.999999994              -0.000179988              -0.000384048               0.999999994              -0.000192816              -0.000405694               0.999999994              -0.000206042              -0.000427051               0.999999994              -0.000069513              -0.000259459               0.999999994              -0.000068629              -0.000227827               0.999999994              -0.000068824              -0.000222632               0.999999994              -0.000071242              -0.000229757               0.999999994              -0.000075877              -0.000243518               0.999999994              -0.000082321              -0.000261235               0.999999994              -0.000089934              -0.000281380               0.999999994              -0.000098474              -0.000303177               0.999999994              -0.000107895              -0.000326229               0.999999994              -0.000118106              -0.000350225               0.999999994              -0.000129053              -0.000374878               0.999999994              -0.000140616              -0.000400341               0.999999994              -0.000152804              -0.000426463               0.999999994              -0.000165548              -0.000453189               0.999999994              -0.000178713              -0.000480315               0.999999994              -0.000192190              -0.000507417               0.999999994              -0.000205803              -0.000534296               0.999999994              -0.000064516              -0.000305229               0.999999994              -0.000056221              -0.000269547               0.999999994              -0.000054743              -0.000265270               0.999999994              -0.000057772              -0.000275061               0.999999994              -0.000063852              -0.000292324               0.999999994              -0.000071853              -0.000313742               0.999999994              -0.000081026              -0.000337807               0.999999994              -0.000091075              -0.000363704               0.999999994              -0.000101905              -0.000391053               0.999999994              -0.000113502              -0.000419498               0.999999994              -0.000125776              -0.000448761               0.999999994              -0.000138640              -0.000478925               0.999999994              -0.000152044              -0.000509948               0.999999994              -0.000165849              -0.000541653               0.999999994              -0.000179906              -0.000573607               0.999999994              -0.000193996              -0.000605460               0.999999994              -0.000207919              -0.000636871               0.999999994              -0.000058861              -0.000347717               0.999999994              -0.000043548              -0.000309574               0.999999994              -0.000041447              -0.000306573               0.999999994              -0.000045880              -0.000319027               0.999999994              -0.000053778              -0.000339663               0.999999994              -0.000063526              -0.000364685               0.999999994              -0.000074256              -0.000392545               0.999999994              -0.000085752              -0.000422443               0.999999994              -0.000098076              -0.000453946               0.999999994              -0.000111038              -0.000486759               0.999999994              -0.000124616              -0.000520473               0.999999994              -0.000138822              -0.000555274               0.999999994              -0.000153465              -0.000590833               0.999999994              -0.000168286              -0.000626752               0.999999994              -0.000183069              -0.000662743               0.999999994              -0.000197520              -0.000698347               0.999999994              -0.000211523              -0.000733428               0.999999994              -0.000053010              -0.000386089               0.999999994              -0.000031268              -0.000347744               0.999999994              -0.000029837              -0.000346098               0.999999994              -0.000036012              -0.000361103               0.999999994              -0.000045804              -0.000385005               0.999999994              -0.000057178              -0.000413656               0.999999994              -0.000069484              -0.000445270               0.999999994              -0.000082516              -0.000479123               0.999999994              -0.000096156              -0.000514730               0.999999994              -0.000110387              -0.000551778               0.999999994              -0.000125257              -0.000589878               0.999999994              -0.000140663              -0.000628882               0.999999994              -0.000156287              -0.000668424               0.999999994              -0.000171821              -0.000707955               0.999999994              -0.000186943              -0.000747195               0.999999994              -0.000201678              -0.000786016               0.999999994              -0.000216131              -0.000824347               0.999999994              -0.000047663              -0.000421667               0.999999994              -0.000022182              -0.000387552               0.999999994              -0.000018875              -0.000382754               0.999999994              -0.000023750              -0.000393732               0.999999994              -0.000032463              -0.000413731               0.999999994              -0.000042928              -0.000439013               0.999999994              -0.000054190              -0.000467527               0.999999994              -0.000065935              -0.000498365               0.999999994              -0.000078056              -0.000530920               0.999999994              -0.000090585              -0.000564893               0.999999994              -0.000103569              -0.000599933               0.999999994              -0.000116898              -0.000635912               0.999999994              -0.000130578              -0.000672604               0.999999994              -0.000144333              -0.000709646               0.999999994              -0.000157818              -0.000746731               0.999999994              -0.000170943              -0.000783602               0.999999994              -0.000183933              -0.000820184               0.999999994              -0.000041773              -0.000453528               0.999999994              -0.000014869              -0.000425260               0.999999994              -0.000009642              -0.000419491               0.999999994              -0.000012864              -0.000427456               0.999999994              -0.000020248              -0.000443961               0.999999994              -0.000029485              -0.000466048               0.999999994              -0.000039504              -0.000491745               0.999999994              -0.000049921              -0.000519884               0.999999994              -0.000060610              -0.000549784               0.999999994              -0.000071511              -0.000580924               0.999999994              -0.000082601              -0.000613200               0.999999994              -0.000093749              -0.000646310               0.999999994              -0.000105126              -0.000680306               0.999999994              -0.000116546              -0.000714831               0.999999994              -0.000127785              -0.000749651               0.999999994              -0.000138601              -0.000784413               0.999999994              -0.000149034              -0.000819175               0.999999994              -0.000035453              -0.000481198               0.999999994              -0.000009254              -0.000459923               0.999999994              -0.000002621              -0.000454780               0.999999994              -0.000004267              -0.000460878               0.999999994              -0.000010032              -0.000474768               0.999999994              -0.000017644              -0.000494101               0.999999994              -0.000026213              -0.000517220               0.999999994              -0.000035248              -0.000542954               0.999999994              -0.000044476              -0.000570562               0.999999994              -0.000053689              -0.000599526               0.999999994              -0.000062833              -0.000629491               0.999999994              -0.000071821              -0.000660309               0.999999994              -0.000080719              -0.000691873               0.999999994              -0.000089557              -0.000724081               0.999999994              -0.000098159              -0.000756733               0.999999994              -0.000106158              -0.000789547               0.999999994              -0.000113208              -0.000822455               0.999999994              -0.000028783              -0.000504255               0.999999994              -0.000005336              -0.000490251               0.999999994               0.000001814              -0.000486893               0.999999994               0.000001570              -0.000492375               0.999999994              -0.000002418              -0.000504605               0.999999994              -0.000008258              -0.000521860               0.999999994              -0.000015194              -0.000542728               0.999999994              -0.000022747              -0.000566422               0.999999994              -0.000030356              -0.000592096               0.999999994              -0.000037843              -0.000619287               0.999999994              -0.000045081              -0.000647572               0.999999994              -0.000051997              -0.000676723               0.999999994              -0.000058624              -0.000706587               0.999999994              -0.000064967              -0.000736974               0.999999994              -0.000070787              -0.000767765               0.999999994              -0.000075678              -0.000798969               0.999999994              -0.000079157              -0.000830401               0.999999994              -0.000021844              -0.000522353               0.999999994              -0.000002777              -0.000515224               0.999999994               0.000003812              -0.000514253               0.999999994               0.000004513              -0.000519946               0.999999994               0.000002153              -0.000531318               0.999999994              -0.000001991              -0.000547152               0.999999994              -0.000007180              -0.000566468               0.999999994              -0.000013013              -0.000588559               0.999999994              -0.000018923              -0.000612818               0.999999994              -0.000024660              -0.000638703               0.999999994              -0.000030030              -0.000665780               0.999999994              -0.000035039              -0.000693799               0.999999994              -0.000039650              -0.000722556               0.999999994              -0.000043815              -0.000751817               0.999999994              -0.000047174              -0.000781483               0.999999994              -0.000049215              -0.000811533               0.999999994              -0.000049454              -0.000841917               0.999999994              -0.000014675              -0.000535335               0.999999994              -0.000001280              -0.000533719               0.999999994               0.000003753              -0.000535174               0.999999994               0.000004771              -0.000541570               0.999999994               0.000003591              -0.000552684               0.999999994               0.000001047              -0.000567732               0.999999994              -0.000002399              -0.000586045               0.999999994              -0.000006444              -0.000607124               0.999999994              -0.000010523              -0.000630400               0.999999994              -0.000014416              -0.000655399               0.999999994              -0.000017988              -0.000681751               0.999999994              -0.000021267              -0.000709154               0.999999994              -0.000024132              -0.000737391               0.999999994              -0.000026461              -0.000766242               0.999999994              -0.000027995              -0.000795595               0.999999994              -0.000028190              -0.000825272               0.999999994              -0.000026418              -0.000855142               0.999999994              -0.000007371              -0.000543144               0.999999994              -0.000000488              -0.000545038               0.999999994               0.000002252              -0.000548272               0.999999994               0.000002931              -0.000555421               0.999999994               0.000002496              -0.000566546               0.999999994               0.000001337              -0.000581233               0.999999994              -0.000000389              -0.000599024               0.999999994              -0.000002496              -0.000619511               0.999999994              -0.000004638              -0.000642346               0.999999994              -0.000006619              -0.000667059               0.999999994              -0.000008420              -0.000693150               0.999999994              -0.000009960              -0.000720358               0.999999994              -0.000011272              -0.000748528               0.999999994              -0.000012253              -0.000777402               0.999999994              -0.000012738              -0.000806779               0.999999994              -0.000012422              -0.000836520               0.999999994              -0.000010745              -0.000866384               0.999999994              -0.000000000              -0.000545759               0.999999994              -0.000000000              -0.000548902               0.999999994              -0.000000000              -0.000552777               0.999999994               0.000000000              -0.000560196               0.999999994              -0.000000000              -0.000571419               0.999999994               0.000000000              -0.000585984               0.999999994              -0.000000000              -0.000603564               0.999999994               0.000000000              -0.000623918               0.999999994               0.000000000              -0.000646639               0.999999994              -0.000000000              -0.000671267               0.999999994              -0.000000000              -0.000697383               0.999999994              -0.000000000              -0.000724627               0.999999994              -0.000000000              -0.000752783               0.999999994               0.000000000              -0.000781680               0.999999994               0.000000000              -0.000811085               0.999999994               0.000000000              -0.000840891               0.999999994               0.000000000              -0.000870848               0.999999994               0.000081430              -0.000000000               0.999999994               0.000103002              -0.000000000               0.999999994               0.000113114               0.000000000               0.999999994               0.000118913               0.000000000               0.999999994               0.000123228               0.000000000               0.999999994               0.000127403               0.000000000               0.999999994               0.000132095               0.000000000               0.999999994               0.000137504              -0.000000000               0.999999994               0.000143761               0.000000000               0.999999994               0.000150874               0.000000000               0.999999994               0.000158896              -0.000000000               0.999999994               0.000167770              -0.000000000               0.999999994               0.000177427              -0.000000000               0.999999994               0.000187825              -0.000000000               0.999999994               0.000198903              -0.000000000               0.999999994               0.000210569              -0.000000000               0.999999994               0.000222690              -0.000000000               0.999999994               0.000080919              -0.000054157               0.999999994               0.000101470              -0.000047258               0.999999994               0.000110997              -0.000045188               0.999999994               0.000116487              -0.000045741               0.999999994               0.000120743              -0.000047829               0.999999994               0.000124942              -0.000050954               0.999999994               0.000129643              -0.000054704               0.999999994               0.000135113              -0.000058934               0.999999994               0.000141431              -0.000063510               0.999999994               0.000148620              -0.000068345               0.999999994               0.000156689              -0.000073326               0.999999994               0.000165538              -0.000078421               0.999999994               0.000175142              -0.000083534               0.999999994               0.000185486              -0.000088517               0.999999994               0.000196507              -0.000093265               0.999999994               0.000208156              -0.000097622               0.999999994               0.000220347              -0.000101402               0.999999994               0.000079425              -0.000107752               0.999999994               0.000096916              -0.000094039               0.999999994               0.000104716              -0.000090209               0.999999994               0.000109351              -0.000091535               0.999999994               0.000113284              -0.000095983               0.999999994               0.000117513              -0.000102392               0.999999994               0.000122418              -0.000110133               0.999999994               0.000128162              -0.000118761               0.999999994               0.000134749              -0.000128008               0.999999994               0.000142142              -0.000137717               0.999999994               0.000150353              -0.000147727               0.999999994               0.000159255              -0.000157999               0.999999994               0.000168854              -0.000168392               0.999999994               0.000179166              -0.000178697               0.999999994               0.000190163              -0.000188776               0.999999994               0.000201871              -0.000198358               0.999999994               0.000214252              -0.000207187               0.999999994               0.000077014              -0.000160205               0.999999994               0.000089630              -0.000139904               0.999999994               0.000094891              -0.000134922               0.999999994               0.000098435              -0.000137580               0.999999994               0.000102087              -0.000144770               0.999999994               0.000106521              -0.000154799               0.999999994               0.000111916              -0.000166705               0.999999994               0.000118251              -0.000179780               0.999999994               0.000125431              -0.000193720               0.999999994               0.000133366              -0.000208270               0.999999994               0.000142059              -0.000223336               0.999999994               0.000151445              -0.000238800               0.999999994               0.000161504              -0.000254596               0.999999994               0.000172238              -0.000270462               0.999999994               0.000183655              -0.000286322               0.999999994               0.000195792              -0.000301962               0.999999994               0.000208594              -0.000317154               0.999999994               0.000073708              -0.000210951               0.999999994               0.000080018              -0.000184555               0.999999994               0.000082551              -0.000179118               0.999999994               0.000085206              -0.000183796               0.999999994               0.000089030              -0.000194089               0.999999994               0.000094195              -0.000207954               0.999999994               0.000100519              -0.000224049               0.999999994               0.000107798              -0.000241559               0.999999994               0.000115953              -0.000260146               0.999999994               0.000124888              -0.000279487               0.999999994               0.000134550              -0.000299433               0.999999994               0.000144935              -0.000319974               0.999999994               0.000155988              -0.000341003               0.999999994               0.000167666              -0.000362424               0.999999994               0.000179988              -0.000384048               0.999999994               0.000192816              -0.000405694               0.999999994               0.000206042              -0.000427051               0.999999994               0.000069513              -0.000259459               0.999999994               0.000068629              -0.000227827               0.999999994               0.000068824              -0.000222632               0.999999994               0.000071242              -0.000229757               0.999999994               0.000075877              -0.000243518               0.999999994               0.000082321              -0.000261235               0.999999994               0.000089934              -0.000281380               0.999999994               0.000098474              -0.000303177               0.999999994               0.000107895              -0.000326229               0.999999994               0.000118106              -0.000350225               0.999999994               0.000129053              -0.000374878               0.999999994               0.000140616              -0.000400341               0.999999994               0.000152804              -0.000426463               0.999999994               0.000165548              -0.000453189               0.999999994               0.000178713              -0.000480315               0.999999994               0.000192190              -0.000507417               0.999999994               0.000205803              -0.000534296               0.999999994               0.000064516              -0.000305229               0.999999994               0.000056221              -0.000269547               0.999999994               0.000054743              -0.000265270               0.999999994               0.000057772              -0.000275061               0.999999994               0.000063852              -0.000292324               0.999999994               0.000071853              -0.000313742               0.999999994               0.000081026              -0.000337807               0.999999994               0.000091075              -0.000363704               0.999999994               0.000101905              -0.000391053               0.999999994               0.000113502              -0.000419498               0.999999994               0.000125776              -0.000448761               0.999999994               0.000138640              -0.000478925               0.999999994               0.000152044              -0.000509948               0.999999994               0.000165849              -0.000541653               0.999999994               0.000179906              -0.000573607               0.999999994               0.000193996              -0.000605460               0.999999994               0.000207919              -0.000636871               0.999999994               0.000058861              -0.000347717               0.999999994               0.000043548              -0.000309574               0.999999994               0.000041447              -0.000306573               0.999999994               0.000045880              -0.000319027               0.999999994               0.000053778              -0.000339663               0.999999994               0.000063526              -0.000364685               0.999999994               0.000074256              -0.000392545               0.999999994               0.000085752              -0.000422443               0.999999994               0.000098076              -0.000453946               0.999999994               0.000111038              -0.000486759               0.999999994               0.000124616              -0.000520473               0.999999994               0.000138822              -0.000555274               0.999999994               0.000153465              -0.000590833               0.999999994               0.000168286              -0.000626752               0.999999994               0.000183069              -0.000662743               0.999999994               0.000197520              -0.000698347               0.999999994               0.000211523              -0.000733428               0.999999994               0.000053010              -0.000386089               0.999999994               0.000031268              -0.000347744               0.999999994               0.000029837              -0.000346098               0.999999994               0.000036012              -0.000361103               0.999999994               0.000045804              -0.000385005               0.999999994               0.000057178              -0.000413656               0.999999994               0.000069484              -0.000445270               0.999999994               0.000082516              -0.000479123               0.999999994               0.000096156              -0.000514730               0.999999994               0.000110387              -0.000551778               0.999999994               0.000125257              -0.000589878               0.999999994               0.000140663              -0.000628882               0.999999994               0.000156287              -0.000668424               0.999999994               0.000171821              -0.000707955               0.999999994               0.000186943              -0.000747195               0.999999994               0.000201678              -0.000786016               0.999999994               0.000216131              -0.000824347               0.999999994               0.000047663              -0.000421667               0.999999994               0.000022182              -0.000387552               0.999999994               0.000018875              -0.000382754               0.999999994               0.000023750              -0.000393732               0.999999994               0.000032463              -0.000413731               0.999999994               0.000042928              -0.000439013               0.999999994               0.000054190              -0.000467527               0.999999994               0.000065935              -0.000498365               0.999999994               0.000078056              -0.000530920               0.999999994               0.000090585              -0.000564893               0.999999994               0.000103569              -0.000599933               0.999999994               0.000116898              -0.000635912               0.999999994               0.000130578              -0.000672604               0.999999994               0.000144333              -0.000709646               0.999999994               0.000157818              -0.000746731               0.999999994               0.000170943              -0.000783602               0.999999994               0.000183933              -0.000820184               0.999999994               0.000041773              -0.000453528               0.999999994               0.000014869              -0.000425260               0.999999994               0.000009642              -0.000419491               0.999999994               0.000012864              -0.000427456               0.999999994               0.000020248              -0.000443961               0.999999994               0.000029485              -0.000466048               0.999999994               0.000039504              -0.000491745               0.999999994               0.000049921              -0.000519884               0.999999994               0.000060610              -0.000549784               0.999999994               0.000071511              -0.000580924               0.999999994               0.000082601              -0.000613200               0.999999994               0.000093749              -0.000646310               0.999999994               0.000105126              -0.000680306               0.999999994               0.000116546              -0.000714831               0.999999994               0.000127785              -0.000749651               0.999999994               0.000138601              -0.000784413               0.999999994               0.000149034              -0.000819175               0.999999994               0.000035453              -0.000481198               0.999999994               0.000009254              -0.000459923               0.999999994               0.000002621              -0.000454780               0.999999994               0.000004267              -0.000460878               0.999999994               0.000010032              -0.000474768               0.999999994               0.000017644              -0.000494101               0.999999994               0.000026213              -0.000517220               0.999999994               0.000035248              -0.000542954               0.999999994               0.000044476              -0.000570562               0.999999994               0.000053689              -0.000599526               0.999999994               0.000062833              -0.000629491               0.999999994               0.000071821              -0.000660309               0.999999994               0.000080719              -0.000691873               0.999999994               0.000089557              -0.000724081               0.999999994               0.000098159              -0.000756733               0.999999994               0.000106158              -0.000789547               0.999999994               0.000113208              -0.000822455               0.999999994               0.000028783              -0.000504255               0.999999994               0.000005336              -0.000490251               0.999999994              -0.000001814              -0.000486893               0.999999994              -0.000001570              -0.000492375               0.999999994               0.000002418              -0.000504605               0.999999994               0.000008258              -0.000521860               0.999999994               0.000015194              -0.000542728               0.999999994               0.000022747              -0.000566422               0.999999994               0.000030356              -0.000592096               0.999999994               0.000037843              -0.000619287               0.999999994               0.000045081              -0.000647572               0.999999994               0.000051997              -0.000676723               0.999999994               0.000058624              -0.000706587               0.999999994               0.000064967              -0.000736974               0.999999994               0.000070787              -0.000767765               0.999999994               0.000075678              -0.000798969               0.999999994               0.000079157              -0.000830401               0.999999994               0.000021844              -0.000522353               0.999999994               0.000002777              -0.000515224               0.999999994              -0.000003812              -0.000514253               0.999999994              -0.000004513              -0.000519946               0.999999994              -0.000002153              -0.000531318               0.999999994               0.000001991              -0.000547152               0.999999994               0.000007180              -0.000566468               0.999999994               0.000013013              -0.000588559               0.999999994               0.000018923              -0.000612818               0.999999994               0.000024660              -0.000638703               0.999999994               0.000030030              -0.000665780               0.999999994               0.000035039              -0.000693799               0.999999994               0.000039650              -0.000722556               0.999999994               0.000043815              -0.000751817               0.999999994               0.000047174              -0.000781483               0.999999994               0.000049215              -0.000811533               0.999999994               0.000049454              -0.000841917               0.999999994               0.000014675              -0.000535335               0.999999994               0.000001280              -0.000533719               0.999999994              -0.000003753              -0.000535174               0.999999994              -0.000004771              -0.000541570               0.999999994              -0.000003591              -0.000552684               0.999999994              -0.000001047              -0.000567732               0.999999994               0.000002399              -0.000586045               0.999999994               0.000006444              -0.000607124               0.999999994               0.000010523              -0.000630400               0.999999994               0.000014416              -0.000655399               0.999999994               0.000017988              -0.000681751               0.999999994               0.000021267              -0.000709154               0.999999994               0.000024132              -0.000737391               0.999999994               0.000026461              -0.000766242               0.999999994               0.000027995              -0.000795595               0.999999994               0.000028190              -0.000825272               0.999999994               0.000026418              -0.000855142               0.999999994               0.000007371              -0.000543144               0.999999994               0.000000488              -0.000545038               0.999999994              -0.000002252              -0.000548272               0.999999994              -0.000002931              -0.000555421               0.999999994              -0.000002496              -0.000566546               0.999999994              -0.000001337              -0.000581233               0.999999994               0.000000389              -0.000599024               0.999999994               0.000002496              -0.000619511               0.999999994               0.000004638              -0.000642346               0.999999994               0.000006619              -0.000667059               0.999999994               0.000008420              -0.000693150               0.999999994               0.000009960              -0.000720358               0.999999994               0.000011272              -0.000748528               0.999999994               0.000012253              -0.000777402               0.999999994               0.000012738              -0.000806779               0.999999994               0.000012422              -0.000836520               0.999999994               0.000010745              -0.000866384               0.999999994              -0.000000000              -0.000545759               0.999999994              -0.000000000              -0.000548902               0.999999994              -0.000000000              -0.000552777               0.999999994               0.000000000              -0.000560196               0.999999994              -0.000000000              -0.000571419               0.999999994               0.000000000              -0.000585984               0.999999994              -0.000000000              -0.000603564               0.999999994               0.000000000              -0.000623918               0.999999994               0.000000000              -0.000646639               0.999999994              -0.000000000              -0.000671267               0.999999994              -0.000000000              -0.000697383               0.999999994              -0.000000000              -0.000724627               0.999999994              -0.000000000              -0.000752783               0.999999994               0.000000000              -0.000781680               0.999999994               0.000000000              -0.000811085               0.999999994               0.000000000              -0.000840891               0.999999994               0.000000000              -0.000870848               0.999999994               0.000081430              -0.000000000               0.999999994               0.000103002              -0.000000000               0.999999994               0.000113114               0.000000000               0.999999994               0.000118913               0.000000000               0.999999994               0.000123228               0.000000000               0.999999994               0.000127403               0.000000000               0.999999994               0.000132095               0.000000000               0.999999994               0.000137504              -0.000000000               0.999999994               0.000143761               0.000000000               0.999999994               0.000150874               0.000000000               0.999999994               0.000158896              -0.000000000               0.999999994               0.000167770              -0.000000000               0.999999994               0.000177427              -0.000000000               0.999999994               0.000187825              -0.000000000               0.999999994               0.000198903              -0.000000000               0.999999994               0.000210569              -0.000000000               0.999999994               0.000222690              -0.000000000               0.999999994               0.000080919               0.000054157               0.999999994               0.000101470               0.000047258               0.999999994               0.000110997               0.000045188               0.999999994               0.000116487               0.000045741               0.999999994               0.000120743               0.000047829               0.999999994               0.000124942               0.000050954               0.999999994               0.000129643               0.000054704               0.999999994               0.000135113               0.000058934               0.999999994               0.000141431               0.000063510               0.999999994               0.000148620               0.000068345               0.999999994               0.000156689               0.000073326               0.999999994               0.000165538               0.000078421               0.999999994               0.000175142               0.000083534               0.999999994               0.000185486               0.000088517               0.999999994               0.000196507               0.000093265               0.999999994               0.000208156               0.000097622               0.999999994               0.000220347               0.000101402               0.999999994               0.000079425               0.000107752               0.999999994               0.000096916               0.000094039               0.999999994               0.000104716               0.000090209               0.999999994               0.000109351               0.000091535               0.999999994               0.000113284               0.000095983               0.999999994               0.000117513               0.000102392               0.999999994               0.000122418               0.000110133               0.999999994               0.000128162               0.000118761               0.999999994               0.000134749               0.000128008               0.999999994               0.000142142               0.000137717               0.999999994               0.000150353               0.000147727               0.999999994               0.000159255               0.000157999               0.999999994               0.000168854               0.000168392               0.999999994               0.000179166               0.000178697               0.999999994               0.000190163               0.000188776               0.999999994               0.000201871               0.000198358               0.999999994               0.000214252               0.000207187               0.999999994               0.000077014               0.000160205               0.999999994               0.000089630               0.000139904               0.999999994               0.000094891               0.000134922               0.999999994               0.000098435               0.000137580               0.999999994               0.000102087               0.000144770               0.999999994               0.000106521               0.000154799               0.999999994               0.000111916               0.000166705               0.999999994               0.000118251               0.000179780               0.999999994               0.000125431               0.000193720               0.999999994               0.000133366               0.000208270               0.999999994               0.000142059               0.000223336               0.999999994               0.000151445               0.000238800               0.999999994               0.000161504               0.000254596               0.999999994               0.000172238               0.000270462               0.999999994               0.000183655               0.000286322               0.999999994               0.000195792               0.000301962               0.999999994               0.000208594               0.000317154               0.999999994               0.000073708               0.000210951               0.999999994               0.000080018               0.000184555               0.999999994               0.000082551               0.000179118               0.999999994               0.000085206               0.000183796               0.999999994               0.000089030               0.000194089               0.999999994               0.000094195               0.000207954               0.999999994               0.000100519               0.000224049               0.999999994               0.000107798               0.000241559               0.999999994               0.000115953               0.000260146               0.999999994               0.000124888               0.000279487               0.999999994               0.000134550               0.000299433               0.999999994               0.000144935               0.000319974               0.999999994               0.000155988               0.000341003               0.999999994               0.000167666               0.000362424               0.999999994               0.000179988               0.000384048               0.999999994               0.000192816               0.000405694               0.999999994               0.000206042               0.000427051               0.999999994               0.000069513               0.000259459               0.999999994               0.000068629               0.000227827               0.999999994               0.000068824               0.000222632               0.999999994               0.000071242               0.000229757               0.999999994               0.000075877               0.000243518               0.999999994               0.000082321               0.000261235               0.999999994               0.000089934               0.000281380               0.999999994               0.000098474               0.000303177               0.999999994               0.000107895               0.000326229               0.999999994               0.000118106               0.000350225               0.999999994               0.000129053               0.000374878               0.999999994               0.000140616               0.000400341               0.999999994               0.000152804               0.000426463               0.999999994               0.000165548               0.000453189               0.999999994               0.000178713               0.000480315               0.999999994               0.000192190               0.000507417               0.999999994               0.000205803               0.000534296               0.999999994               0.000064516               0.000305229               0.999999994               0.000056221               0.000269547               0.999999994               0.000054743               0.000265270               0.999999994               0.000057772               0.000275061               0.999999994               0.000063852               0.000292324               0.999999994               0.000071853               0.000313742               0.999999994               0.000081026               0.000337807               0.999999994               0.000091075               0.000363704               0.999999994               0.000101905               0.000391053               0.999999994               0.000113502               0.000419498               0.999999994               0.000125776               0.000448761               0.999999994               0.000138640               0.000478925               0.999999994               0.000152044               0.000509948               0.999999994               0.000165849               0.000541653               0.999999994               0.000179906               0.000573607               0.999999994               0.000193996               0.000605460               0.999999994               0.000207919               0.000636871               0.999999994               0.000058861               0.000347717               0.999999994               0.000043548               0.000309574               0.999999994               0.000041447               0.000306573               0.999999994               0.000045880               0.000319027               0.999999994               0.000053778               0.000339663               0.999999994               0.000063526               0.000364685               0.999999994               0.000074256               0.000392545               0.999999994               0.000085752               0.000422443               0.999999994               0.000098076               0.000453946               0.999999994               0.000111038               0.000486759               0.999999994               0.000124616               0.000520473               0.999999994               0.000138822               0.000555274               0.999999994               0.000153465               0.000590833               0.999999994               0.000168286               0.000626752               0.999999994               0.000183069               0.000662743               0.999999994               0.000197520               0.000698347               0.999999994               0.000211523               0.000733428               0.999999994               0.000053010               0.000386089               0.999999994               0.000031268               0.000347744               0.999999994               0.000029837               0.000346098               0.999999994               0.000036012               0.000361103               0.999999994               0.000045804               0.000385005               0.999999994               0.000057178               0.000413656               0.999999994               0.000069484               0.000445270               0.999999994               0.000082516               0.000479123               0.999999994               0.000096156               0.000514730               0.999999994               0.000110387               0.000551778               0.999999994               0.000125257               0.000589878               0.999999994               0.000140663               0.000628882               0.999999994               0.000156287               0.000668424               0.999999994               0.000171821               0.000707955               0.999999994               0.000186943               0.000747195               0.999999994               0.000201678               0.000786016               0.999999994               0.000216131               0.000824347               0.999999994               0.000047663               0.000421667               0.999999994               0.000022182               0.000387552               0.999999994               0.000018875               0.000382754               0.999999994               0.000023750               0.000393732               0.999999994               0.000032463               0.000413731               0.999999994               0.000042928               0.000439013               0.999999994               0.000054190               0.000467527               0.999999994               0.000065935               0.000498365               0.999999994               0.000078056               0.000530920               0.999999994               0.000090585               0.000564893               0.999999994               0.000103569               0.000599933               0.999999994               0.000116898               0.000635912               0.999999994               0.000130578               0.000672604               0.999999994               0.000144333               0.000709646               0.999999994               0.000157818               0.000746731               0.999999994               0.000170943               0.000783602               0.999999994               0.000183933               0.000820184               0.999999994               0.000041773               0.000453528               0.999999994               0.000014869               0.000425260               0.999999994               0.000009642               0.000419491               0.999999994               0.000012864               0.000427456               0.999999994               0.000020248               0.000443961               0.999999994               0.000029485               0.000466048               0.999999994               0.000039504               0.000491745               0.999999994               0.000049921               0.000519884               0.999999994               0.000060610               0.000549784               0.999999994               0.000071511               0.000580924               0.999999994               0.000082601               0.000613200               0.999999994               0.000093749               0.000646310               0.999999994               0.000105126               0.000680306               0.999999994               0.000116546               0.000714831               0.999999994               0.000127785               0.000749651               0.999999994               0.000138601               0.000784413               0.999999994               0.000149034               0.000819175               0.999999994               0.000035453               0.000481198               0.999999994               0.000009254               0.000459923               0.999999994               0.000002621               0.000454780               0.999999994               0.000004267               0.000460878               0.999999994               0.000010032               0.000474768               0.999999994               0.000017644               0.000494101               0.999999994               0.000026213               0.000517220               0.999999994               0.000035248               0.000542954               0.999999994               0.000044476               0.000570562               0.999999994               0.000053689               0.000599526               0.999999994               0.000062833               0.000629491               0.999999994               0.000071821               0.000660309               0.999999994               0.000080719               0.000691873               0.999999994               0.000089557               0.000724081               0.999999994               0.000098159               0.000756733               0.999999994               0.000106158               0.000789547               0.999999994               0.000113208               0.000822455               0.999999994               0.000028783               0.000504255               0.999999994               0.000005336               0.000490251               0.999999994              -0.000001814               0.000486893               0.999999994              -0.000001570               0.000492375               0.999999994               0.000002418               0.000504605               0.999999994               0.000008258               0.000521860               0.999999994               0.000015194               0.000542728               0.999999994               0.000022747               0.000566422               0.999999994               0.000030356               0.000592096               0.999999994               0.000037843               0.000619287               0.999999994               0.000045081               0.000647572               0.999999994               0.000051997               0.000676723               0.999999994               0.000058624               0.000706587               0.999999994               0.000064967               0.000736974               0.999999994               0.000070787               0.000767765               0.999999994               0.000075678               0.000798969               0.999999994               0.000079157               0.000830401               0.999999994               0.000021844               0.000522353               0.999999994               0.000002777               0.000515224               0.999999994              -0.000003812               0.000514253               0.999999994              -0.000004513               0.000519946               0.999999994              -0.000002153               0.000531318               0.999999994               0.000001991               0.000547152               0.999999994               0.000007180               0.000566468               0.999999994               0.000013013               0.000588559               0.999999994               0.000018923               0.000612818               0.999999994               0.000024660               0.000638703               0.999999994               0.000030030               0.000665780               0.999999994               0.000035039               0.000693799               0.999999994               0.000039650               0.000722556               0.999999994               0.000043815               0.000751817               0.999999994               0.000047174               0.000781483               0.999999994               0.000049215               0.000811533               0.999999994               0.000049454               0.000841917               0.999999994               0.000014675               0.000535335               0.999999994               0.000001280               0.000533719               0.999999994              -0.000003753               0.000535174               0.999999994              -0.000004771               0.000541570               0.999999994              -0.000003591               0.000552684               0.999999994              -0.000001047               0.000567732               0.999999994               0.000002399               0.000586045               0.999999994               0.000006444               0.000607124               0.999999994               0.000010523               0.000630400               0.999999994               0.000014416               0.000655399               0.999999994               0.000017988               0.000681751               0.999999994               0.000021267               0.000709154               0.999999994               0.000024132               0.000737391               0.999999994               0.000026461               0.000766242               0.999999994               0.000027995               0.000795595               0.999999994               0.000028190               0.000825272               0.999999994               0.000026418               0.000855142               0.999999994               0.000007371               0.000543144               0.999999994               0.000000488               0.000545038               0.999999994              -0.000002252               0.000548272               0.999999994              -0.000002931               0.000555421               0.999999994              -0.000002496               0.000566546               0.999999994              -0.000001337               0.000581233               0.999999994               0.000000389               0.000599024               0.999999994               0.000002496               0.000619511               0.999999994               0.000004638               0.000642346               0.999999994               0.000006619               0.000667059               0.999999994               0.000008420               0.000693150               0.999999994               0.000009960               0.000720358               0.999999994               0.000011272               0.000748528               0.999999994               0.000012253               0.000777402               0.999999994               0.000012738               0.000806779               0.999999994               0.000012422               0.000836520               0.999999994               0.000010745               0.000866384               0.999999994              -0.000000000               0.000545759               0.999999994               0.000000000               0.000548902               0.999999994               0.000000000               0.000552777               0.999999994               0.000000000               0.000560196               0.999999994               0.000000000               0.000571419               0.999999994              -0.000000000               0.000585984               0.999999994               0.000000000               0.000603564               0.999999994               0.000000000               0.000623918               0.999999994               0.000000000               0.000646639               0.999999994               0.000000000               0.000671267               0.999999994              -0.000000000               0.000697383               0.999999994               0.000000000               0.000724627               0.999999994               0.000000000               0.000752783               0.999999994               0.000000000               0.000781680               0.999999994              -0.000000000               0.000811085               0.999999994              -0.000000000               0.000840891               0.999999994              -0.000000000               0.000870848               0.999999994 </DataArray>
<DataArray type="Float64"                                    Name="defo"                                                      NumberOfComponents=" 3" format="ascii">
             -0.000081430               0.000000000               0.999999994              -0.000103002              -0.000000000               0.999999994              -0.000113114              -0.000000000               0.999999994              -0.000118913              -0.000000000               0.999999994              -0.000123228              -0.000000000               0.999999994              -0.000127403               0.000000000               0.999999994              -0.000132095               0.000000000               0.999999994              -0.000137504               0.000000000               0.999999994              -0.000143761              -0.000000000               0.999999994              -0.000150874               0.000000000               0.999999994              -0.000158896               0.000000000               0.999999994              -0.000167770               0.000000000               0.999999994              -0.000177427               0.000000000               0.999999994              -0.000187825               0.000000000               0.999999994              -0.000198903               0.000000000               0.999999994              -0.000210569               0.000000000               0.999999994              -0.000222690               0.000000000               0.999999994              -0.000080919               0.000054157               0.999999994              -0.000101470               0.000047258               0.999999994              -0.000110997               0.000045188               0.999999994              -0.000116487               0.000045741               0.999999994              -0.000120743               0.000047829               0.999999994              -0.000124942               0.000050954               0.999999994              -0.000129643               0.000054704               0.999999994              -0.000135113               0.000058934               0.999999994              -0.000141431               0.000063510               0.999999994              -0.000148620               0.000068345               0.999999994              -0.000156689               0.000073326               0.999999994              -0.000165538               0.000078421               0.999999994              -0.000175142               0.000083534               0.999999994              -0.000185486               0.000088517               0.999999994              -0.000196507               0.000093265               0.999999994              -0.000208156               0.000097622               0.999999994              -0.000220347               0.000101402               0.999999994              -0.000079425               0.000107752               0.999999994              -0.000096916               0.000094039               0.999999994              -0.000104716               0.000090209               0.999999994              -0.000109351               0.000091535               0.999999994              -0.000113284               0.000095983               0.999999994              -0.000117513               0.000102392               0.999999994              -0.000122418               0.000110133               0.999999994              -0.000128162               0.000118761               0.999999994              -0.000134749               0.000128008               0.999999994              -0.000142142               0.000137717               0.999999994              -0.000150353               0.000147727               0.999999994              -0.000159255               0.000157999               0.999999994              -0.000168854               0.000168392               0.999999994              -0.000179166               0.000178697               0.999999994              -0.000190163               0.000188776               0.999999994              -0.000201871               0.000198358               0.999999994              -0.000214252               0.000207187               0.999999994              -0.000077014               0.000160205               0.999999994              -0.000089630               0.000139904               0.999999994              -0.000094891               0.000134922               0.999999994              -0.000098435               0.000137580               0.999999994              -0.000102087               0.000144770               0.999999994              -0.000106521               0.000154799               0.999999994              -0.000111916               0.000166705               0.999999994              -0.000118251               0.000179780               0.999999994              -0.000125431               0.000193720               0.999999994              -0.000133366               0.000208270               0.999999994              -0.000142059               0.000223336               0.999999994              -0.000151445               0.000238800               0.999999994              -0.000161504               0.000254596               0.999999994              -0.000172238               0.000270462               0.999999994              -0.000183655               0.000286322               0.999999994              -0.000195792               0.000301962               0.999999994              -0.000208594               0.000317154               0.999999994              -0.000073708               0.000210951               0.999999994              -0.000080018               0.000184555               0.999999994              -0.000082551               0.000179118               0.999999994              -0.000085206               0.000183796               0.999999994              -0.000089030               0.000194089               0.999999994              -0.000094195               0.000207954               0.999999994              -0.000100519               0.000224049               0.999999994              -0.000107798               0.000241559               0.999999994              -0.000115953               0.000260146               0.999999994              -0.000124888               0.000279487               0.999999994              -0.000134550               0.000299433               0.999999994              -0.000144935               0.000319974               0.999999994              -0.000155988               0.000341003               0.999999994              -0.000167666               0.000362424               0.999999994              -0.000179988               0.000384048               0.999999994              -0.000192816               0.000405694               0.999999994              -0.000206042               0.000427051               0.999999994              -0.000069513               0.000259459               0.999999994              -0.000068629               0.000227827               0.999999994              -0.000068824               0.000222632               0.999999994              -0.000071242               0.000229757               0.999999994              -0.000075877               0.000243518               0.999999994              -0.000082321               0.000261235               0.999999994              -0.000089934               0.000281380               0.999999994              -0.000098474               0.000303177               0.999999994              -0.000107895               0.000326229               0.999999994              -0.000118106               0.000350225               0.999999994              -0.000129053               0.000374878               0.999999994              -0.000140616               0.000400341               0.999999994              -0.000152804               0.000426463               0.999999994              -0.000165548               0.000453189               0.999999994              -0.000178713               0.000480315               0.999999994              -0.000192190               0.000507417               0.999999994              -0.000205803               0.000534296               0.999999994              -0.000064516               0.000305229               0.999999994              -0.000056221               0.000269547               0.999999994              -0.000054743               0.000265270               0.999999994              -0.000057772               0.000275061               0.999999994              -0.000063852               0.000292324               0.999999994              -0.000071853               0.000313742               0.999999994              -0.000081026               0.000337807               0.999999994              -0.000091075               0.000363704               0.999999994              -0.000101905               0.000391053               0.999999994              -0.000113502               0.000419498               0.999999994              -0.000125776               0.000448761               0.999999994              -0.000138640               0.000478925               0.999999994              -0.000152044               0.000509948               0.999999994              -0.000165849               0.000541653               0.999999994              -0.000179906               0.000573607               0.999999994              -0.000193996               0.000605460               0.999999994              -0.000207919               0.000636871               0.999999994              -0.000058861               0.000347717               0.999999994              -0.000043548               0.000309574               0.999999994              -0.000041447               0.000306573               0.999999994              -0.000045880               0.000319027               0.999999994              -0.000053778               0.000339663               0.999999994              -0.000063526               0.000364685               0.999999994              -0.000074256               0.000392545               0.999999994              -0.000085752               0.000422443               0.999999994              -0.000098076               0.000453946               0.999999994              -0.000111038               0.000486759               0.999999994              -0.000124616               0.000520473               0.999999994              -0.000138822               0.000555274               0.999999994              -0.000153465               0.000590833               0.999999994              -0.000168286               0.000626752               0.999999994              -0.000183069               0.000662743               0.999999994              -0.000197520               0.000698347               0.999999994              -0.000211523               0.000733428               0.999999994              -0.000053010               0.000386089               0.999999994              -0.000031268               0.000347744               0.999999994              -0.000029837               0.000346098               0.999999994              -0.000036012               0.000361103               0.999999994              -0.000045804               0.000385005               0.999999994              -0.000057178               0.000413656               0.999999994              -0.000069484               0.000445270               0.999999994              -0.000082516               0.000479123               0.999999994              -0.000096156               0.000514730               0.999999994              -0.000110387               0.000551778               0.999999994              -0.000125257               0.000589878               0.999999994              -0.000140663               0.000628882               0.999999994              -0.000156287               0.000668424               0.999999994              -0.000171821               0.000707955               0.999999994              -0.000186943               0.000747195               0.999999994              -0.000201678               0.000786016               0.999999994              -0.000216131               0.000824347               0.999999994              -0.000047663               0.000421667               0.999999994              -0.000022182               0.000387552               0.999999994              -0.000018875               0.000382754               0.999999994              -0.000023750               0.000393732               0.999999994              -0.000032463               0.000413731               0.999999994              -0.000042928               0.000439013               0.999999994              -0.000054190               0.000467527               0.999999994              -0.000065935               0.000498365               0.999999994              -0.000078056               0.000530920               0.999999994              -0.000090585               0.000564893               0.999999994              -0.000103569               0.000599933               0.999999994              -0.000116898               0.000635912               0.999999994              -0.000130578               0.000672604               0.999999994              -0.000144333               0.000709646               0.999999994              -0.000157818               0.000746731               0.999999994              -0.000170943               0.000783602               0.999999994              -0.000183933               0.000820184               0.999999994              -0.000041773               0.000453528               0.999999994              -0.000014869               0.000425260               0.999999994              -0.000009642               0.000419491               0.999999994              -0.000012864               0.000427456               0.999999994              -0.000020248               0.000443961               0.999999994              -0.000029485               0.000466048               0.999999994              -0.000039504               0.000491745               0.999999994              -0.000049921               0.000519884               0.999999994              -0.000060610               0.000549784               0.999999994              -0.000071511               0.000580924               0.999999994              -0.000082601               0.000613200               0.999999994              -0.000093749               0.000646310               0.999999994              -0.000105126               0.000680306               0.999999994              -0.000116546               0.000714831               0.999999994              -0.000127785               0.000749651               0.999999994              -0.000138601               0.000784413               0.999999994              -0.000149034               0.000819175               0.999999994              -0.000035453               0.000481198               0.999999994              -0.000009254               0.000459923               0.999999994              -0.000002621               0.000454780               0.999999994              -0.000004267               0.000460878               0.999999994              -0.000010032               0.000474768               0.999999994              -0.000017644               0.000494101               0.999999994              -0.000026213               0.000517220               0.999999994              -0.000035248               0.000542954               0.999999994              -0.000044476               0.000570562               0.999999994              -0.000053689               0.000599526               0.999999994              -0.000062833               0.000629491               0.999999994              -0.000071821               0.000660309               0.999999994              -0.000080719               0.000691873               0.999999994              -0.000089557               0.000724081               0.999999994              -0.000098159               0.000756733               0.999999994              -0.000106158               0.000789547               0.999999994              -0.000113208               0.000822455               0.999999994              -0.000028783               0.000504255               0.999999994              -0.000005336               0.000490251               0.999999994               0.000001814               0.000486893               0.999999994               0.000001570               0.000492375               0.999999994              -0.000002418               0.000504605               0.999999994              -0.000008258               0.000521860               0.999999994              -0.000015194               0.000542728               0.999999994              -0.000022747               0.000566422               0.999999994              -0.000030356               0.000592096               0.999999994              -0.000037843               0.000619287               0.999999994              -0.000045081               0.000647572               0.999999994              -0.000051997               0.000676723               0.999999994              -0.000058624               0.000706587               0.999999994              -0.000064967               0.000736974               0.999999994              -0.000070787               0.000767765               0.999999994              -0.000075678               0.000798969               0.999999994              -0.000079157               0.000830401               0.999999994              -0.000021844               0.000522353               0.999999994              -0.000002777               0.000515224               0.999999994               0.000003812               0.000514253               0.999999994               0.000004513               0.000519946               0.999999994               0.000002153               0.000531318               0.999999994              -0.000001991               0.000547152               0.999999994              -0.000007180               0.000566468               0.999999994              -0.000013013               0.000588559               0.999999994              -0.000018923               0.000612818               0.999999994              -0.000024660               0.000638703               0.999999994              -0.000030030               0.000665780               0.999999994              -0.000035039               0.000693799               0.999999994              -0.000039650               0.000722556               0.999999994              -0.000043815               0.000751817               0.999999994              -0.000047174               0.000781483               0.999999994              -0.000049215               0.000811533               0.999999994              -0.000049454               0.000841917               0.999999994              -0.000014675               0.000535335               0.999999994              -0.000001280               0.000533719               0.999999994               0.000003753               0.000535174               0.999999994               0.000004771               0.000541570               0.999999994               0.000003591               0.000552684               0.999999994               0.000001047               0.000567732               0.999999994              -0.000002399               0.000586045               0.999999994              -0.000006444               0.000607124               0.999999994              -0.000010523               0.000630400               0.999999994              -0.000014416               0.000655399               0.999999994              -0.000017988               0.000681751               0.999999994              -0.000021267               0.000709154               0.999999994              -0.000024132               0.000737391               0.999999994              -0.000026461               0.000766242               0.999999994              -0.000027995               0.000795595               0.999999994              -0.000028190               0.000825272               0.999999994              -0.000026418               0.000855142               0.999999994              -0.000007371               0.000543144               0.999999994              -0.000000488               0.000545038               0.999999994               0.000002252               0.000548272               0.999999994               0.000002931               0.000555421               0.999999994               0.000002496               0.000566546               0.999999994               0.000001337               0.000581233               0.999999994              -0.000000389               0.000599024               0.999999994              -0.000002496               0.000619511               0.999999994              -0.000004638               0.000642346               0.999999994              -0.000006619               0.000667059               0.999999994              -0.000008420               0.000693150               0.999999994              -0.000009960               0.000720358               0.999999994              -0.000011272               0.000748528               0.999999994              -0.000012253               0.000777402               0.999999994              -0.000012738               0.000806779               0.999999994              -0.000012422               0.000836520               0.999999994              -0.000010745               0.000866384               0.999999994              -0.000000000               0.000545759               0.999999994               0.000000000               0.000548902               0.999999994               0.000000000               0.000552777               0.999999994               0.000000000               0.000560196               0.999999994               0.000000000               0.000571419               0.999999994              -0.000000000               0.000585984               0.999999994               0.000000000               0.000603564               0.999999994               0.000000000               0.000623918               0.999999994               0.000000000               0.000646639               0.999999994               0.000000000               0.000671267               0.999999994              -0.000000000               0.000697383               0.999999994               0.000000000               0.000724627               0.999999994               0.000000000               0.000752783               0.999999994               0.000000000               0.000781680               0.999999994              -0.000000000               0.000811085               0.999999994              -0.000000000               0.000840891               0.999999994              -0.000000000               0.000870848               0.999999994              -0.000081430               0.000000000               0.999999994              -0.000103002              -0.000000000               0.999999994              -0.000113114              -0.000000000               0.999999994              -0.000118913              -0.000000000               0.999999994              -0.000123228              -0.000000000               0.999999994              -0.000127403               0.000000000               0.999999994              -0.000132095               0.000000000               0.999999994              -0.000137504               0.000000000               0.999999994              -0.000143761              -0.000000000               0.999999994              -0.000150874               0.000000000               0.999999994              -0.000158896               0.000000000               0.999999994              -0.000167770               0.000000000               0.999999994              -0.000177427               0.000000000               0.999999994              -0.000187825               0.000000000               0.999999994              -0.000198903               0.000000000               0.999999994              -0.000210569               0.000000000               0.999999994              -0.000222690               0.000000000               0.999999994              -0.000080919              -0.000054157               0.999999994              -0.000101470              -0.000047258               0.999999994              -0.000110997              -0.000045188               0.999999994              -0.000116487              -0.000045741               0.999999994              -0.000120743              -0.000047829               0.999999994              -0.000124942              -0.000050954               0.999999994              -0.000129643              -0.000054704               0.999999994              -0.000135113              -0.000058934               0.999999994              -0.000141431              -0.000063510               0.999999994              -0.000148620              -0.000068345               0.999999994              -0.000156689              -0.000073326               0.999999994              -0.000165538              -0.000078421               0.999999994              -0.000175142              -0.000083534               0.999999994              -0.000185486              -0.000088517               0.999999994              -0.000196507              -0.000093265               0.999999994              -0.000208156              -0.000097622               0.999999994              -0.000220347              -0.000101402               0.999999994              -0.000079425              -0.000107752               0.999999994              -0.000096916              -0.000094039               0.999999994              -0.000104716              -0.000090209               0.999999994              -0.000109351              -0.000091535               0.999999994              -0.000113284              -0.000095983               0.999999994              -0.000117513              -0.000102392               0.999999994              -0.000122418              -0.000110133               0.999999994              -0.000128162              -0.000118761               0.999999994              -0.000134749              -0.000128008               0.999999994              -0.000142142              -0.000137717               0.999999994              -0.000150353              -0.000147727               0.999999994              -0.000159255              -0.000157999               0.999999994              -0.000168854              -0.000168392               0.999999994              -0.000179166              -0.000178697               0.999999994              -0.000190163              -0.000188776               0.999999994              -0.000201871              -0.000198358               0.999999994              -0.000214252              -0.000207187               0.999999994              -0.000077014              -0.000160205               0.999999994              -0.000089630              -0.000139904               0.999999994              -0.000094891              -0.000134922               0.999999994              -0.000098435              -0.000137580               0.999999994              -0.000102087              -0.000144770               0.999999994              -0.000106521              -0.000154799               0.999999994              -0.000111916              -0.000166705               0.999999994              -0.000118251              -0.000179780               0.999999994              -0.000125431              -0.000193720               0.999999994              -0.000133366              -0.000208270               0.999999994              -0.000142059              -0.000223336               0.999999994              -0.000151445              -0.000238800               0.999999994              -0.000161504              -0.000254596               0.999999994              -0.000172238              -0.000270462               0.999999994              -0.000183655              -0.000286322               0.999999994              -0.000195792              -0.000301962               0.999999994              -0.000208594              -0.000317154               0.999999994              -0.000073708              -0.000210951               0.999999994              -0.000080018              -0.000184555               0.999999994              -0.000082551              -0.000179118               0.999999994              -0.000085206              -0.000183796               0.999999994              -0.000089030              -0.000194089               0.999999994              -0.000094195              -0.000207954               0.999999994              -0.000100519              -0.000224049               0.999999994              -0.000107798              -0.000241559               0.999999994              -0.000115953              -0.000260146               0.999999994              -0.000124888              -0.000279487               0.999999994              -0.000134550              -0.000299433               0.999999994              -0.000144935              -0.000319974               0.999999994              -0.000155988              -0.000341003               0.999999994              -0.000167666              -0.000362424               0.999999994              -0.000179988              -0.000384048               0.999999994              -0.000192816              -0.000405694               0.999999994              -0.000206042              -0.000427051               0.999999994              -0.000069513              -0.000259459               0.999999994              -0.000068629              -0.000227827               0.999999994              -0.000068824              -0.000222632               0.999999994              -0.000071242              -0.000229757               0.999999994              -0.000075877              -0.000243518               0.999999994              -0.000082321              -0.000261235               0.999999994              -0.000089934              -0.000281380               0.999999994              -0.000098474              -0.000303177               0.999999994              -0.000107895              -0.000326229               0.999999994              -0.000118106              -0.000350225               0.999999994              -0.000129053              -0.000374878               0.999999994              -0.000140616              -0.000400341               0.999999994              -0.000152804              -0.000426463               0.999999994              -0.000165548              -0.000453189               0.999999994              -0.000178713              -0.000480315               0.999999994              -0.000192190              -0.000507417               0.999999994              -0.000205803              -0.000534296               0.999999994              -0.000064516              -0.000305229               0.999999994              -0.000056221              -0.000269547               0.999999994              -0.000054743              -0.000265270               0.999999994              -0.000057772              -0.000275061               0.999999994              -0.000063852              -0.000292324               0.999999994              -0.000071853              -0.000313742               0.999999994              -0.000081026              -0.000337807               0.999999994              -0.000091075              -0.000363704               0.999999994              -0.000101905              -0.000391053               0.999999994              -0.000113502              -0.000419498               0.999999994              -0.000125776              -0.000448761               0.999999994              -0.000138640              -0.000478925               0.999999994              -0.000152044              -0.000509948               0.999999994              -0.000165849              -0.000541653               0.999999994              -0.000179906              -0.000573607               0.999999994              -0.000193996              -0.000605460               0.999999994              -0.000207919              -0.000636871               0.999999994              -0.000058861              -0.000347717               0.999999994              -0.000043548              -0.000309574               0.999999994              -0.000041447              -0.000306573               0.999999994              -0.000045880              -0.000319027               0.999999994              -0.000053778              -0.000339663               0.999999994              -0.000063526              -0.000364685               0.999999994              -0.000074256              -0.000392545               0.999999994              -0.000085752              -0.000422443               0.999999994              -0.000098076              -0.000453946               0.999999994              -0.000111038              -0.000486759               0.999999994              -0.000124616              -0.000520473               0.999999994              -0.000138822              -0.000555274               0.999999994              -0.000153465              -0.000590833               0.999999994              -0.000168286              -0.000626752               0.999999994              -0.000183069              -0.000662743               0.999999994              -0.000197520              -0.000698347               0.999999994              -0.000211523              -0.000733428               0.999999994              -0.000053010              -0.000386089               0.999999994              -0.000031268              -0.000347744               0.999999994              -0.000029837              -0.000346098               0.999999994              -0.000036012              -0.000361103               0.999999994              -0.000045804              -0.000385005               0.999999994              -0.000057178              -0.000413656               0.999999994              -0.000069484              -0.000445270               0.999999994              -0.000082516              -0.000479123               0.999999994              -0.000096156              -0.000514730               0.999999994              -0.000110387              -0.000551778               0.999999994              -0.000125257              -0.000589878               0.999999994              -0.000140663              -0.000628882               0.999999994              -0.000156287              -0.000668424               0.999999994              -0.000171821              -0.000707955               0.999999994              -0.000186943              -0.000747195               0.999999994              -0.000201678              -0.000786016               0.999999994              -0.000216131              -0.000824347               0.999999994              -0.000047663              -0.000421667               0.999999994              -0.000022182              -0.000387552               0.999999994              -0.000018875              -0.000382754               0.999999994              -0.000023750              -0.000393732               0.999999994              -0.000032463              -0.000413731               0.999999994              -0.000042928              -0.000439013               0.999999994              -0.000054190              -0.000467527               0.999999994              -0.000065935              -0.000498365               0.999999994              -0.000078056              -0.000530920               0.999999994              -0.000090585              -0.000564893               0.999999994              -0.000103569              -0.000599933               0.999999994              -0.000116898              -0.000635912               0.999999994              -0.000130578              -0.000672604               0.999999994              -0.000144333              -0.000709646               0.999999994              -0.000157818              -0.000746731               0.999999994              -0.000170943              -0.000783602               0.999999994              -0.000183933              -0.000820184               0.999999994              -0.000041773              -0.000453528               0.999999994              -0.000014869              -0.000425260               0.999999994              -0.000009642              -0.000419491               0.999999994              -0.000012864              -0.000427456               0.999999994              -0.000020248              -0.000443961               0.999999994              -0.000029485              -0.000466048               0.999999994              -0.000039504              -0.000491745               0.999999994              -0.000049921              -0.000519884               0.999999994              -0.000060610              -0.000549784               0.999999994              -0.000071511              -0.000580924               0.999999994              -0.000082601              -0.000613200               0.999999994              -0.000093749              -0.000646310               0.999999994              -0.000105126              -0.000680306               0.999999994              -0.000116546              -0.000714831               0.999999994              -0.000127785              -0.000749651               0.999999994              -0.000138601              -0.000784413               0.999999994              -0.000149034              -0.000819175               0.999999994              -0.000035453              -0.000481198               0.999999994              -0.000009254              -0.000459923               0.999999994              -0.000002621              -0.000454780               0.999999994              -0.000004267              -0.000460878               0.999999994              -0.000010032              -0.000474768               0.999999994              -0.000017644              -0.000494101               0.999999994              -0.000026213              -0.000517220               0.999999994              -0.000035248              -0.000542954               0.999999994              -0.000044476              -0.000570562               0.999999994              -0.000053689              -0.000599526               0.999999994              -0.000062833              -0.000629491               0.999999994              -0.000071821              -0.000660309               0.999999994              -0.000080719              -0.000691873               0.999999994              -0.000089557              -0.000724081               0.999999994              -0.000098159              -0.000756733               0.999999994              -0.000106158              -0.000789547               0.999999994              -0.000113208              -0.000822455               0.999999994              -0.000028783              -0.000504255               0.999999994              -0.000005336              -0.000490251               0.999999994               0.000001814              -0.000486893               0.999999994               0.000001570              -0.000492375               0.999999994              -0.000002418              -0.000504605               0.999999994              -0.000008258              -0.000521860               0.999999994              -0.000015194              -0.000542728               0.999999994              -0.000022747              -0.000566422               0.999999994              -0.000030356              -0.000592096               0.999999994              -0.000037843              -0.000619287               0.999999994              -0.000045081              -0.000647572               0.999999994              -0.000051997              -0.000676723               0.999999994              -0.000058624              -0.000706587               0.999999994              -0.000064967              -0.000736974               0.999999994              -0.000070787              -0.000767765               0.999999994              -0.000075678              -0.000798969               0.999999994              -0.000079157              -0.000830401               0.999999994              -0.000021844              -0.000522353               0.999999994              -0.000002777              -0.000515224               0.999999994               0.000003812              -0.000514253               0.999999994               0.000004513              -0.000519946               0.999999994               0.000002153              -0.000531318               0.999999994              -0.000001991              -0.000547152               0.999999994              -0.000007180              -0.000566468               0.999999994              -0.000013013              -0.000588559               0.999999994              -0.000018923              -0.000612818               0.999999994              -0.000024660              -0.000638703               0.999999994              -0.000030030              -0.000665780               0.999999994              -0.000035039              -0.000693799               0.999999994              -0.000039650              -0.000722556               0.999999994              -0.000043815              -0.000751817               0.999999994              -0.000047174              -0.000781483               0.999999994              -0.000049215              -0.000811533               0.999999994              -0.000049454              -0.000841917               0.999999994              -0.000014675              -0.000535335               0.999999994              -0.000001280              -0.000533719               0.999999994               0.000003753              -0.000535174               0.999999994               0.000004771              -0.000541570               0.999999994               0.000003591              -0.000552684               0.999999994               0.000001047              -0.000567732               0.999999994              -0.000002399              -0.000586045               0.999999994              -0.000006444              -0.000607124               0.999999994              -0.000010523              -0.000630400               0.999999994              -0.000014416              -0.000655399               0.999999994              -0.000017988              -0.000681751               0.999999994              -0.000021267              -0.000709154               0.999999994              -0.000024132              -0.000737391               0.999999994              -0.000026461              -0.000766242               0.999999994              -0.000027995              -0.000795595               0.999999994              -0.000028190              -0.000825272               0.999999994              -0.000026418              -0.000855142               0.999999994              -0.000007371              -0.000543144               0.999999994              -0.000000488              -0.000545038               0.999999994               0.000002252              -0.000548272               0.999999994               0.000002931              -0.000555421               0.999999994               0.000002496              -0.000566546               0.999999994               0.000001337              -0.000581233               0.999999994              -0.000000389              -0.000599024               0.999999994              -0.000002496              -0.000619511               0.999999994              -0.000004638              -0.000642346               0.999999994              -0.000006619              -0.000667059               0.999999994              -0.000008420              -0.000693150               0.999999994              -0.000009960              -0.000720358               0.999999994              -0.000011272              -0.000748528               0.999999994              -0.000012253              -0.000777402               0.999999994              -0.000012738              -0.000806779               0.999999994              -0.000012422              -0.000836520               0.999999994              -0.000010745              -0.000866384               0.999999994              -0.000000000              -0.000545759               0.999999994              -0.000000000              -0.000548902               0.999999994              -0.000000000              -0.000552777               0.999999994               0.000000000              -0.000560196               0.999999994              -0.000000000              -0.000571419               0.999999994               0.000000000              -0.000585984               0.999999994              -0.000000000              -0.000603564               0.999999994               0.000000000              -0.000623918               0.999999994               0.000000000              -0.000646639               0.999999994              -0.000000000              -0.000671267               0.999999994              -0.000000000              -0.000697383               0.999999994              -0.000000000              -0.000724627               0.999999994              -0.000000000              -0.000752783               0.999999994               0.000000000              -0.000781680               0.999999994               0.000000000              -0.000811085               0.999999994               0.000000000              -0.000840891               0.999999994               0.000000000              -0.000870848               0.999999994               0.000081430              -0.000000000               0.999999994               0.000103002              -0.000000000               0.999999994               0.000113114               0.000000000               0.999999994               0.000118913               0.000000000               0.999999994               0.000123228               0.000000000               0.999999994               0.000127403               0.000000000               0.999999994               0.000132095               0.000000000               0.999999994               0.000137504              -0.000000000               0.999999994               0.000143761               0.000000000               0.999999994               0.000150874               0.000000000               0.999999994               0.000158896              -0.000000000               0.999999994               0.000167770              -0.000000000               0.999999994               0.000177427              -0.000000000               0.999999994               0.000187825              -0.000000000               0.999999994               0.000198903              -0.000000000               0.999999994               0.000210569              -0.000000000               0.999999994               0.000222690              -0.000000000               0.999999994               0.000080919              -0.000054157               0.999999994               0.000101470              -0.000047258               0.999999994               0.000110997              -0.000045188               0.999999994               0.000116487              -0.000045741               0.999999994               0.000120743              -0.000047829               0.999999994               0.000124942              -0.000050954               0.999999994               0.000129643              -0.000054704               0.999999994               0.000135113              -0.000058934               0.999999994               0.000141431              -0.000063510               0.999999994               0.000148620              -0.000068345               0.999999994               0.000156689              -0.000073326               0.999999994               0.000165538              -0.000078421               0.999999994               0.000175142              -0.000083534               0.999999994               0.000185486              -0.000088517               0.999999994               0.000196507              -0.000093265               0.999999994               0.000208156              -0.000097622               0.999999994               0.000220347              -0.000101402               0.999999994               0.000079425              -0.000107752               0.999999994               0.000096916              -0.000094039               0.999999994               0.000104716              -0.000090209               0.999999994               0.000109351              -0.000091535               0.999999994               0.000113284              -0.000095983               0.999999994               0.000117513              -0.000102392               0.999999994               0.000122418              -0.000110133               0.999999994               0.000128162              -0.000118761               0.999999994               0.000134749              -0.000128008               0.999999994               0.000142142              -0.000137717               0.999999994               0.000150353              -0.000147727               0.999999994               0.000159255              -0.000157999               0.999999994               0.000168854              -0.000168392               0.999999994               0.000179166              -0.000178697               0.999999994               0.000190163              -0.000188776               0.999999994               0.000201871              -0.000198358               0.999999994               0.000214252              -0.000207187               0.999999994               0.000077014              -0.000160205               0.999999994               0.000089630              -0.000139904               0.999999994               0.000094891              -0.000134922               0.999999994               0.000098435              -0.000137580               0.999999994               0.000102087              -0.000144770               0.999999994               0.000106521              -0.000154799               0.999999994               0.000111916              -0.000166705               0.999999994               0.000118251              -0.000179780               0.999999994               0.000125431              -0.000193720               0.999999994               0.000133366              -0.000208270               0.999999994               0.000142059              -0.000223336               0.999999994               0.000151445              -0.000238800               0.999999994               0.000161504              -0.000254596               0.999999994               0.000172238              -0.000270462               0.999999994               0.000183655              -0.000286322               0.999999994               0.000195792              -0.000301962               0.999999994               0.000208594              -0.000317154               0.999999994               0.000073708              -0.000210951               0.999999994               0.000080018              -0.000184555               0.999999994               0.000082551              -0.000179118               0.999999994               0.000085206              -0.000183796               0.999999994               0.000089030              -0.000194089               0.999999994               0.000094195              -0.000207954               0.999999994               0.000100519              -0.000224049               0.999999994               0.000107798              -0.000241559               0.999999994               0.000115953              -0.000260146               0.999999994               0.000124888              -0.000279487               0.999999994               0.000134550              -0.000299433               0.999999994               0.000144935              -0.000319974               0.999999994               0.000155988              -0.000341003               0.999999994               0.000167666              -0.000362424               0.999999994               0.000179988              -0.000384048               0.999999994               0.000192816              -0.000405694               0.999999994               0.000206042              -0.000427051               0.999999994               0.000069513              -0.000259459               0.999999994               0.000068629              -0.000227827               0.999999994               0.000068824              -0.000222632               0.999999994               0.000071242              -0.000229757               0.999999994               0.000075877              -0.000243518               0.999999994               0.000082321              -0.000261235               0.999999994               0.000089934              -0.000281380               0.999999994               0.000098474              -0.000303177               0.999999994               0.000107895              -0.000326229               0.999999994               0.000118106              -0.000350225               0.999999994               0.000129053              -0.000374878               0.999999994               0.000140616              -0.000400341               0.999999994               0.000152804              -0.000426463               0.999999994               0.000165548              -0.000453189               0.999999994               0.000178713              -0.000480315               0.999999994               0.000192190              -0.000507417               0.999999994               0.000205803              -0.000534296               0.999999994               0.000064516              -0.000305229               0.999999994               0.000056221              -0.000269547               0.999999994               0.000054743              -0.000265270               0.999999994               0.000057772              -0.000275061               0.999999994               0.000063852              -0.000292324               0.999999994               0.000071853              -0.000313742               0.999999994               0.000081026              -0.000337807               0.999999994               0.000091075              -0.000363704               0.999999994               0.000101905              -0.000391053               0.999999994               0.000113502              -0.000419498               0.999999994               0.000125776              -0.000448761               0.999999994               0.000138640              -0.000478925               0.999999994               0.000152044              -0.000509948               0.999999994               0.000165849              -0.000541653               0.999999994               0.000179906              -0.000573607               0.999999994               0.000193996              -0.000605460               0.999999994               0.000207919              -0.000636871               0.999999994               0.000058861              -0.000347717               0.999999994               0.000043548              -0.000309574               0.999999994               0.000041447              -0.000306573               0.999999994               0.000045880              -0.000319027               0.999999994               0.000053778              -0.000339663               0.999999994               0.000063526              -0.000364685               0.999999994               0.000074256              -0.000392545               0.999999994               0.000085752              -0.000422443               0.999999994               0.000098076              -0.000453946               0.999999994               0.000111038              -0.000486759               0.999999994               0.000124616              -0.000520473               0.999999994               0.000138822              -0.000555274               0.999999994               0.000153465              -0.000590833               0.999999994               0.000168286              -0.000626752               0.999999994               0.000183069              -0.000662743               0.999999994               0.000197520              -0.000698347               0.999999994               0.000211523              -0.000733428               0.999999994               0.000053010              -0.000386089               0.999999994               0.000031268              -0.000347744               0.999999994               0.000029837              -0.000346098               0.999999994               0.000036012              -0.000361103               0.999999994               0.000045804              -0.000385005               0.999999994               0.000057178              -0.000413656               0.999999994               0.000069484              -0.000445270               0.999999994               0.000082516              -0.000479123               0.999999994               0.000096156              -0.000514730               0.999999994               0.000110387              -0.000551778               0.999999994               0.000125257              -0.000589878               0.999999994               0.000140663              -0.000628882               0.999999994               0.000156287              -0.000668424               0.999999994               0.000171821              -0.000707955               0.999999994               0.000186943              -0.000747195               0.999999994               0.000201678              -0.000786016               0.999999994               0.000216131              -0.000824347               0.999999994               0.000047663              -0.000421667               0.999999994               0.000022182              -0.000387552               0.999999994               0.000018875              -0.000382754               0.999999994               0.000023750              -0.000393732               0.999999994               0.000032463              -0.000413731               0.999999994               0.000042928              -0.000439013               0.999999994               0.000054190              -0.000467527               0.999999994               0.000065935              -0.000498365               0.999999994               0.000078056              -0.000530920               0.999999994               0.000090585              -0.000564893               0.999999994               0.000103569              -0.000599933               0.999999994               0.000116898              -0.000635912               0.999999994               0.000130578              -0.000672604               0.999999994               0.000144333              -0.000709646               0.999999994               0.000157818              -0.000746731               0.999999994               0.000170943              -0.000783602               0.999999994               0.000183933              -0.000820184               0.999999994               0.000041773              -0.000453528               0.999999994               0.000014869              -0.000425260               0.999999994               0.000009642              -0.000419491               0.999999994               0.000012864              -0.000427456               0.999999994               0.000020248              -0.000443961               0.999999994               0.000029485              -0.000466048               0.999999994               0.000039504              -0.000491745               0.999999994               0.000049921              -0.000519884               0.999999994               0.000060610              -0.000549784               0.999999994               0.000071511              -0.000580924               0.999999994               0.000082601              -0.000613200               0.999999994               0.000093749              -0.000646310               0.999999994               0.000105126              -0.000680306               0.999999994               0.000116546              -0.000714831               0.999999994               0.000127785              -0.000749651               0.999999994               0.000138601              -0.000784413               0.999999994               0.000149034              -0.000819175               0.999999994               0.000035453              -0.000481198               0.999999994               0.000009254              -0.000459923               0.999999994               0.000002621              -0.000454780               0.999999994               0.000004267              -0.000460878               0.999999994               0.000010032              -0.000474768               0.999999994               0.000017644              -0.000494101               0.999999994               0.000026213              -0.000517220               0.999999994               0.000035248              -0.000542954               0.999999994               0.000044476              -0.000570562               0.999999994               0.000053689              -0.000599526               0.999999994               0.000062833              -0.000629491               0.999999994               0.000071821              -0.000660309               0.999999994               0.000080719              -0.000691873               0.999999994               0.000089557              -0.000724081               0.999999994               0.000098159              -0.000756733               0.999999994               0.000106158              -0.000789547               0.999999994               0.000113208              -0.000822455               0.999999994               0.000028783              -0.000504255               0.999999994               0.000005336              -0.000490251               0.999999994              -0.000001814              -0.000486893               0.999999994              -0.000001570              -0.000492375               0.999999994               0.000002418              -0.000504605               0.999999994               0.000008258              -0.000521860               0.999999994               0.000015194              -0.000542728               0.999999994               0.000022747              -0.000566422               0.999999994               0.000030356              -0.000592096               0.999999994               0.000037843              -0.000619287               0.999999994               0.000045081              -0.000647572               0.999999994               0.000051997              -0.000676723               0.999999994               0.000058624              -0.000706587               0.999999994               0.000064967              -0.000736974               0.999999994               0.000070787              -0.000767765               0.999999994               0.000075678              -0.000798969               0.999999994               0.000079157              -0.000830401               0.999999994               0.000021844              -0.000522353               0.999999994               0.000002777              -0.000515224               0.999999994              -0.000003812              -0.000514253               0.999999994              -0.000004513              -0.000519946               0.999999994              -0.000002153              -0.000531318               0.999999994               0.000001991              -0.000547152               0.999999994               0.000007180              -0.000566468               0.999999994               0.000013013              -0.000588559               0.999999994               0.000018923              -0.000612818               0.999999994               0.000024660              -0.000638703               0.999999994               0.000030030              -0.000665780               0.999999994               0.000035039              -0.000693799               0.999999994               0.000039650              -0.000722556               0.999999994               0.000043815              -0.000751817               0.999999994               0.000047174              -0.000781483               0.999999994               0.000049215              -0.000811533               0.999999994               0.000049454              -0.000841917               0.999999994               0.000014675              -0.000535335               0.999999994               0.000001280              -0.000533719               0.999999994              -0.000003753              -0.000535174               0.999999994              -0.000004771              -0.000541570               0.999999994              -0.000003591              -0.000552684               0.999999994              -0.000001047              -0.000567732               0.999999994               0.000002399              -0.000586045               0.999999994               0.000006444              -0.000607124               0.999999994               0.000010523              -0.000630400               0.999999994               0.000014416              -0.000655399               0.999999994               0.000017988              -0.000681751               0.999999994               0.000021267              -0.000709154               0.999999994               0.000024132              -0.000737391               0.999999994               0.000026461              -0.000766242               0.999999994               0.000027995              -0.000795595               0.999999994               0.000028190              -0.000825272               0.999999994               0.000026418              -0.000855142               0.999999994               0.000007371              -0.000543144               0.999999994               0.000000488              -0.000545038               0.999999994              -0.000002252              -0.000548272               0.999999994              -0.000002931              -0.000555421               0.999999994              -0.000002496              -0.000566546               0.999999994              -0.000001337              -0.000581233               0.999999994               0.000000389              -0.000599024               0.999999994               0.000002496              -0.000619511               0.999999994               0.000004638              -0.000642346               0.999999994               0.000006619              -0.000667059               0.999999994               0.000008420              -0.000693150               0.999999994               0.000009960              -0.000720358               0.999999994               0.000011272              -0.000748528               0.999999994               0.000012253              -0.000777402               0.999999994               0.000012738              -0.000806779               0.999999994               0.000012422              -0.000836520               0.999999994               0.000010745              -0.000866384               0.999999994              -0.000000000              -0.000545759               0.999999994              -0.000000000              -0.000548902               0.999999994              -0.000000000              -0.000552777               0.999999994               0.000000000              -0.000560196               0.999999994              -0.000000000              -0.000571419               0.999999994               0.000000000              -0.000585984               0.999999994              -0.000000000              -0.000603564               0.999999994               0.000000000              -0.000623918               0.999999994               0.000000000              -0.000646639               0.999999994              -0.000000000              -0.000671267               0.999999994              -0.000000000              -0.000697383               0.999999994              -0.000000000              -0.000724627               0.999999994              -0.000000000              -0.000752783               0.999999994               0.000000000              -0.000781680               0.999999994               0.000000000              -0.000811085               0.999999994               0.000000000              -0.000840891               0.999999994               0.000000000              -0.000870848               0.999999994               0.000081430              -0.000000000               0.999999994               0.000103002              -0.000000000               0.999999994               0.000113114               0.000000000               0.999999994               0.000118913               0.000000000               0.999999994               0.000123228               0.000000000               0.999999994               0.000127403               0.000000000               0.999999994               0.000132095               0.000000000               0.999999994               0.000137504              -0.000000000               0.999999994               0.000143761               0.000000000               0.999999994               0.000150874               0.000000000               0.999999994               0.000158896              -0.000000000               0.999999994               0.000167770              -0.000000000               0.999999994               0.000177427              -0.000000000               0.999999994               0.000187825              -0.000000000               0.999999994               0.000198903              -0.000000000               0.999999994               0.000210569              -0.000000000               0.999999994               0.000222690              -0.000000000               0.999999994               0.000080919               0.000054157               0.999999994               0.000101470               0.000047258               0.999999994               0.000110997               0.000045188               0.999999994               0.000116487               0.000045741               0.999999994               0.000120743               0.000047829               0.999999994               0.000124942               0.000050954               0.999999994               0.000129643               0.000054704               0.999999994               0.000135113               0.000058934               0.999999994               0.000141431               0.000063510               0.999999994               0.000148620               0.000068345               0.999999994               0.000156689               0.000073326               0.999999994               0.000165538               0.000078421               0.999999994               0.000175142               0.000083534               0.999999994               0.000185486               0.000088517               0.999999994               0.000196507               0.000093265               0.999999994               0.000208156               0.000097622               0.999999994               0.000220347               0.000101402               0.999999994               0.000079425               0.000107752               0.999999994               0.000096916               0.000094039               0.999999994               0.000104716               0.000090209               0.999999994               0.000109351               0.000091535               0.999999994               0.000113284               0.000095983               0.999999994               0.000117513               0.000102392               0.999999994               0.000122418               0.000110133               0.999999994               0.000128162               0.000118761               0.999999994               0.000134749               0.000128008               0.999999994               0.000142142               0.000137717               0.999999994               0.000150353               0.000147727               0.999999994               0.000159255               0.000157999               0.999999994               0.000168854               0.000168392               0.999999994               0.000179166               0.000178697               0.999999994               0.000190163               0.000188776               0.999999994               0.000201871               0.000198358               0.999999994               0.000214252               0.000207187               0.999999994               0.000077014               0.000160205               0.999999994               0.000089630               0.000139904               0.999999994               0.000094891               0.000134922               0.999999994               0.000098435               0.000137580               0.999999994               0.000102087               0.000144770               0.999999994               0.000106521               0.000154799               0.999999994               0.000111916               0.000166705               0.999999994               0.000118251               0.000179780               0.999999994               0.000125431               0.000193720               0.999999994               0.000133366               0.000208270               0.999999994               0.000142059               0.000223336               0.999999994               0.000151445               0.000238800               0.999999994               0.000161504               0.000254596               0.999999994               0.000172238               0.000270462               0.999999994               0.000183655               0.000286322               0.999999994               0.000195792               0.000301962               0.999999994               0.000208594               0.000317154               0.999999994               0.000073708               0.000210951               0.999999994               0.000080018               0.000184555               0.999999994               0.000082551               0.000179118               0.999999994               0.000085206               0.000183796               0.999999994               0.000089030               0.000194089               0.999999994               0.000094195               0.000207954               0.999999994               0.000100519               0.000224049               0.999999994               0.000107798               0.000241559               0.999999994               0.000115953               0.000260146               0.999999994               0.000124888               0.000279487               0.999999994               0.000134550               0.000299433               0.999999994               0.000144935               0.000319974               0.999999994               0.000155988               0.000341003               0.999999994               0.000167666               0.000362424               0.999999994               0.000179988               0.000384048               0.999999994               0.000192816               0.000405694               0.999999994               0.000206042               0.000427051               0.999999994               0.000069513               0.000259459               0.999999994               0.000068629               0.000227827               0.999999994               0.000068824               0.000222632               0.999999994               0.000071242               0.000229757               0.999999994               0.000075877               0.000243518               0.999999994               0.000082321               0.000261235               0.999999994               0.000089934               0.000281380               0.999999994               0.000098474               0.000303177               0.999999994               0.000107895               0.000326229               0.999999994               0.000118106               0.000350225               0.999999994               0.000129053               0.000374878               0.999999994               0.000140616               0.000400341               0.999999994               0.000152804               0.000426463               0.999999994               0.000165548               0.000453189               0.999999994               0.000178713               0.000480315               0.999999994               0.000192190               0.000507417               0.999999994               0.000205803               0.000534296               0.999999994               0.000064516               0.000305229               0.999999994               0.000056221               0.000269547               0.999999994               0.000054743               0.000265270               0.999999994               0.000057772               0.000275061               0.999999994               0.000063852               0.000292324               0.999999994               0.000071853               0.000313742               0.999999994               0.000081026               0.000337807               0.999999994               0.000091075               0.000363704               0.999999994               0.000101905               0.000391053               0.999999994               0.000113502               0.000419498               0.999999994               0.000125776               0.000448761               0.999999994               0.000138640               0.000478925               0.999999994               0.000152044               0.000509948               0.999999994               0.000165849               0.000541653               0.999999994               0.000179906               0.000573607               0.999999994               0.000193996               0.000605460               0.999999994               0.000207919               0.000636871               0.999999994               0.000058861               0.000347717               0.999999994               0.000043548               0.000309574               0.999999994               0.000041447               0.000306573               0.999999994               0.000045880               0.000319027               0.999999994               0.000053778               0.000339663               0.999999994               0.000063526               0.000364685               0.999999994               0.000074256               0.000392545               0.999999994               0.000085752               0.000422443               0.999999994               0.000098076               0.000453946               0.999999994               0.000111038               0.000486759               0.999999994               0.000124616               0.000520473               0.999999994               0.000138822               0.000555274               0.999999994               0.000153465               0.000590833               0.999999994               0.000168286               0.000626752               0.999999994               0.000183069               0.000662743               0.999999994               0.000197520               0.000698347               0.999999994               0.000211523               0.000733428               0.999999994               0.000053010               0.000386089               0.999999994               0.000031268               0.000347744               0.999999994               0.000029837               0.000346098               0.999999994               0.000036012               0.000361103               0.999999994               0.000045804               0.000385005               0.999999994               0.000057178               0.000413656               0.999999994               0.000069484               0.000445270               0.999999994               0.000082516               0.000479123               0.999999994               0.000096156               0.000514730               0.999999994               0.000110387               0.000551778               0.999999994               0.000125257               0.000589878               0.999999994               0.000140663               0.000628882               0.999999994               0.000156287               0.000668424               0.999999994               0.000171821               0.000707955               0.999999994               0.000186943               0.000747195               0.999999994               0.000201678               0.000786016               0.999999994               0.000216131               0.000824347               0.999999994               0.000047663               0.000421667               0.999999994               0.000022182               0.000387552               0.999999994               0.000018875               0.000382754               0.999999994               0.000023750               0.000393732               0.999999994               0.000032463               0.000413731               0.999999994               0.000042928               0.000439013               0.999999994               0.000054190               0.000467527               0.999999994               0.000065935               0.000498365               0.999999994               0.000078056               0.000530920               0.999999994               0.000090585               0.000564893               0.999999994               0.000103569               0.000599933               0.999999994               0.000116898               0.000635912               0.999999994               0.000130578               0.000672604               0.999999994               0.000144333               0.000709646               0.999999994               0.000157818               0.000746731               0.999999994               0.000170943               0.000783602               0.999999994               0.000183933               0.000820184               0.999999994               0.000041773               0.000453528               0.999999994               0.000014869               0.000425260               0.999999994               0.000009642               0.000419491               0.999999994               0.000012864               0.000427456               0.999999994               0.000020248               0.000443961               0.999999994               0.000029485               0.000466048               0.999999994               0.000039504               0.000491745               0.999999994               0.000049921               0.000519884               0.999999994               0.000060610               0.000549784               0.999999994               0.000071511               0.000580924               0.999999994               0.000082601               0.000613200               0.999999994               0.000093749               0.000646310               0.999999994               0.000105126               0.000680306               0.999999994               0.000116546               0.000714831               0.999999994               0.000127785               0.000749651               0.999999994               0.000138601               0.000784413               0.999999994               0.000149034               0.000819175               0.999999994               0.000035453               0.000481198               0.999999994               0.000009254               0.000459923               0.999999994               0.000002621               0.000454780               0.999999994               0.000004267               0.000460878               0.999999994               0.000010032               0.000474768               0.999999994               0.000017644               0.000494101               0.999999994               0.000026213               0.000517220               0.999999994               0.000035248               0.000542954               0.999999994               0.000044476               0.000570562               0.999999994               0.000053689               0.000599526               0.999999994               0.000062833               0.000629491               0.999999994               0.000071821               0.000660309               0.999999994               0.000080719               0.000691873               0.999999994               0.000089557               0.000724081               0.999999994               0.000098159               0.000756733               0.999999994               0.000106158               0.000789547               0.999999994               0.000113208               0.000822455               0.999999994               0.000028783               0.000504255               0.999999994               0.000005336               0.000490251               0.999999994              -0.000001814               0.000486893               0.999999994              -0.000001570               0.000492375               0.999999994               0.000002418               0.000504605               0.999999994               0.000008258               0.000521860               0.999999994               0.000015194               0.000542728               0.999999994               0.000022747               0.000566422               0.999999994               0.000030356               0.000592096               0.999999994               0.000037843               0.000619287               0.999999994               0.000045081               0.000647572               0.999999994               0.000051997               0.000676723               0.999999994               0.000058624               0.000706587               0.999999994               0.000064967               0.000736974               0.999999994               0.000070787               0.000767765               0.999999994               0.000075678               0.000798969               0.999999994               0.000079157               0.000830401               0.999999994               0.000021844               0.000522353               0.999999994               0.000002777               0.000515224               0.999999994              -0.000003812               0.000514253               0.999999994              -0.000004513               0.000519946               0.999999994              -0.000002153               0.000531318               0.999999994               0.000001991               0.000547152               0.999999994               0.000007180               0.000566468               0.999999994               0.000013013               0.000588559               0.999999994               0.000018923               0.000612818               0.999999994               0.000024660               0.000638703               0.999999994               0.000030030               0.000665780               0.999999994               0.000035039               0.000693799               0.999999994               0.000039650               0.000722556               0.999999994               0.000043815               0.000751817               0.999999994               0.000047174               0.000781483               0.999999994               0.000049215               0.000811533               0.999999994               0.000049454               0.000841917               0.999999994               0.000014675               0.000535335               0.999999994               0.000001280               0.000533719               0.999999994              -0.000003753               0.000535174               0.999999994              -0.000004771               0.000541570               0.999999994              -0.000003591               0.000552684               0.999999994              -0.000001047               0.000567732               0.999999994               0.000002399               0.000586045               0.999999994               0.000006444               0.000607124               0.999999994               0.000010523               0.000630400               0.999999994               0.000014416               0.000655399               0.999999994               0.000017988               0.000681751               0.999999994               0.000021267               0.000709154               0.999999994               0.000024132               0.000737391               0.999999994               0.000026461               0.000766242               0.999999994               0.000027995               0.000795595               0.999999994               0.000028190               0.000825272               0.999999994               0.000026418               0.000855142               0.999999994               0.000007371               0.000543144               0.999999994               0.000000488               0.000545038               0.999999994              -0.000002252               0.000548272               0.999999994              -0.000002931               0.000555421               0.999999994              -0.000002496               0.000566546               0.999999994              -0.000001337               0.000581233               0.999999994               0.000000389               0.000599024               0.999999994               0.000002496               0.000619511               0.999999994               0.000004638               0.000642346               0.999999994               0.000006619               0.000667059               0.999999994               0.000008420               0.000693150               0.999999994               0.000009960               0.000720358               0.999999994               0.000011272               0.000748528               0.999999994               0.000012253               0.000777402               0.999999994               0.000012738               0.000806779               0.999999994               0.000012422               0.000836520               0.999999994               0.000010745               0.000866384               0.999999994              -0.000000000               0.000545759               0.999999994               0.000000000               0.000548902               0.999999994               0.000000000               0.000552777               0.999999994               0.000000000               0.000560196               0.999999994               0.000000000               0.000571419               0.999999994              -0.000000000               0.000585984               0.999999994               0.000000000               0.000603564               0.999999994               0.000000000               0.000623918               0.999999994               0.000000000               0.000646639               0.999999994               0.000000000               0.000671267               0.999999994              -0.000000000               0.000697383               0.999999994               0.000000000               0.000724627               0.999999994               0.000000000               0.000752783               0.999999994               0.000000000               0.000781680               0.999999994              -0.000000000               0.000811085               0.999999994              -0.000000000               0.000840891               0.999999994              -0.000000000               0.000870848               0.999999994 </DataArray>
<DataArray type="Float64"                                    Name="stress"                                                      NumberOfComponents="10" format="ascii">
              0.000896793               0.010098227               0.000000000              -0.000925979               0.003674702               0.002748723               0.000000000               0.000000000               0.000000000               0.000000000               0.000975326               0.008252421              -0.000000000              -0.000665804               0.002972714               0.002306910               0.000000000               0.000000000               0.000000000               0.000000000               0.001351718               0.006771948              -0.000000000              -0.000339599               0.002370493               0.002030894               0.000000000               0.000000000               0.000000000               0.000000000               0.001397515               0.005959058               0.000000000              -0.000220814               0.002059938               0.001839124               0.000000000               0.000000000               0.000000000               0.000000000               0.001322366               0.005477603               0.000000000              -0.000188813               0.001888787               0.001699974               0.000000000               0.000000000               0.000000000               0.000000000               0.001198752               0.005176810               0.000000000              -0.000197569               0.001791442               0.001593874               0.000000000               0.000000000               0.000000000               0.000000000               0.001060939               0.004978328               0.000000000              -0.000224438               0.001734239               0.001509800               0.000000000               0.000000000               0.000000000               0.000000000               0.000925413               0.004844701              -0.000000000              -0.000258557               0.001701070               0.001442513               0.000000000               0.000000000               0.000000000               0.000000000               0.000796393               0.004752598              -0.000000000              -0.000295427               0.001682659               0.001387232               0.000000000               0.000000000               0.000000000               0.000000000               0.000672768               0.004686314               0.000000000              -0.000333500               0.001673256               0.001339756               0.000000000               0.000000000               0.000000000               0.000000000               0.000556253               0.004635551              -0.000000000              -0.000370848               0.001668784               0.001297936               0.000000000               0.000000000               0.000000000               0.000000000               0.000450388               0.004595726               0.000000000              -0.000405569               0.001667083               0.001261514               0.000000000               0.000000000               0.000000000               0.000000000               0.000350420               0.004558929               0.000000000              -0.000438458               0.001665780               0.001227323               0.000000000               0.000000000               0.000000000               0.000000000               0.000254471               0.004517680               0.000000000              -0.000469282               0.001662306               0.001193023               0.000000000               0.000000000               0.000000000               0.000000000               0.000163720               0.004467670              -0.000000000              -0.000497062               0.001654896               0.001157833               0.000000000               0.000000000               0.000000000               0.000000000               0.000079865               0.004404261               0.000000000              -0.000520582               0.001641600               0.001121018               0.000000000               0.000000000               0.000000000               0.000000000               0.000036449               0.004356524               0.000000000              -0.000530896               0.001629125               0.001098230               0.000000000               0.000000000               0.000000000               0.000000000               0.000945004               0.009920326              -0.000740334              -0.000885662               0.003601963               0.002716301               0.000000000               0.000000000               0.000000000               0.000000000               0.000981614               0.008130319              -0.000448394              -0.000648183               0.002926140               0.002277957               0.000000000               0.000000000               0.000000000               0.000000000               0.001313459               0.006710645              -0.000150235              -0.000346283               0.002352287               0.002006004               0.000000000               0.000000000               0.000000000               0.000000000               0.001338096               0.005928514              -0.000015050              -0.000239278               0.002055911               0.001816633               0.000000000               0.000000000               0.000000000               0.000000000               0.001256381               0.005466993               0.000047599              -0.000212231               0.001893056               0.001680826               0.000000000               0.000000000               0.000000000               0.000000000               0.001137586               0.005179521               0.000075482              -0.000220845               0.001800105               0.001579260               0.000000000               0.000000000               0.000000000               0.000000000               0.001007517               0.004992394               0.000086805              -0.000246230               0.001746191               0.001499962               0.000000000               0.000000000               0.000000000               0.000000000               0.000878876               0.004865618               0.000090523              -0.000278623               0.001714731               0.001436108               0.000000000               0.000000000               0.000000000               0.000000000               0.000756734               0.004776675               0.000090712              -0.000313308               0.001696645               0.001383337               0.000000000               0.000000000               0.000000000               0.000000000               0.000639480               0.004711324               0.000088752              -0.000349110               0.001686795               0.001337686               0.000000000               0.000000000               0.000000000               0.000000000               0.000531322               0.004662241               0.000086236              -0.000383533               0.001681909               0.001298376               0.000000000               0.000000000               0.000000000               0.000000000               0.000433117               0.004625005               0.000083527              -0.000415706               0.001680222               0.001264516               0.000000000               0.000000000               0.000000000               0.000000000               0.000338005               0.004592136               0.000077534              -0.000447264               0.001679784               0.001232521               0.000000000               0.000000000               0.000000000               0.000000000               0.000246429               0.004558614               0.000067582              -0.000477415               0.001678661               0.001201247               0.000000000               0.000000000               0.000000000               0.000000000               0.000159192               0.004521017               0.000052875              -0.000505429               0.001675467               0.001170038               0.000000000               0.000000000               0.000000000               0.000000000               0.000076856               0.004474926               0.000031108              -0.000530543               0.001668475               0.001137932               0.000000000               0.000000000               0.000000000               0.000000000               0.000035935               0.004442406               0.000017824              -0.000541824               0.001661395               0.001119571               0.000000000               0.000000000               0.000000000               0.000000000               0.001078813               0.009408187              -0.001398085              -0.000771467               0.003393187               0.002621719               0.000000000               0.000000000               0.000000000               0.000000000               0.000999700               0.007782126              -0.000847544              -0.000597877               0.002793308               0.002195431               0.000000000               0.000000000               0.000000000               0.000000000               0.001207631               0.006541078              -0.000289523              -0.000364772               0.002301928               0.001937156               0.000000000               0.000000000               0.000000000               0.000000000               0.001182380               0.005854128              -0.000041164              -0.000288373               0.002047481               0.001759108               0.000000000               0.000000000               0.000000000               0.000000000               0.001086004               0.005446769               0.000074145              -0.000273594               0.001906769               0.001633176               0.000000000               0.000000000               0.000000000               0.000000000               0.000971873               0.005191721               0.000125325              -0.000284512               0.001825394               0.001540882               0.000000000               0.000000000               0.000000000               0.000000000               0.000857466               0.005025341               0.000144460              -0.000306617               0.001777303               0.001470686               0.000000000               0.000000000               0.000000000               0.000000000               0.000747969               0.004908977               0.000148608              -0.000333133               0.001747354               0.001414221               0.000000000               0.000000000               0.000000000               0.000000000               0.000646940               0.004824967               0.000146953              -0.000360518               0.001728479               0.001367961               0.000000000               0.000000000               0.000000000               0.000000000               0.000549659               0.004761133               0.000142805              -0.000389019               0.001716701               0.001327683               0.000000000               0.000000000               0.000000000               0.000000000               0.000460575               0.004714470               0.000137993              -0.000416592               0.001710338               0.001293746               0.000000000               0.000000000               0.000000000               0.000000000               0.000379705               0.004680928               0.000132049              -0.000442725               0.001707869               0.001265143               0.000000000               0.000000000               0.000000000               0.000000000               0.000299201               0.004655603               0.000120929              -0.000469749               0.001708435               0.001238686               0.000000000               0.000000000               0.000000000               0.000000000               0.000220159               0.004636014               0.000104286              -0.000496941               0.001710970               0.001214029               0.000000000               0.000000000               0.000000000               0.000000000               0.000142410               0.004621162               0.000080440              -0.000524240               0.001715118               0.001190878               0.000000000               0.000000000               0.000000000               0.000000000               0.000067514               0.004610150               0.000046124              -0.000550950               0.001720351               0.001169402               0.000000000               0.000000000               0.000000000               0.000000000               0.000034565               0.004609342               0.000024856              -0.000563204               0.001724167               0.001160962               0.000000000               0.000000000               0.000000000               0.000000000               0.001257177               0.008622254              -0.001906080              -0.000606340               0.003076169               0.002469829               0.000000000               0.000000000               0.000000000               0.000000000               0.001015558               0.007256370              -0.001162918              -0.000526211               0.002594169               0.002067958               0.000000000               0.000000000               0.000000000               0.000000000               0.001049952               0.006289181              -0.000417545              -0.000392415               0.002227178               0.001834763               0.000000000               0.000000000               0.000000000               0.000000000               0.000964750               0.005747240              -0.000098413              -0.000356623               0.002034602               0.001677979               0.000000000               0.000000000               0.000000000               0.000000000               0.000856863               0.005413879               0.000046618              -0.000355410               0.001923078               0.001567668               0.000000000               0.000000000               0.000000000               0.000000000               0.000753008               0.005197929               0.000110334              -0.000367362               0.001855080               0.001487718               0.000000000               0.000000000               0.000000000               0.000000000               0.000659172               0.005047936               0.000133882              -0.000383802               0.001810562               0.001426761               0.000000000               0.000000000               0.000000000               0.000000000               0.000574827               0.004937557               0.000139588              -0.000401633               0.001779714               0.001378080               0.000000000               0.000000000               0.000000000               0.000000000               0.000500443               0.004855898               0.000137755              -0.000419320               0.001758390               0.001339070               0.000000000               0.000000000               0.000000000               0.000000000               0.000429525               0.004792305               0.000132597              -0.000437965               0.001743408               0.001305442               0.000000000               0.000000000               0.000000000               0.000000000               0.000361247               0.004743199               0.000126972              -0.000457431               0.001733528               0.001276097               0.000000000               0.000000000               0.000000000               0.000000000               0.000297981               0.004707758               0.000119901              -0.000476726               0.001728146               0.001251420               0.000000000               0.000000000               0.000000000               0.000000000               0.000236138               0.004683882               0.000108012              -0.000496932               0.001726922               0.001229990               0.000000000               0.000000000               0.000000000               0.000000000               0.000174413               0.004671247               0.000090704              -0.000518500               0.001729900               0.001211400               0.000000000               0.000000000               0.000000000               0.000000000               0.000112023               0.004668023               0.000067839              -0.000541493               0.001736490               0.001194997               0.000000000               0.000000000               0.000000000               0.000000000               0.000052440               0.004675013               0.000036992              -0.000564710               0.001746559               0.001181849               0.000000000               0.000000000               0.000000000               0.000000000               0.000028425               0.004688722               0.000017750              -0.000575429               0.001754702               0.001179272               0.000000000               0.000000000               0.000000000               0.000000000               0.001422734               0.007651178              -0.002225311              -0.000422873               0.002691324               0.002268451               0.000000000               0.000000000               0.000000000               0.000000000               0.001005605               0.006618991              -0.001379369              -0.000450272               0.002356399               0.001906127               0.000000000               0.000000000               0.000000000               0.000000000               0.000855135               0.005982253              -0.000537672              -0.000427105               0.002136433               0.001709328               0.000000000               0.000000000               0.000000000               0.000000000               0.000719639               0.005600082              -0.000192835              -0.000430144               0.002010057               0.001579912               0.000000000               0.000000000               0.000000000               0.000000000               0.000611029               0.005346852              -0.000041030              -0.000439219               0.001928673               0.001489453               0.000000000               0.000000000               0.000000000               0.000000000               0.000529461               0.005166230               0.000027191              -0.000447230               0.001871136               0.001423906               0.000000000               0.000000000               0.000000000               0.000000000               0.000465618               0.005027769               0.000056529              -0.000453863               0.001827194               0.001373331               0.000000000               0.000000000               0.000000000               0.000000000               0.000408513               0.004920378               0.000069052              -0.000461854               0.001794061               0.001332207               0.000000000               0.000000000               0.000000000               0.000000000               0.000355685               0.004837088               0.000072742              -0.000471253               0.001769431               0.001298178               0.000000000               0.000000000               0.000000000               0.000000000               0.000306106               0.004771284               0.000070498              -0.000481620               0.001750952               0.001269333               0.000000000               0.000000000               0.000000000               0.000000000               0.000255929               0.004716930               0.000068797              -0.000493642               0.001736841               0.001243200               0.000000000               0.000000000               0.000000000               0.000000000               0.000206505               0.004676384               0.000067542              -0.000507107               0.001727815               0.001220708               0.000000000               0.000000000               0.000000000               0.000000000               0.000159289               0.004648241               0.000063703              -0.000521295               0.001723163               0.001201868               0.000000000               0.000000000               0.000000000               0.000000000               0.000112921               0.004632790               0.000055578              -0.000536752               0.001723165               0.001186413               0.000000000               0.000000000               0.000000000               0.000000000               0.000069294               0.004626902               0.000042060              -0.000552376               0.001726411               0.001174034               0.000000000               0.000000000               0.000000000               0.000000000               0.000032591               0.004627439               0.000022285              -0.000566207               0.001731200               0.001164993               0.000000000               0.000000000               0.000000000               0.000000000               0.000017990               0.004632823               0.000009858              -0.000572355               0.001735044               0.001162689               0.000000000               0.000000000               0.000000000               0.000000000               0.001525149               0.006588938              -0.002353938              -0.000251688               0.002280186               0.002028498               0.000000000               0.000000000               0.000000000               0.000000000               0.000957505               0.005933710              -0.001502635              -0.000382650               0.002105433               0.001722783               0.000000000               0.000000000               0.000000000               0.000000000               0.000640776               0.005647834              -0.000655815              -0.000465687               0.002037821               0.001572134               0.000000000               0.000000000               0.000000000               0.000000000               0.000479701               0.005415981              -0.000317404              -0.000497108               0.001971012               0.001473903               0.000000000               0.000000000               0.000000000               0.000000000               0.000386734               0.005233268              -0.000168975              -0.000509132               0.001914116               0.001404984               0.000000000               0.000000000               0.000000000               0.000000000               0.000334549               0.005079539              -0.000095866              -0.000509485               0.001862991               0.001353506               0.000000000               0.000000000               0.000000000               0.000000000               0.000304172               0.004951974              -0.000056026              -0.000504931               0.001818952               0.001314021               0.000000000               0.000000000               0.000000000               0.000000000               0.000272749               0.004847134              -0.000031579              -0.000503610               0.001783565               0.001279955               0.000000000               0.000000000               0.000000000               0.000000000               0.000236374               0.004761395              -0.000015993              -0.000506533               0.001755960               0.001249427               0.000000000               0.000000000               0.000000000               0.000000000               0.000199067               0.004691666              -0.000008582              -0.000511807               0.001734475               0.001222668               0.000000000               0.000000000               0.000000000               0.000000000               0.000163427               0.004635385              -0.000000648              -0.000518137               0.001717825               0.001199688               0.000000000               0.000000000               0.000000000               0.000000000               0.000127540               0.004591564               0.000009809              -0.000526117               0.001705878               0.001179761               0.000000000               0.000000000               0.000000000               0.000000000               0.000091401               0.004558851               0.000018279              -0.000535580               0.001698128               0.001162549               0.000000000               0.000000000               0.000000000               0.000000000               0.000059799               0.004535051               0.000023335              -0.000544455               0.001693154               0.001148698               0.000000000               0.000000000               0.000000000               0.000000000               0.000033360               0.004514543               0.000020771              -0.000551807               0.001688768               0.001136962               0.000000000               0.000000000               0.000000000               0.000000000               0.000014597               0.004495034               0.000011272              -0.000556404               0.001683798               0.001127394               0.000000000               0.000000000               0.000000000               0.000000000               0.000006343               0.004482607               0.000006485              -0.000557946               0.001680169               0.001122224               0.000000000               0.000000000               0.000000000               0.000000000               0.001533227               0.005516529              -0.002316687              -0.000114609               0.001877027               0.001762418               0.000000000               0.000000000               0.000000000               0.000000000               0.000876668               0.005251439              -0.001549679              -0.000327680               0.001859689               0.001532008               0.000000000               0.000000000               0.000000000               0.000000000               0.000440011               0.005298823              -0.000776105              -0.000497348               0.001932039               0.001434691               0.000000000               0.000000000               0.000000000               0.000000000               0.000279028               0.005196322              -0.000461669              -0.000544904               0.001913724               0.001368821               0.000000000               0.000000000               0.000000000               0.000000000               0.000217203               0.005070150              -0.000313904              -0.000552316               0.001874139               0.001321822               0.000000000               0.000000000               0.000000000               0.000000000               0.000196427               0.004942060              -0.000230669              -0.000544096               0.001828702               0.001284606               0.000000000               0.000000000               0.000000000               0.000000000               0.000189545               0.004828170              -0.000175133              -0.000532441               0.001786854               0.001254414               0.000000000               0.000000000               0.000000000               0.000000000               0.000175804               0.004730065              -0.000134586              -0.000525330               0.001751783               0.001226453               0.000000000               0.000000000               0.000000000               0.000000000               0.000153048               0.004646887              -0.000104194              -0.000523467               0.001723436               0.001199969               0.000000000               0.000000000               0.000000000               0.000000000               0.000124582               0.004577241              -0.000083031              -0.000525436               0.001700877               0.001175441               0.000000000               0.000000000               0.000000000               0.000000000               0.000095194               0.004520077              -0.000062855              -0.000529311               0.001683114               0.001153803               0.000000000               0.000000000               0.000000000               0.000000000               0.000067950               0.004474255              -0.000041215              -0.000533799               0.001669337               0.001135537               0.000000000               0.000000000               0.000000000               0.000000000               0.000043228               0.004432992              -0.000021627              -0.000537912               0.001656953               0.001119041               0.000000000               0.000000000               0.000000000               0.000000000               0.000022255               0.004389431              -0.000006669              -0.000540332               0.001643240               0.001102908               0.000000000               0.000000000               0.000000000               0.000000000               0.000008472               0.004343018               0.000000302              -0.000539699               0.001627558               0.001087859               0.000000000               0.000000000               0.000000000               0.000000000               0.000003659               0.004295491               0.000000809              -0.000535563               0.001610337               0.001074774               0.000000000               0.000000000               0.000000000               0.000000000              -0.000001816               0.004262205               0.000003064              -0.000533455               0.001598539               0.001065084               0.000000000               0.000000000               0.000000000               0.000000000               0.001454861               0.004495213              -0.002145775              -0.000016332               0.001503832               0.001487501               0.000000000               0.000000000               0.000000000               0.000000000               0.000773124               0.004606859              -0.001540060              -0.000285937               0.001630916               0.001344979               0.000000000               0.000000000               0.000000000               0.000000000               0.000282022               0.004941811              -0.000899497              -0.000511967               0.001817909               0.001305942               0.000000000               0.000000000               0.000000000               0.000000000               0.000143624               0.004948855              -0.000608063              -0.000564747               0.001837851               0.001273104               0.000000000               0.000000000               0.000000000               0.000000000               0.000114304               0.004875725              -0.000451811              -0.000566600               0.001814092               0.001247492               0.000000000               0.000000000               0.000000000               0.000000000               0.000120479               0.004779991              -0.000354337              -0.000552318               0.001777420               0.001225102               0.000000000               0.000000000               0.000000000               0.000000000               0.000130977               0.004685273              -0.000282324              -0.000536542               0.001740589               0.001204048               0.000000000               0.000000000               0.000000000               0.000000000               0.000125569               0.004597969              -0.000226232              -0.000527656               0.001708526               0.001180870               0.000000000               0.000000000               0.000000000               0.000000000               0.000107333               0.004520126              -0.000179922              -0.000524765               0.001681615               0.001156850               0.000000000               0.000000000               0.000000000               0.000000000               0.000082980               0.004452724              -0.000144237              -0.000525472               0.001659384               0.001133912               0.000000000               0.000000000               0.000000000               0.000000000               0.000052280               0.004392978              -0.000112171              -0.000529516               0.001640817               0.001111301               0.000000000               0.000000000               0.000000000               0.000000000               0.000023597               0.004336625              -0.000080076              -0.000533228               0.001623270               0.001090042               0.000000000               0.000000000               0.000000000               0.000000000               0.000002961               0.004276146              -0.000053415              -0.000533406               0.001603170               0.001069763               0.000000000               0.000000000               0.000000000               0.000000000              -0.000010819               0.004206381              -0.000030465              -0.000529853               0.001578731               0.001048877               0.000000000               0.000000000               0.000000000               0.000000000              -0.000016240               0.004132396              -0.000013114              -0.000522638               0.001551664               0.001029026               0.000000000               0.000000000               0.000000000               0.000000000              -0.000011294               0.004061794              -0.000003255              -0.000511958               0.001524571               0.001012612               0.000000000               0.000000000               0.000000000               0.000000000              -0.000012167               0.004016201               0.000004262              -0.000506586               0.001507583               0.001000996               0.000000000               0.000000000               0.000000000               0.000000000               0.001335542               0.003603850              -0.001890470               0.000050344               0.001184489               0.001234833               0.000000000               0.000000000               0.000000000               0.000000000               0.000688070               0.004022293              -0.001501279              -0.000244762               0.001422337               0.001177576               0.000000000               0.000000000               0.000000000               0.000000000               0.000191152               0.004603900              -0.001034468              -0.000503805               0.001702553               0.001198748               0.000000000               0.000000000               0.000000000               0.000000000               0.000079093               0.004723406              -0.000758128              -0.000560765               0.001761374               0.001200610               0.000000000               0.000000000               0.000000000               0.000000000               0.000070364               0.004705558              -0.000585726              -0.000561807               0.001755773               0.001193965               0.000000000               0.000000000               0.000000000               0.000000000               0.000091830               0.004642402              -0.000471230              -0.000545863               0.001729406               0.001183543               0.000000000               0.000000000               0.000000000               0.000000000               0.000110544               0.004571451              -0.000386013              -0.000529976               0.001700461               0.001170484               0.000000000               0.000000000               0.000000000               0.000000000               0.000114056               0.004502962              -0.000316761              -0.000520098               0.001674338               0.001154240               0.000000000               0.000000000               0.000000000               0.000000000               0.000099939               0.004435602              -0.000256935              -0.000516972               0.001650843               0.001133871               0.000000000               0.000000000               0.000000000               0.000000000               0.000073450               0.004368365              -0.000208015              -0.000518501               0.001628941               0.001110440               0.000000000               0.000000000               0.000000000               0.000000000               0.000039709               0.004303324              -0.000166225              -0.000523023               0.001608768               0.001085745               0.000000000               0.000000000               0.000000000               0.000000000               0.000005793               0.004235905              -0.000125873              -0.000527314               0.001587726               0.001060411               0.000000000               0.000000000               0.000000000               0.000000000              -0.000020874               0.004158062              -0.000090676              -0.000527584               0.001561868               0.001034284               0.000000000               0.000000000               0.000000000               0.000000000              -0.000038821               0.004070798              -0.000058826              -0.000523406               0.001531388               0.001007982               0.000000000               0.000000000               0.000000000               0.000000000              -0.000052393               0.003980506              -0.000030119              -0.000517209               0.001499225               0.000982016               0.000000000               0.000000000               0.000000000               0.000000000              -0.000063319               0.003894557              -0.000009690              -0.000510563               0.001468361               0.000957797               0.000000000               0.000000000               0.000000000               0.000000000              -0.000068781               0.003845933               0.000000291              -0.000506533               0.001450809               0.000944276               0.000000000               0.000000000               0.000000000               0.000000000               0.001164154               0.002758682              -0.001599717               0.000091720               0.000888977               0.000980697               0.000000000               0.000000000               0.000000000               0.000000000               0.000643018               0.003347924              -0.001444905              -0.000177360               0.001175083               0.000997723               0.000000000               0.000000000               0.000000000               0.000000000               0.000185764               0.004104417              -0.001180077              -0.000443390               0.001515922               0.001072532               0.000000000               0.000000000               0.000000000               0.000000000               0.000080344               0.004365951              -0.000932057              -0.000515614               0.001627174               0.001111560               0.000000000               0.000000000               0.000000000               0.000000000               0.000072856               0.004437641              -0.000747163              -0.000527383               0.001654993               0.001127610               0.000000000               0.000000000               0.000000000               0.000000000               0.000096247               0.004435314              -0.000611440              -0.000518321               0.001651197               0.001132876               0.000000000               0.000000000               0.000000000               0.000000000               0.000117239               0.004407958              -0.000508082              -0.000507029               0.001638314               0.001131285               0.000000000               0.000000000               0.000000000               0.000000000               0.000124054               0.004369592              -0.000424272              -0.000499678               0.001623075               0.001123397               0.000000000               0.000000000               0.000000000               0.000000000               0.000115582               0.004322334              -0.000353718              -0.000496947               0.001606413               0.001109465               0.000000000               0.000000000               0.000000000               0.000000000               0.000092006               0.004265908              -0.000293030              -0.000498735               0.001588200               0.001089465               0.000000000               0.000000000               0.000000000               0.000000000               0.000056559               0.004207086              -0.000238379              -0.000504675               0.001570573               0.001065898               0.000000000               0.000000000               0.000000000               0.000000000               0.000013312               0.004147694              -0.000187672              -0.000513469               0.001553707               0.001040239               0.000000000               0.000000000               0.000000000               0.000000000              -0.000029902               0.004080597              -0.000142340              -0.000521287               0.001533948               0.001012661               0.000000000               0.000000000               0.000000000               0.000000000              -0.000070134               0.004002501              -0.000097743              -0.000526612               0.001509691               0.000983079               0.000000000               0.000000000               0.000000000               0.000000000              -0.000107286               0.003916811              -0.000055302              -0.000529832               0.001482201               0.000952369               0.000000000               0.000000000               0.000000000               0.000000000              -0.000144941               0.003829145              -0.000020612              -0.000532994               0.001454034               0.000921039               0.000000000               0.000000000               0.000000000               0.000000000              -0.000167179               0.003781622              -0.000003804              -0.000535394               0.001438993               0.000903599               0.000000000               0.000000000               0.000000000               0.000000000               0.000893123               0.001988405              -0.001281768               0.000086368               0.000634005               0.000720373               0.000000000               0.000000000               0.000000000               0.000000000               0.000588738               0.002679452              -0.001343805              -0.000114156               0.000931193               0.000817037               0.000000000               0.000000000               0.000000000               0.000000000               0.000235870               0.003538719              -0.001283133              -0.000353889               0.001297524               0.000943635               0.000000000               0.000000000               0.000000000               0.000000000               0.000140422               0.003927831              -0.001094368              -0.000438320               0.001455370               0.001017050               0.000000000               0.000000000               0.000000000               0.000000000               0.000123957               0.004106435              -0.000914516              -0.000466820               0.001524404               0.001057585               0.000000000               0.000000000               0.000000000               0.000000000               0.000133884               0.004187097              -0.000762237              -0.000473180               0.001553411               0.001080232               0.000000000               0.000000000               0.000000000               0.000000000               0.000148811               0.004216808              -0.000642195              -0.000471296               0.001562687               0.001091391               0.000000000               0.000000000               0.000000000               0.000000000               0.000157897               0.004218143              -0.000546808              -0.000468056               0.001562052               0.001093996               0.000000000               0.000000000               0.000000000               0.000000000               0.000153885               0.004197925              -0.000467625              -0.000467033               0.001554972               0.001087939               0.000000000               0.000000000               0.000000000               0.000000000               0.000133720               0.004165360              -0.000397501              -0.000470524               0.001545281               0.001074757               0.000000000               0.000000000               0.000000000               0.000000000               0.000098356               0.004125543              -0.000331185              -0.000478808               0.001534770               0.001055962               0.000000000               0.000000000               0.000000000               0.000000000               0.000051838               0.004084490              -0.000270164              -0.000491121               0.001525190               0.001034069               0.000000000               0.000000000               0.000000000               0.000000000              -0.000002784               0.004038438              -0.000214258              -0.000505848               0.001514748               0.001008901               0.000000000               0.000000000               0.000000000               0.000000000              -0.000060926               0.003978598              -0.000158942              -0.000520171               0.001499576               0.000979406               0.000000000               0.000000000               0.000000000               0.000000000              -0.000120963               0.003903457              -0.000102776              -0.000533292               0.001478903               0.000945611               0.000000000               0.000000000               0.000000000               0.000000000              -0.000186213               0.003823298              -0.000047474              -0.000547741               0.001457000               0.000909259               0.000000000               0.000000000               0.000000000               0.000000000              -0.000233520               0.003775765              -0.000015089              -0.000559539               0.001445089               0.000885550               0.000000000               0.000000000               0.000000000               0.000000000               0.000537884               0.001325190              -0.000951650               0.000036056               0.000429706               0.000465763               0.000000000               0.000000000               0.000000000               0.000000000               0.000497739               0.002043698              -0.001181405              -0.000068812               0.000704162               0.000635351               0.000000000               0.000000000               0.000000000               0.000000000               0.000315406               0.002915603              -0.001294701              -0.000246174               0.001053915               0.000807742               0.000000000               0.000000000               0.000000000               0.000000000               0.000253099               0.003399393              -0.001181532              -0.000330012               0.001243123               0.000913111               0.000000000               0.000000000               0.000000000               0.000000000               0.000228579               0.003680679              -0.001025345              -0.000374367               0.001351670               0.000977302               0.000000000               0.000000000               0.000000000               0.000000000               0.000220357               0.003845224              -0.000875163              -0.000398018               0.001414401               0.001016383               0.000000000               0.000000000               0.000000000               0.000000000               0.000222295               0.003939309              -0.000749968              -0.000409052               0.001449440               0.001040388               0.000000000               0.000000000               0.000000000               0.000000000               0.000227167               0.003992546              -0.000647574              -0.000413880               0.001468795               0.001054915               0.000000000               0.000000000               0.000000000               0.000000000               0.000220853               0.004014760              -0.000559339              -0.000419024               0.001477915               0.001058890               0.000000000               0.000000000               0.000000000               0.000000000               0.000200068               0.004016281              -0.000481614              -0.000427009               0.001481083               0.001054074               0.000000000               0.000000000               0.000000000               0.000000000               0.000165680               0.004004081              -0.000409451              -0.000438379               0.001480807               0.001042427               0.000000000               0.000000000               0.000000000               0.000000000               0.000121992               0.003987719              -0.000343234              -0.000452717               0.001480132               0.001027415               0.000000000               0.000000000               0.000000000               0.000000000               0.000067726               0.003963831              -0.000282010              -0.000470080               0.001477957               0.001007877               0.000000000               0.000000000               0.000000000               0.000000000               0.000005589               0.003927671              -0.000221103              -0.000488862               0.001472165               0.000983303               0.000000000               0.000000000               0.000000000               0.000000000              -0.000065405               0.003874777              -0.000154000              -0.000508873               0.001461203               0.000952331               0.000000000               0.000000000               0.000000000               0.000000000              -0.000147186               0.003812901              -0.000078100              -0.000531806               0.001448223               0.000916417               0.000000000               0.000000000               0.000000000               0.000000000              -0.000209622               0.003769302              -0.000031052              -0.000549770               0.001439678               0.000889908               0.000000000               0.000000000               0.000000000               0.000000000               0.000132003               0.000796908              -0.000642817              -0.000050113               0.000282337               0.000232224               0.000000000               0.000000000               0.000000000               0.000000000               0.000371296               0.001472359              -0.000973037              -0.000044810               0.000505717               0.000460908               0.000000000               0.000000000               0.000000000               0.000000000               0.000403372               0.002290907              -0.001203804              -0.000135100               0.000808661               0.000673561               0.000000000               0.000000000               0.000000000               0.000000000               0.000395409               0.002828724              -0.001160281              -0.000205313               0.001011336               0.000806023               0.000000000               0.000000000               0.000000000               0.000000000               0.000372245               0.003186068              -0.001041243              -0.000258667               0.001148234               0.000889567               0.000000000               0.000000000               0.000000000               0.000000000               0.000352501               0.003422446              -0.000913237              -0.000295618               0.001239343               0.000943725               0.000000000               0.000000000               0.000000000               0.000000000               0.000339510               0.003585577              -0.000799377              -0.000320881               0.001302140               0.000981260               0.000000000               0.000000000               0.000000000               0.000000000               0.000332138               0.003700921              -0.000698358              -0.000338063               0.001346316               0.001008253               0.000000000               0.000000000               0.000000000               0.000000000               0.000319129               0.003776057              -0.000607312              -0.000352333               0.001376117               0.001023784               0.000000000               0.000000000               0.000000000               0.000000000               0.000297225               0.003822052              -0.000526778              -0.000366297               0.001396103               0.001029807               0.000000000               0.000000000               0.000000000               0.000000000               0.000265612               0.003846724              -0.000453980              -0.000381235               0.001409307               0.001028072               0.000000000               0.000000000               0.000000000               0.000000000               0.000228352               0.003860472              -0.000388475              -0.000396926               0.001419120               0.001022194               0.000000000               0.000000000               0.000000000               0.000000000               0.000183088               0.003860732              -0.000328589              -0.000413933               0.001424875               0.001010943               0.000000000               0.000000000               0.000000000               0.000000000               0.000127518               0.003845428              -0.000266179              -0.000432858               0.001426082               0.000993224               0.000000000               0.000000000               0.000000000               0.000000000               0.000061315               0.003822395              -0.000191890              -0.000454805               0.001425721               0.000970915               0.000000000               0.000000000               0.000000000               0.000000000              -0.000018300               0.003791311              -0.000101776              -0.000480775               0.001424016               0.000943241               0.000000000               0.000000000               0.000000000               0.000000000              -0.000080182               0.003761451              -0.000047014              -0.000500248               0.001420554               0.000920306               0.000000000               0.000000000               0.000000000               0.000000000              -0.000273622               0.000424686              -0.000383696              -0.000155694               0.000193458               0.000037764               0.000000000               0.000000000               0.000000000               0.000000000               0.000221427               0.001002761              -0.000734750              -0.000042311               0.000348353               0.000306042               0.000000000               0.000000000               0.000000000               0.000000000               0.000473664               0.001717595              -0.001009935              -0.000037077               0.000584884               0.000547808               0.000000000               0.000000000               0.000000000               0.000000000               0.000542391               0.002270183              -0.001016586              -0.000080377               0.000783512               0.000703135               0.000000000               0.000000000               0.000000000               0.000000000               0.000539349               0.002676912              -0.000940342              -0.000132359               0.000936414               0.000804056               0.000000000               0.000000000               0.000000000               0.000000000               0.000515363               0.002973645              -0.000845605              -0.000178445               0.001050687               0.000872242               0.000000000               0.000000000               0.000000000               0.000000000               0.000489446               0.003200657              -0.000755038              -0.000216540               0.001139055               0.000922515               0.000000000               0.000000000               0.000000000               0.000000000               0.000466892               0.003376904              -0.000668567              -0.000247028               0.001207966               0.000960938               0.000000000               0.000000000               0.000000000               0.000000000               0.000443894               0.003507754              -0.000586317              -0.000272008               0.001259909               0.000987901               0.000000000               0.000000000               0.000000000               0.000000000               0.000416667               0.003599633              -0.000511322              -0.000293703               0.001297767               0.001004063               0.000000000               0.000000000               0.000000000               0.000000000               0.000386687               0.003664354              -0.000444861              -0.000313036               0.001325784               0.001012748               0.000000000               0.000000000               0.000000000               0.000000000               0.000357023               0.003712361              -0.000386621              -0.000330161               0.001347495               0.001017334               0.000000000               0.000000000               0.000000000               0.000000000               0.000322996               0.003741284              -0.000332794              -0.000346536               0.001362594               0.001016058               0.000000000               0.000000000               0.000000000               0.000000000               0.000282620               0.003754319              -0.000275219              -0.000363307               0.001372529               0.001009223               0.000000000               0.000000000               0.000000000               0.000000000               0.000237925               0.003761320              -0.000202954              -0.000380942               0.001380741               0.000999799               0.000000000               0.000000000               0.000000000               0.000000000               0.000185527               0.003760534              -0.000110188              -0.000400493               0.001386996               0.000986503               0.000000000               0.000000000               0.000000000               0.000000000               0.000143765               0.003749800              -0.000054861              -0.000414812               0.001388192               0.000973379               0.000000000               0.000000000               0.000000000               0.000000000              -0.000620654               0.000190212              -0.000195738              -0.000256522               0.000148910              -0.000107612               0.000000000               0.000000000               0.000000000               0.000000000               0.000080839               0.000657495              -0.000484132              -0.000051873               0.000236453               0.000184581               0.000000000               0.000000000               0.000000000               0.000000000               0.000521270               0.001257195              -0.000724956               0.000038326               0.000406285               0.000444611               0.000000000               0.000000000               0.000000000               0.000000000               0.000671290               0.001798645              -0.000756565               0.000026902               0.000590575               0.000617477               0.000000000               0.000000000               0.000000000               0.000000000               0.000699479               0.002231278              -0.000716941              -0.000016606               0.000749287               0.000732681               0.000000000               0.000000000               0.000000000               0.000000000               0.000676550               0.002569559              -0.000657562              -0.000067489               0.000879007               0.000811518               0.000000000               0.000000000               0.000000000               0.000000000               0.000639936               0.002845261              -0.000597087              -0.000115682               0.000986971               0.000871289               0.000000000               0.000000000               0.000000000               0.000000000               0.000601877               0.003070749              -0.000534915              -0.000158140               0.001076286               0.000918146               0.000000000               0.000000000               0.000000000               0.000000000               0.000565386               0.003248160              -0.000472413              -0.000194000               0.001147376               0.000953376               0.000000000               0.000000000               0.000000000               0.000000000               0.000530732               0.003383681              -0.000415405              -0.000223935               0.001202528               0.000978592               0.000000000               0.000000000               0.000000000               0.000000000               0.000500898               0.003487588              -0.000365765              -0.000248111               0.001245222               0.000997110               0.000000000               0.000000000               0.000000000               0.000000000               0.000475571               0.003569660              -0.000322035              -0.000267868               0.001279164               0.001011296               0.000000000               0.000000000               0.000000000               0.000000000               0.000453892               0.003631918              -0.000280548              -0.000283779               0.001305220               0.001021441               0.000000000               0.000000000               0.000000000               0.000000000               0.000435466               0.003678039              -0.000235942              -0.000296454               0.001324819               0.001028365               0.000000000               0.000000000               0.000000000               0.000000000               0.000424182               0.003712962              -0.000178373              -0.000305051               0.001339325               0.001034274               0.000000000               0.000000000               0.000000000               0.000000000               0.000421073               0.003735137              -0.000099300              -0.000308989               0.001348030               0.001039041               0.000000000               0.000000000               0.000000000               0.000000000               0.000421240               0.003741322              -0.000052440              -0.000309700               0.001350328               0.001040629               0.000000000               0.000000000               0.000000000               0.000000000              -0.000855680               0.000065473              -0.000078148              -0.000329064               0.000131511              -0.000197552               0.000000000               0.000000000               0.000000000               0.000000000              -0.000021758               0.000450066              -0.000239494              -0.000064418               0.000171493               0.000107075               0.000000000               0.000000000               0.000000000               0.000000000               0.000546527               0.000963205              -0.000378579               0.000084546               0.000292883               0.000377429               0.000000000               0.000000000               0.000000000               0.000000000               0.000756656               0.001483153              -0.000404356               0.000098351               0.000461596               0.000559946               0.000000000               0.000000000               0.000000000               0.000000000               0.000812340               0.001922584              -0.000389108               0.000064304               0.000619420               0.000683724               0.000000000               0.000000000               0.000000000               0.000000000               0.000797188               0.002284522              -0.000361394               0.000013380               0.000757040               0.000770420               0.000000000               0.000000000               0.000000000               0.000000000               0.000751349               0.002589229              -0.000331863              -0.000041898               0.000877033               0.000835136               0.000000000               0.000000000               0.000000000               0.000000000               0.000696186               0.002848544              -0.000299929              -0.000094998               0.000981171               0.000886173               0.000000000               0.000000000               0.000000000               0.000000000               0.000646578               0.003063037              -0.000266564              -0.000140413               0.001067807               0.000927394               0.000000000               0.000000000               0.000000000               0.000000000               0.000604771               0.003228888              -0.000236500              -0.000176822               0.001135226               0.000958404               0.000000000               0.000000000               0.000000000               0.000000000               0.000572799               0.003356749              -0.000210212              -0.000204794               0.001187170               0.000982376               0.000000000               0.000000000               0.000000000               0.000000000               0.000552407               0.003463274              -0.000186823              -0.000225756               0.001229665               0.001003909               0.000000000               0.000000000               0.000000000               0.000000000               0.000543499               0.003550770              -0.000164728              -0.000240034               0.001263589               0.001023556               0.000000000               0.000000000               0.000000000               0.000000000               0.000546287               0.003618284              -0.000140272              -0.000247427               0.001288558               0.001041131               0.000000000               0.000000000               0.000000000               0.000000000               0.000566870               0.003673086              -0.000108253              -0.000246559               0.001306536               0.001059977               0.000000000               0.000000000               0.000000000               0.000000000               0.000613317               0.003715641              -0.000061782              -0.000234461               0.001316688               0.001082228               0.000000000               0.000000000               0.000000000               0.000000000               0.000660135               0.003737972              -0.000034383              -0.000219695               0.001319210               0.001099515               0.000000000               0.000000000               0.000000000               0.000000000              -0.000938966               0.000028984               0.000000000              -0.000355735               0.000128239              -0.000227496               0.000000000               0.000000000               0.000000000               0.000000000              -0.000060242               0.000381778              -0.000000000              -0.000070313               0.000150696               0.000080382               0.000000000               0.000000000               0.000000000               0.000000000               0.000553503               0.000861173              -0.000000000               0.000099916               0.000253750               0.000353666               0.000000000               0.000000000               0.000000000               0.000000000               0.000785353               0.001372355              -0.000000000               0.000122962               0.000416460               0.000539422               0.000000000               0.000000000               0.000000000               0.000000000               0.000852733               0.001812470              -0.000000000               0.000093215               0.000573079               0.000666294               0.000000000               0.000000000               0.000000000               0.000000000               0.000841863               0.002179517               0.000000000               0.000043258               0.000712079               0.000755337               0.000000000               0.000000000               0.000000000               0.000000000               0.000792835               0.002495934              -0.000000000              -0.000014679               0.000836863               0.000822184               0.000000000               0.000000000               0.000000000               0.000000000               0.000729712               0.002768647               0.000000000              -0.000072439               0.000947019               0.000874580               0.000000000               0.000000000               0.000000000               0.000000000               0.000671925               0.002994172               0.000000000              -0.000122299               0.001038814               0.000916515               0.000000000               0.000000000               0.000000000               0.000000000               0.000626824               0.003171695              -0.000000000              -0.000161403               0.001111022               0.000949619               0.000000000               0.000000000               0.000000000               0.000000000               0.000594669               0.003309335               0.000000000              -0.000190666               0.001166656               0.000975990               0.000000000               0.000000000               0.000000000               0.000000000               0.000578194               0.003422234               0.000000000              -0.000210956               0.001211052               0.001000096               0.000000000               0.000000000               0.000000000               0.000000000               0.000575562               0.003516764               0.000000000              -0.000223759               0.001246829               0.001023070               0.000000000               0.000000000               0.000000000               0.000000000               0.000587502               0.003591764              -0.000000000              -0.000228657               0.001273462               0.001044805               0.000000000               0.000000000               0.000000000               0.000000000               0.000621424               0.003654652              -0.000000000              -0.000223797               0.001292804               0.001069007               0.000000000               0.000000000               0.000000000               0.000000000               0.000688399               0.003707267              -0.000000000              -0.000205258               0.001304163               0.001098904               0.000000000               0.000000000               0.000000000               0.000000000               0.000755495               0.003737561              -0.000000000              -0.000183884               0.001307136               0.001123252               0.000000000               0.000000000               0.000000000               0.000000000               0.000000000               0.000000000               0.000000000               0.000000000               0.000000000               0.000000000               0.000000000               0.000000000               0.000000000               0.000000000               0.000000000               0.000000000               0.000000000               0.000000000               0.000000000               0.000000000               0.000000000               0.000000000               0.000000000               0.000000000               0.000000000               0.000000000               0.000000000               0.000000000               0.000000000               0.000000000               0.000000000               0.000000000               0.000000000               0.000000000               0.000000000               0.000000000               0.000000000               0.000000000               0.000000000               0.000000000               0.000000000               0.000000000               0.000000000               0.000000000               0.000000000               0.000000000               0.000000000               0.000000000               0.000000000               0.000000000               0.000000000               0.000000000               0.000000000               0.000000000               0.000000000               0.000000000               0.000000000               0.000000000               0.000000000               0.000000000               0.000000000               0.000000000               0.000000000               0.000000000               0.000000000               0.000000000               0.000000000               0.000000000               0.000000000               0.000000000               0.000000000               0.000000000               0.000000000               0.000000000               0.000000000               0.000000000               0.000000000               0.000000000               0.000000000               0.000000000               0.000000000               0.000000000               0.000000000               0.000000000               0.000000000               0.000000000               0.000000000               0.000000000               0.000000000               0.000000000               0.000000000               0.000000000               0.000000000               0.000000000               0.000000000               0.000000000               0.000000000               0.000000000               0.000000000               0.000000000               0.000000000               0.000000000               0.000000000               0.000000000               0.000000000               0.000000000               0.000000000               0.000000000               0.000000000               0.000000000               0.000000000               0.000000000               0.000000000               0.000000000               0.000000000               0.000000000               0.000000000               0.000000000               0.000000000               0.000000000               0.000000000               0.000000000               0.000000000               0.000000000               0.000000000               0.000000000               0.000000000               0.000000000               0.000000000               0.000000000               0.000000000               0.000000000               0.000000000               0.000000000               0.000000000               0.000000000               0.000000000               0.000000000               0.000000000               0.000000000               0.000000000               0.000000000               0.000000000               0.000000000               0.000000000               0.000000000               0.000000000               0.000000000               0.000000000               0.000000000               0.000000000               0.000000000               0.000000000               0.000000000               0.000000000               0.000000000               0.000000000               0.000000000               0.000000000               0.000000000               0.000000000               0.000000000               0.000000000               0.000000000               0.000000000               0.000000000               0.000000000               0.000000000               0.000000000               0.000000000               0.000000000               0.000000000               0.000000000               0.000000000               0.000945004               0.009920326               0.000740334              -0.000885662               0.003601963               0.002716301               0.000000000               0.000000000               0.000000000               0.000000000               0.000981614               0.008130319               0.000448394              -0.000648183               0.002926140               0.002277957               0.000000000               0.000000000               0.000000000               0.000000000               0.001313459               0.006710645               0.000150235              -0.000346283               0.002352287               0.002006004               0.000000000               0.000000000               0.000000000               0.000000000               0.001338096               0.005928514               0.000015050              -0.000239278               0.002055911               0.001816633               0.000000000               0.000000000               0.000000000               0.000000000               0.001256381               0.005466993              -0.000047599              -0.000212231               0.001893056               0.001680826               0.000000000               0.000000000               0.000000000               0.000000000               0.001137586               0.005179521              -0.000075482              -0.000220845               0.001800105               0.001579260               0.000000000               0.000000000               0.000000000               0.000000000               0.001007517               0.004992394              -0.000086805              -0.000246230               0.001746191               0.001499962               0.000000000               0.000000000               0.000000000               0.000000000               0.000878876               0.004865618              -0.000090523              -0.000278623               0.001714731               0.001436108               0.000000000               0.000000000               0.000000000               0.000000000               0.000756734               0.004776675              -0.000090712              -0.000313308               0.001696645               0.001383337               0.000000000               0.000000000               0.000000000               0.000000000               0.000639480               0.004711324              -0.000088752              -0.000349110               0.001686795               0.001337686               0.000000000               0.000000000               0.000000000               0.000000000               0.000531322               0.004662241              -0.000086236              -0.000383533               0.001681909               0.001298376               0.000000000               0.000000000               0.000000000               0.000000000               0.000433117               0.004625005              -0.000083527              -0.000415706               0.001680222               0.001264516               0.000000000               0.000000000               0.000000000               0.000000000               0.000338005               0.004592136              -0.000077534              -0.000447264               0.001679784               0.001232521               0.000000000               0.000000000               0.000000000               0.000000000               0.000246429               0.004558614              -0.000067582              -0.000477415               0.001678661               0.001201247               0.000000000               0.000000000               0.000000000               0.000000000               0.000159192               0.004521017              -0.000052875              -0.000505429               0.001675467               0.001170038               0.000000000               0.000000000               0.000000000               0.000000000               0.000076856               0.004474926              -0.000031108              -0.000530543               0.001668475               0.001137932               0.000000000               0.000000000               0.000000000               0.000000000               0.000035935               0.004442406              -0.000017824              -0.000541824               0.001661395               0.001119571               0.000000000               0.000000000               0.000000000               0.000000000               0.001078813               0.009408187               0.001398085              -0.000771467               0.003393187               0.002621719               0.000000000               0.000000000               0.000000000               0.000000000               0.000999700               0.007782126               0.000847544              -0.000597877               0.002793308               0.002195431               0.000000000               0.000000000               0.000000000               0.000000000               0.001207631               0.006541078               0.000289523              -0.000364772               0.002301928               0.001937156               0.000000000               0.000000000               0.000000000               0.000000000               0.001182380               0.005854128               0.000041164              -0.000288373               0.002047481               0.001759108               0.000000000               0.000000000               0.000000000               0.000000000               0.001086004               0.005446769              -0.000074145              -0.000273594               0.001906769               0.001633176               0.000000000               0.000000000               0.000000000               0.000000000               0.000971873               0.005191721              -0.000125325              -0.000284512               0.001825394               0.001540882               0.000000000               0.000000000               0.000000000               0.000000000               0.000857466               0.005025341              -0.000144460              -0.000306617               0.001777303               0.001470686               0.000000000               0.000000000               0.000000000               0.000000000               0.000747969               0.004908977              -0.000148608              -0.000333133               0.001747354               0.001414221               0.000000000               0.000000000               0.000000000               0.000000000               0.000646940               0.004824967              -0.000146953              -0.000360518               0.001728479               0.001367961               0.000000000               0.000000000               0.000000000               0.000000000               0.000549659               0.004761133              -0.000142805              -0.000389019               0.001716701               0.001327683               0.000000000               0.000000000               0.000000000               0.000000000               0.000460575               0.004714470              -0.000137993              -0.000416592               0.001710338               0.001293746               0.000000000               0.000000000               0.000000000               0.000000000               0.000379705               0.004680928              -0.000132049              -0.000442725               0.001707869               0.001265143               0.000000000               0.000000000               0.000000000               0.000000000               0.000299201               0.004655603              -0.000120929              -0.000469749               0.001708435               0.001238686               0.000000000               0.000000000               0.000000000               0.000000000               0.000220159               0.004636014              -0.000104286              -0.000496941               0.001710970               0.001214029               0.000000000               0.000000000               0.000000000               0.000000000               0.000142410               0.004621162              -0.000080440              -0.000524240               0.001715118               0.001190878               0.000000000               0.000000000               0.000000000               0.000000000               0.000067514               0.004610150              -0.000046124              -0.000550950               0.001720351               0.001169402               0.000000000               0.000000000               0.000000000               0.000000000               0.000034565               0.004609342              -0.000024856              -0.000563204               0.001724167               0.001160962               0.000000000               0.000000000               0.000000000               0.000000000               0.001257177               0.008622254               0.001906080              -0.000606340               0.003076169               0.002469829               0.000000000               0.000000000               0.000000000               0.000000000               0.001015558               0.007256370               0.001162918              -0.000526211               0.002594169               0.002067958               0.000000000               0.000000000               0.000000000               0.000000000               0.001049952               0.006289181               0.000417545              -0.000392415               0.002227178               0.001834763               0.000000000               0.000000000               0.000000000               0.000000000               0.000964750               0.005747240               0.000098413              -0.000356623               0.002034602               0.001677979               0.000000000               0.000000000               0.000000000               0.000000000               0.000856863               0.005413879              -0.000046618              -0.000355410               0.001923078               0.001567668               0.000000000               0.000000000               0.000000000               0.000000000               0.000753008               0.005197929              -0.000110334              -0.000367362               0.001855080               0.001487718               0.000000000               0.000000000               0.000000000               0.000000000               0.000659172               0.005047936              -0.000133882              -0.000383802               0.001810562               0.001426761               0.000000000               0.000000000               0.000000000               0.000000000               0.000574827               0.004937557              -0.000139588              -0.000401633               0.001779714               0.001378080               0.000000000               0.000000000               0.000000000               0.000000000               0.000500443               0.004855898              -0.000137755              -0.000419320               0.001758390               0.001339070               0.000000000               0.000000000               0.000000000               0.000000000               0.000429525               0.004792305              -0.000132597              -0.000437965               0.001743408               0.001305442               0.000000000               0.000000000               0.000000000               0.000000000               0.000361247               0.004743199              -0.000126972              -0.000457431               0.001733528               0.001276097               0.000000000               0.000000000               0.000000000               0.000000000               0.000297981               0.004707758              -0.000119901              -0.000476726               0.001728146               0.001251420               0.000000000               0.000000000               0.000000000               0.000000000               0.000236138               0.004683882              -0.000108012              -0.000496932               0.001726922               0.001229990               0.000000000               0.000000000               0.000000000               0.000000000               0.000174413               0.004671247              -0.000090704              -0.000518500               0.001729900               0.001211400               0.000000000               0.000000000               0.000000000               0.000000000               0.000112023               0.004668023              -0.000067839              -0.000541493               0.001736490               0.001194997               0.000000000               0.000000000               0.000000000               0.000000000               0.000052440               0.004675013              -0.000036992              -0.000564710               0.001746559               0.001181849               0.000000000               0.000000000               0.000000000               0.000000000               0.000028425               0.004688722              -0.000017750              -0.000575429               0.001754702               0.001179272               0.000000000               0.000000000               0.000000000               0.000000000               0.001422734               0.007651178               0.002225311              -0.000422873               0.002691324               0.002268451               0.000000000               0.000000000               0.000000000               0.000000000               0.001005605               0.006618991               0.001379369              -0.000450272               0.002356399               0.001906127               0.000000000               0.000000000               0.000000000               0.000000000               0.000855135               0.005982253               0.000537672              -0.000427105               0.002136433               0.001709328               0.000000000               0.000000000               0.000000000               0.000000000               0.000719639               0.005600082               0.000192835              -0.000430144               0.002010057               0.001579912               0.000000000               0.000000000               0.000000000               0.000000000               0.000611029               0.005346852               0.000041030              -0.000439219               0.001928673               0.001489453               0.000000000               0.000000000               0.000000000               0.000000000               0.000529461               0.005166230              -0.000027191              -0.000447230               0.001871136               0.001423906               0.000000000               0.000000000               0.000000000               0.000000000               0.000465618               0.005027769              -0.000056529              -0.000453863               0.001827194               0.001373331               0.000000000               0.000000000               0.000000000               0.000000000               0.000408513               0.004920378              -0.000069052              -0.000461854               0.001794061               0.001332207               0.000000000               0.000000000               0.000000000               0.000000000               0.000355685               0.004837088              -0.000072742              -0.000471253               0.001769431               0.001298178               0.000000000               0.000000000               0.000000000               0.000000000               0.000306106               0.004771284              -0.000070498              -0.000481620               0.001750952               0.001269333               0.000000000               0.000000000               0.000000000               0.000000000               0.000255929               0.004716930              -0.000068797              -0.000493642               0.001736841               0.001243200               0.000000000               0.000000000               0.000000000               0.000000000               0.000206505               0.004676384              -0.000067542              -0.000507107               0.001727815               0.001220708               0.000000000               0.000000000               0.000000000               0.000000000               0.000159289               0.004648241              -0.000063703              -0.000521295               0.001723163               0.001201868               0.000000000               0.000000000               0.000000000               0.000000000               0.000112921               0.004632790              -0.000055578              -0.000536752               0.001723165               0.001186413               0.000000000               0.000000000               0.000000000               0.000000000               0.000069294               0.004626902              -0.000042060              -0.000552376               0.001726411               0.001174034               0.000000000               0.000000000               0.000000000               0.000000000               0.000032591               0.004627439              -0.000022285              -0.000566207               0.001731200               0.001164993               0.000000000               0.000000000               0.000000000               0.000000000               0.000017990               0.004632823              -0.000009858              -0.000572355               0.001735044               0.001162689               0.000000000               0.000000000               0.000000000               0.000000000               0.001525149               0.006588938               0.002353938              -0.000251688               0.002280186               0.002028498               0.000000000               0.000000000               0.000000000               0.000000000               0.000957505               0.005933710               0.001502635              -0.000382650               0.002105433               0.001722783               0.000000000               0.000000000               0.000000000               0.000000000               0.000640776               0.005647834               0.000655815              -0.000465687               0.002037821               0.001572134               0.000000000               0.000000000               0.000000000               0.000000000               0.000479701               0.005415981               0.000317404              -0.000497108               0.001971012               0.001473903               0.000000000               0.000000000               0.000000000               0.000000000               0.000386734               0.005233268               0.000168975              -0.000509132               0.001914116               0.001404984               0.000000000               0.000000000               0.000000000               0.000000000               0.000334549               0.005079539               0.000095866              -0.000509485               0.001862991               0.001353506               0.000000000               0.000000000               0.000000000               0.000000000               0.000304172               0.004951974               0.000056026              -0.000504931               0.001818952               0.001314021               0.000000000               0.000000000               0.000000000               0.000000000               0.000272749               0.004847134               0.000031579              -0.000503610               0.001783565               0.001279955               0.000000000               0.000000000               0.000000000               0.000000000               0.000236374               0.004761395               0.000015993              -0.000506533               0.001755960               0.001249427               0.000000000               0.000000000               0.000000000               0.000000000               0.000199067               0.004691666               0.000008582              -0.000511807               0.001734475               0.001222668               0.000000000               0.000000000               0.000000000               0.000000000               0.000163427               0.004635385               0.000000648              -0.000518137               0.001717825               0.001199688               0.000000000               0.000000000               0.000000000               0.000000000               0.000127540               0.004591564              -0.000009809              -0.000526117               0.001705878               0.001179761               0.000000000               0.000000000               0.000000000               0.000000000               0.000091401               0.004558851              -0.000018279              -0.000535580               0.001698128               0.001162549               0.000000000               0.000000000               0.000000000               0.000000000               0.000059799               0.004535051              -0.000023335              -0.000544455               0.001693154               0.001148698               0.000000000               0.000000000               0.000000000               0.000000000               0.000033360               0.004514543              -0.000020771              -0.000551807               0.001688768               0.001136962               0.000000000               0.000000000               0.000000000               0.000000000               0.000014597               0.004495034              -0.000011272              -0.000556404               0.001683798               0.001127394               0.000000000               0.000000000               0.000000000               0.000000000               0.000006343               0.004482607              -0.000006485              -0.000557946               0.001680169               0.001122224               0.000000000               0.000000000               0.000000000               0.000000000               0.001533227               0.005516529               0.002316687              -0.000114609               0.001877027               0.001762418               0.000000000               0.000000000               0.000000000               0.000000000               0.000876668               0.005251439               0.001549679              -0.000327680               0.001859689               0.001532008               0.000000000               0.000000000               0.000000000               0.000000000               0.000440011               0.005298823               0.000776105              -0.000497348               0.001932039               0.001434691               0.000000000               0.000000000               0.000000000               0.000000000               0.000279028               0.005196322               0.000461669              -0.000544904               0.001913724               0.001368821               0.000000000               0.000000000               0.000000000               0.000000000               0.000217203               0.005070150               0.000313904              -0.000552316               0.001874139               0.001321822               0.000000000               0.000000000               0.000000000               0.000000000               0.000196427               0.004942060               0.000230669              -0.000544096               0.001828702               0.001284606               0.000000000               0.000000000               0.000000000               0.000000000               0.000189545               0.004828170               0.000175133              -0.000532441               0.001786854               0.001254414               0.000000000               0.000000000               0.000000000               0.000000000               0.000175804               0.004730065               0.000134586              -0.000525330               0.001751783               0.001226453               0.000000000               0.000000000               0.000000000               0.000000000               0.000153048               0.004646887               0.000104194              -0.000523467               0.001723436               0.001199969               0.000000000               0.000000000               0.000000000               0.000000000               0.000124582               0.004577241               0.000083031              -0.000525436               0.001700877               0.001175441               0.000000000               0.000000000               0.000000000               0.000000000               0.000095194               0.004520077               0.000062855              -0.000529311               0.001683114               0.001153803               0.000000000               0.000000000               0.000000000               0.000000000               0.000067950               0.004474255               0.000041215              -0.000533799               0.001669337               0.001135537               0.000000000               0.000000000               0.000000000               0.000000000               0.000043228               0.004432992               0.000021627              -0.000537912               0.001656953               0.001119041               0.000000000               0.000000000               0.000000000               0.000000000               0.000022255               0.004389431               0.000006669              -0.000540332               0.001643240               0.001102908               0.000000000               0.000000000               0.000000000               0.000000000               0.000008472               0.004343018              -0.000000302              -0.000539699               0.001627558               0.001087859               0.000000000               0.000000000               0.000000000               0.000000000               0.000003659               0.004295491              -0.000000809              -0.000535563               0.001610337               0.001074774               0.000000000               0.000000000               0.000000000               0.000000000              -0.000001816               0.004262205              -0.000003064              -0.000533455               0.001598539               0.001065084               0.000000000               0.000000000               0.000000000               0.000000000               0.001454861               0.004495213               0.002145775              -0.000016332               0.001503832               0.001487501               0.000000000               0.000000000               0.000000000               0.000000000               0.000773124               0.004606859               0.001540060              -0.000285937               0.001630916               0.001344979               0.000000000               0.000000000               0.000000000               0.000000000               0.000282022               0.004941811               0.000899497              -0.000511967               0.001817909               0.001305942               0.000000000               0.000000000               0.000000000               0.000000000               0.000143624               0.004948855               0.000608063              -0.000564747               0.001837851               0.001273104               0.000000000               0.000000000               0.000000000               0.000000000               0.000114304               0.004875725               0.000451811              -0.000566600               0.001814092               0.001247492               0.000000000               0.000000000               0.000000000               0.000000000               0.000120479               0.004779991               0.000354337              -0.000552318               0.001777420               0.001225102               0.000000000               0.000000000               0.000000000               0.000000000               0.000130977               0.004685273               0.000282324              -0.000536542               0.001740589               0.001204048               0.000000000               0.000000000               0.000000000               0.000000000               0.000125569               0.004597969               0.000226232              -0.000527656               0.001708526               0.001180870               0.000000000               0.000000000               0.000000000               0.000000000               0.000107333               0.004520126               0.000179922              -0.000524765               0.001681615               0.001156850               0.000000000               0.000000000               0.000000000               0.000000000               0.000082980               0.004452724               0.000144237              -0.000525472               0.001659384               0.001133912               0.000000000               0.000000000               0.000000000               0.000000000               0.000052280               0.004392978               0.000112171              -0.000529516               0.001640817               0.001111301               0.000000000               0.000000000               0.000000000               0.000000000               0.000023597               0.004336625               0.000080076              -0.000533228               0.001623270               0.001090042               0.000000000               0.000000000               0.000000000               0.000000000               0.000002961               0.004276146               0.000053415              -0.000533406               0.001603170               0.001069763               0.000000000               0.000000000               0.000000000               0.000000000              -0.000010819               0.004206381               0.000030465              -0.000529853               0.001578731               0.001048877               0.000000000               0.000000000               0.000000000               0.000000000              -0.000016240               0.004132396               0.000013114              -0.000522638               0.001551664               0.001029026               0.000000000               0.000000000               0.000000000               0.000000000              -0.000011294               0.004061794               0.000003255              -0.000511958               0.001524571               0.001012612               0.000000000               0.000000000               0.000000000               0.000000000              -0.000012167               0.004016201              -0.000004262              -0.000506586               0.001507583               0.001000996               0.000000000               0.000000000               0.000000000               0.000000000               0.001335542               0.003603850               0.001890470               0.000050344               0.001184489               0.001234833               0.000000000               0.000000000               0.000000000               0.000000000               0.000688070               0.004022293               0.001501279              -0.000244762               0.001422337               0.001177576               0.000000000               0.000000000               0.000000000               0.000000000               0.000191152               0.004603900               0.001034468              -0.000503805               0.001702553               0.001198748               0.000000000               0.000000000               0.000000000               0.000000000               0.000079093               0.004723406               0.000758128              -0.000560765               0.001761374               0.001200610               0.000000000               0.000000000               0.000000000               0.000000000               0.000070364               0.004705558               0.000585726              -0.000561807               0.001755773               0.001193965               0.000000000               0.000000000               0.000000000               0.000000000               0.000091830               0.004642402               0.000471230              -0.000545863               0.001729406               0.001183543               0.000000000               0.000000000               0.000000000               0.000000000               0.000110544               0.004571451               0.000386013              -0.000529976               0.001700461               0.001170484               0.000000000               0.000000000               0.000000000               0.000000000               0.000114056               0.004502962               0.000316761              -0.000520098               0.001674338               0.001154240               0.000000000               0.000000000               0.000000000               0.000000000               0.000099939               0.004435602               0.000256935              -0.000516972               0.001650843               0.001133871               0.000000000               0.000000000               0.000000000               0.000000000               0.000073450               0.004368365               0.000208015              -0.000518501               0.001628941               0.001110440               0.000000000               0.000000000               0.000000000               0.000000000               0.000039709               0.004303324               0.000166225              -0.000523023               0.001608768               0.001085745               0.000000000               0.000000000               0.000000000               0.000000000               0.000005793               0.004235905               0.000125873              -0.000527314               0.001587726               0.001060411               0.000000000               0.000000000               0.000000000               0.000000000              -0.000020874               0.004158062               0.000090676              -0.000527584               0.001561868               0.001034284               0.000000000               0.000000000               0.000000000               0.000000000              -0.000038821               0.004070798               0.000058826              -0.000523406               0.001531388               0.001007982               0.000000000               0.000000000               0.000000000               0.000000000              -0.000052393               0.003980506               0.000030119              -0.000517209               0.001499225               0.000982016               0.000000000               0.000000000               0.000000000               0.000000000              -0.000063319               0.003894557               0.000009690              -0.000510563               0.001468361               0.000957797               0.000000000               0.000000000               0.000000000               0.000000000              -0.000068781               0.003845933              -0.000000291              -0.000506533               0.001450809               0.000944276               0.000000000               0.000000000               0.000000000               0.000000000               0.001164154               0.002758682               0.001599717               0.000091720               0.000888977               0.000980697               0.000000000               0.000000000               0.000000000               0.000000000               0.000643018               0.003347924               0.001444905              -0.000177360               0.001175083               0.000997723               0.000000000               0.000000000               0.000000000               0.000000000               0.000185764               0.004104417               0.001180077              -0.000443390               0.001515922               0.001072532               0.000000000               0.000000000               0.000000000               0.000000000               0.000080344               0.004365951               0.000932057              -0.000515614               0.001627174               0.001111560               0.000000000               0.000000000               0.000000000               0.000000000               0.000072856               0.004437641               0.000747163              -0.000527383               0.001654993               0.001127610               0.000000000               0.000000000               0.000000000               0.000000000               0.000096247               0.004435314               0.000611440              -0.000518321               0.001651197               0.001132876               0.000000000               0.000000000               0.000000000               0.000000000               0.000117239               0.004407958               0.000508082              -0.000507029               0.001638314               0.001131285               0.000000000               0.000000000               0.000000000               0.000000000               0.000124054               0.004369592               0.000424272              -0.000499678               0.001623075               0.001123397               0.000000000               0.000000000               0.000000000               0.000000000               0.000115582               0.004322334               0.000353718              -0.000496947               0.001606413               0.001109465               0.000000000               0.000000000               0.000000000               0.000000000               0.000092006               0.004265908               0.000293030              -0.000498735               0.001588200               0.001089465               0.000000000               0.000000000               0.000000000               0.000000000               0.000056559               0.004207086               0.000238379              -0.000504675               0.001570573               0.001065898               0.000000000               0.000000000               0.000000000               0.000000000               0.000013312               0.004147694               0.000187672              -0.000513469               0.001553707               0.001040239               0.000000000               0.000000000               0.000000000               0.000000000              -0.000029902               0.004080597               0.000142340              -0.000521287               0.001533948               0.001012661               0.000000000               0.000000000               0.000000000               0.000000000              -0.000070134               0.004002501               0.000097743              -0.000526612               0.001509691               0.000983079               0.000000000               0.000000000               0.000000000               0.000000000              -0.000107286               0.003916811               0.000055302              -0.000529832               0.001482201               0.000952369               0.000000000               0.000000000               0.000000000               0.000000000              -0.000144941               0.003829145               0.000020612              -0.000532994               0.001454034               0.000921039               0.000000000               0.000000000               0.000000000               0.000000000              -0.000167179               0.003781622               0.000003804              -0.000535394               0.001438993               0.000903599               0.000000000               0.000000000               0.000000000               0.000000000               0.000893123               0.001988405               0.001281768               0.000086368               0.000634005               0.000720373               0.000000000               0.000000000               0.000000000               0.000000000               0.000588738               0.002679452               0.001343805              -0.000114156               0.000931193               0.000817037               0.000000000               0.000000000               0.000000000               0.000000000               0.000235870               0.003538719               0.001283133              -0.000353889               0.001297524               0.000943635               0.000000000               0.000000000               0.000000000               0.000000000               0.000140422               0.003927831               0.001094368              -0.000438320               0.001455370               0.001017050               0.000000000               0.000000000               0.000000000               0.000000000               0.000123957               0.004106435               0.000914516              -0.000466820               0.001524404               0.001057585               0.000000000               0.000000000               0.000000000               0.000000000               0.000133884               0.004187097               0.000762237              -0.000473180               0.001553411               0.001080232               0.000000000               0.000000000               0.000000000               0.000000000               0.000148811               0.004216808               0.000642195              -0.000471296               0.001562687               0.001091391               0.000000000               0.000000000               0.000000000               0.000000000               0.000157897               0.004218143               0.000546808              -0.000468056               0.001562052               0.001093996               0.000000000               0.000000000               0.000000000               0.000000000               0.000153885               0.004197925               0.000467625              -0.000467033               0.001554972               0.001087939               0.000000000               0.000000000               0.000000000               0.000000000               0.000133720               0.004165360               0.000397501              -0.000470524               0.001545281               0.001074757               0.000000000               0.000000000               0.000000000               0.000000000               0.000098356               0.004125543               0.000331185              -0.000478808               0.001534770               0.001055962               0.000000000               0.000000000               0.000000000               0.000000000               0.000051838               0.004084490               0.000270164              -0.000491121               0.001525190               0.001034069               0.000000000               0.000000000               0.000000000               0.000000000              -0.000002784               0.004038438               0.000214258              -0.000505848               0.001514748               0.001008901               0.000000000               0.000000000               0.000000000               0.000000000              -0.000060926               0.003978598               0.000158942              -0.000520171               0.001499576               0.000979406               0.000000000               0.000000000               0.000000000               0.000000000              -0.000120963               0.003903457               0.000102776              -0.000533292               0.001478903               0.000945611               0.000000000               0.000000000               0.000000000               0.000000000              -0.000186213               0.003823298               0.000047474              -0.000547741               0.001457000               0.000909259               0.000000000               0.000000000               0.000000000               0.000000000              -0.000233520               0.003775765               0.000015089              -0.000559539               0.001445089               0.000885550               0.000000000               0.000000000               0.000000000               0.000000000               0.000537884               0.001325190               0.000951650               0.000036056               0.000429706               0.000465763               0.000000000               0.000000000               0.000000000               0.000000000               0.000497739               0.002043698               0.001181405              -0.000068812               0.000704162               0.000635351               0.000000000               0.000000000               0.000000000               0.000000000               0.000315406               0.002915603               0.001294701              -0.000246174               0.001053915               0.000807742               0.000000000               0.000000000               0.000000000               0.000000000               0.000253099               0.003399393               0.001181532              -0.000330012               0.001243123               0.000913111               0.000000000               0.000000000               0.000000000               0.000000000               0.000228579               0.003680679               0.001025345              -0.000374367               0.001351670               0.000977302               0.000000000               0.000000000               0.000000000               0.000000000               0.000220357               0.003845224               0.000875163              -0.000398018               0.001414401               0.001016383               0.000000000               0.000000000               0.000000000               0.000000000               0.000222295               0.003939309               0.000749968              -0.000409052               0.001449440               0.001040388               0.000000000               0.000000000               0.000000000               0.000000000               0.000227167               0.003992546               0.000647574              -0.000413880               0.001468795               0.001054915               0.000000000               0.000000000               0.000000000               0.000000000               0.000220853               0.004014760               0.000559339              -0.000419024               0.001477915               0.001058890               0.000000000               0.000000000               0.000000000               0.000000000               0.000200068               0.004016281               0.000481614              -0.000427009               0.001481083               0.001054074               0.000000000               0.000000000               0.000000000               0.000000000               0.000165680               0.004004081               0.000409451              -0.000438379               0.001480807               0.001042427               0.000000000               0.000000000               0.000000000               0.000000000               0.000121992               0.003987719               0.000343234              -0.000452717               0.001480132               0.001027415               0.000000000               0.000000000               0.000000000               0.000000000               0.000067726               0.003963831               0.000282010              -0.000470080               0.001477957               0.001007877               0.000000000               0.000000000               0.000000000               0.000000000               0.000005589               0.003927671               0.000221103              -0.000488862               0.001472165               0.000983303               0.000000000               0.000000000               0.000000000               0.000000000              -0.000065405               0.003874777               0.000154000              -0.000508873               0.001461203               0.000952331               0.000000000               0.000000000               0.000000000               0.000000000              -0.000147186               0.003812901               0.000078100              -0.000531806               0.001448223               0.000916417               0.000000000               0.000000000               0.000000000               0.000000000              -0.000209622               0.003769302               0.000031052              -0.000549770               0.001439678               0.000889908               0.000000000               0.000000000               0.000000000               0.000000000               0.000132003               0.000796908               0.000642817              -0.000050113               0.000282337               0.000232224               0.000000000               0.000000000               0.000000000               0.000000000               0.000371296               0.001472359               0.000973037              -0.000044810               0.000505717               0.000460908               0.000000000               0.000000000               0.000000000               0.000000000               0.000403372               0.002290907               0.001203804              -0.000135100               0.000808661               0.000673561               0.000000000               0.000000000               0.000000000               0.000000000               0.000395409               0.002828724               0.001160281              -0.000205313               0.001011336               0.000806023               0.000000000               0.000000000               0.000000000               0.000000000               0.000372245               0.003186068               0.001041243              -0.000258667               0.001148234               0.000889567               0.000000000               0.000000000               0.000000000               0.000000000               0.000352501               0.003422446               0.000913237              -0.000295618               0.001239343               0.000943725               0.000000000               0.000000000               0.000000000               0.000000000               0.000339510               0.003585577               0.000799377              -0.000320881               0.001302140               0.000981260               0.000000000               0.000000000               0.000000000               0.000000000               0.000332138               0.003700921               0.000698358              -0.000338063               0.001346316               0.001008253               0.000000000               0.000000000               0.000000000               0.000000000               0.000319129               0.003776057               0.000607312              -0.000352333               0.001376117               0.001023784               0.000000000               0.000000000               0.000000000               0.000000000               0.000297225               0.003822052               0.000526778              -0.000366297               0.001396103               0.001029807               0.000000000               0.000000000               0.000000000               0.000000000               0.000265612               0.003846724               0.000453980              -0.000381235               0.001409307               0.001028072               0.000000000               0.000000000               0.000000000               0.000000000               0.000228352               0.003860472               0.000388475              -0.000396926               0.001419120               0.001022194               0.000000000               0.000000000               0.000000000               0.000000000               0.000183088               0.003860732               0.000328589              -0.000413933               0.001424875               0.001010943               0.000000000               0.000000000               0.000000000               0.000000000               0.000127518               0.003845428               0.000266179              -0.000432858               0.001426082               0.000993224               0.000000000               0.000000000               0.000000000               0.000000000               0.000061315               0.003822395               0.000191890              -0.000454805               0.001425721               0.000970915               0.000000000               0.000000000               0.000000000               0.000000000              -0.000018300               0.003791311               0.000101776              -0.000480775               0.001424016               0.000943241               0.000000000               0.000000000               0.000000000               0.000000000              -0.000080182               0.003761451               0.000047014              -0.000500248               0.001420554               0.000920306               0.000000000               0.000000000               0.000000000               0.000000000              -0.000273622               0.000424686               0.000383696              -0.000155694               0.000193458               0.000037764               0.000000000               0.000000000               0.000000000               0.000000000               0.000221427               0.001002761               0.000734750              -0.000042311               0.000348353               0.000306042               0.000000000               0.000000000               0.000000000               0.000000000               0.000473664               0.001717595               0.001009935              -0.000037077               0.000584884               0.000547808               0.000000000               0.000000000               0.000000000               0.000000000               0.000542391               0.002270183               0.001016586              -0.000080377               0.000783512               0.000703135               0.000000000               0.000000000               0.000000000               0.000000000               0.000539349               0.002676912               0.000940342              -0.000132359               0.000936414               0.000804056               0.000000000               0.000000000               0.000000000               0.000000000               0.000515363               0.002973645               0.000845605              -0.000178445               0.001050687               0.000872242               0.000000000               0.000000000               0.000000000               0.000000000               0.000489446               0.003200657               0.000755038              -0.000216540               0.001139055               0.000922515               0.000000000               0.000000000               0.000000000               0.000000000               0.000466892               0.003376904               0.000668567              -0.000247028               0.001207966               0.000960938               0.000000000               0.000000000               0.000000000               0.000000000               0.000443894               0.003507754               0.000586317              -0.000272008               0.001259909               0.000987901               0.000000000               0.000000000               0.000000000               0.000000000               0.000416667               0.003599633               0.000511322              -0.000293703               0.001297767               0.001004063               0.000000000               0.000000000               0.000000000               0.000000000               0.000386687               0.003664354               0.000444861              -0.000313036               0.001325784               0.001012748               0.000000000               0.000000000               0.000000000               0.000000000               0.000357023               0.003712361               0.000386621              -0.000330161               0.001347495               0.001017334               0.000000000               0.000000000               0.000000000               0.000000000               0.000322996               0.003741284               0.000332794              -0.000346536               0.001362594               0.001016058               0.000000000               0.000000000               0.000000000               0.000000000               0.000282620               0.003754319               0.000275219              -0.000363307               0.001372529               0.001009223               0.000000000               0.000000000               0.000000000               0.000000000               0.000237925               0.003761320               0.000202954              -0.000380942               0.001380741               0.000999799               0.000000000               0.000000000               0.000000000               0.000000000               0.000185527               0.003760534               0.000110188              -0.000400493               0.001386996               0.000986503               0.000000000               0.000000000               0.000000000               0.000000000               0.000143765               0.003749800               0.000054861              -0.000414812               0.001388192               0.000973379               0.000000000               0.000000000               0.000000000               0.000000000              -0.000620654               0.000190212               0.000195738              -0.000256522               0.000148910              -0.000107612               0.000000000               0.000000000               0.000000000               0.000000000               0.000080839               0.000657495               0.000484132              -0.000051873               0.000236453               0.000184581               0.000000000               0.000000000               0.000000000               0.000000000               0.000521270               0.001257195               0.000724956               0.000038326               0.000406285               0.000444611               0.000000000               0.000000000               0.000000000               0.000000000               0.000671290               0.001798645               0.000756565               0.000026902               0.000590575               0.000617477               0.000000000               0.000000000               0.000000000               0.000000000               0.000699479               0.002231278               0.000716941              -0.000016606               0.000749287               0.000732681               0.000000000               0.000000000               0.000000000               0.000000000               0.000676550               0.002569559               0.000657562              -0.000067489               0.000879007               0.000811518               0.000000000               0.000000000               0.000000000               0.000000000               0.000639936               0.002845261               0.000597087              -0.000115682               0.000986971               0.000871289               0.000000000               0.000000000               0.000000000               0.000000000               0.000601877               0.003070749               0.000534915              -0.000158140               0.001076286               0.000918146               0.000000000               0.000000000               0.000000000               0.000000000               0.000565386               0.003248160               0.000472413              -0.000194000               0.001147376               0.000953376               0.000000000               0.000000000               0.000000000               0.000000000               0.000530732               0.003383681               0.000415405              -0.000223935               0.001202528               0.000978592               0.000000000               0.000000000               0.000000000               0.000000000               0.000500898               0.003487588               0.000365765              -0.000248111               0.001245222               0.000997110               0.000000000               0.000000000               0.000000000               0.000000000               0.000475571               0.003569660               0.000322035              -0.000267868               0.001279164               0.001011296               0.000000000               0.000000000               0.000000000               0.000000000               0.000453892               0.003631918               0.000280548              -0.000283779               0.001305220               0.001021441               0.000000000               0.000000000               0.000000000               0.000000000               0.000435466               0.003678039               0.000235942              -0.000296454               0.001324819               0.001028365               0.000000000               0.000000000               0.000000000               0.000000000               0.000424182               0.003712962               0.000178373              -0.000305051               0.001339325               0.001034274               0.000000000               0.000000000               0.000000000               0.000000000               0.000421073               0.003735137               0.000099300              -0.000308989               0.001348030               0.001039041               0.000000000               0.000000000               0.000000000               0.000000000               0.000421240               0.003741322               0.000052440              -0.000309700               0.001350328               0.001040629               0.000000000               0.000000000               0.000000000               0.000000000              -0.000855680               0.000065473               0.000078148              -0.000329064               0.000131511              -0.000197552               0.000000000               0.000000000               0.000000000               0.000000000              -0.000021758               0.000450066               0.000239494              -0.000064418               0.000171493               0.000107075               0.000000000               0.000000000               0.000000000               0.000000000               0.000546527               0.000963205               0.000378579               0.000084546               0.000292883               0.000377429               0.000000000               0.000000000               0.000000000               0.000000000               0.000756656               0.001483153               0.000404356               0.000098351               0.000461596               0.000559946               0.000000000               0.000000000               0.000000000               0.000000000               0.000812340               0.001922584               0.000389108               0.000064304               0.000619420               0.000683724               0.000000000               0.000000000               0.000000000               0.000000000               0.000797188               0.002284522               0.000361394               0.000013380               0.000757040               0.000770420               0.000000000               0.000000000               0.000000000               0.000000000               0.000751349               0.002589229               0.000331863              -0.000041898               0.000877033               0.000835136               0.000000000               0.000000000               0.000000000               0.000000000               0.000696186               0.002848544               0.000299929              -0.000094998               0.000981171               0.000886173               0.000000000               0.000000000               0.000000000               0.000000000               0.000646578               0.003063037               0.000266564              -0.000140413               0.001067807               0.000927394               0.000000000               0.000000000               0.000000000               0.000000000               0.000604771               0.003228888               0.000236500              -0.000176822               0.001135226               0.000958404               0.000000000               0.000000000               0.000000000               0.000000000               0.000572799               0.003356749               0.000210212              -0.000204794               0.001187170               0.000982376               0.000000000               0.000000000               0.000000000               0.000000000               0.000552407               0.003463274               0.000186823              -0.000225756               0.001229665               0.001003909               0.000000000               0.000000000               0.000000000               0.000000000               0.000543499               0.003550770               0.000164728              -0.000240034               0.001263589               0.001023556               0.000000000               0.000000000               0.000000000               0.000000000               0.000546287               0.003618284               0.000140272              -0.000247427               0.001288558               0.001041131               0.000000000               0.000000000               0.000000000               0.000000000               0.000566870               0.003673086               0.000108253              -0.000246559               0.001306536               0.001059977               0.000000000               0.000000000               0.000000000               0.000000000               0.000613317               0.003715641               0.000061782              -0.000234461               0.001316688               0.001082228               0.000000000               0.000000000               0.000000000               0.000000000               0.000660135               0.003737972               0.000034383              -0.000219695               0.001319210               0.001099515               0.000000000               0.000000000               0.000000000               0.000000000              -0.000938966               0.000028984              -0.000000000              -0.000355735               0.000128239              -0.000227496               0.000000000               0.000000000               0.000000000               0.000000000              -0.000060242               0.000381778               0.000000000              -0.000070313               0.000150696               0.000080382               0.000000000               0.000000000               0.000000000               0.000000000               0.000553503               0.000861173               0.000000000               0.000099916               0.000253750               0.000353666               0.000000000               0.000000000               0.000000000               0.000000000               0.000785353               0.001372355               0.000000000               0.000122962               0.000416460               0.000539422               0.000000000               0.000000000               0.000000000               0.000000000               0.000852733               0.001812470               0.000000000               0.000093215               0.000573079               0.000666294               0.000000000               0.000000000               0.000000000               0.000000000               0.000841863               0.002179517              -0.000000000               0.000043258               0.000712079               0.000755337               0.000000000               0.000000000               0.000000000               0.000000000               0.000792835               0.002495934              -0.000000000              -0.000014679               0.000836863               0.000822184               0.000000000               0.000000000               0.000000000               0.000000000               0.000729712               0.002768647               0.000000000              -0.000072439               0.000947019               0.000874580               0.000000000               0.000000000               0.000000000               0.000000000               0.000671925               0.002994172               0.000000000              -0.000122299               0.001038814               0.000916515               0.000000000               0.000000000               0.000000000               0.000000000               0.000626824               0.003171695              -0.000000000              -0.000161403               0.001111022               0.000949619               0.000000000               0.000000000               0.000000000               0.000000000               0.000594669               0.003309335              -0.000000000              -0.000190666               0.001166656               0.000975990               0.000000000               0.000000000               0.000000000               0.000000000               0.000578194               0.003422234              -0.000000000              -0.000210956               0.001211052               0.001000096               0.000000000               0.000000000               0.000000000               0.000000000               0.000575562               0.003516764              -0.000000000              -0.000223759               0.001246829               0.001023070               0.000000000               0.000000000               0.000000000               0.000000000               0.000587502               0.003591764              -0.000000000              -0.000228657               0.001273462               0.001044805               0.000000000               0.000000000               0.000000000               0.000000000               0.000621424               0.003654652              -0.000000000              -0.000223797               0.001292804               0.001069007               0.000000000               0.000000000               0.000000000               0.000000000               0.000688399               0.003707267               0.000000000              -0.000205258               0.001304163               0.001098904               0.000000000               0.000000000               0.000000000               0.000000000               0.000755495               0.003737561               0.000000000              -0.000183884               0.001307136               0.001123252               0.000000000               0.000000000               0.000000000               0.000000000               0.000896793               0.010098227              -0.000000000              -0.000925979               0.003674702               0.002748723               0.000000000               0.000000000               0.000000000               0.000000000               0.000975326               0.008252421              -0.000000000              -0.000665804               0.002972714               0.002306910               0.000000000               0.000000000               0.000000000               0.000000000               0.001351718               0.006771948              -0.000000000              -0.000339599               0.002370493               0.002030894               0.000000000               0.000000000               0.000000000               0.000000000               0.001397515               0.005959058              -0.000000000              -0.000220814               0.002059938               0.001839124               0.000000000               0.000000000               0.000000000               0.000000000               0.001322366               0.005477603              -0.000000000              -0.000188813               0.001888787               0.001699974               0.000000000               0.000000000               0.000000000               0.000000000               0.001198752               0.005176810              -0.000000000              -0.000197569               0.001791442               0.001593874               0.000000000               0.000000000               0.000000000               0.000000000               0.001060939               0.004978328               0.000000000              -0.000224438               0.001734239               0.001509800               0.000000000               0.000000000               0.000000000               0.000000000               0.000925413               0.004844701               0.000000000              -0.000258557               0.001701070               0.001442513               0.000000000               0.000000000               0.000000000               0.000000000               0.000796393               0.004752598              -0.000000000              -0.000295427               0.001682659               0.001387232               0.000000000               0.000000000               0.000000000               0.000000000               0.000672768               0.004686314               0.000000000              -0.000333500               0.001673256               0.001339756               0.000000000               0.000000000               0.000000000               0.000000000               0.000556253               0.004635551               0.000000000              -0.000370848               0.001668784               0.001297936               0.000000000               0.000000000               0.000000000               0.000000000               0.000450388               0.004595726              -0.000000000              -0.000405569               0.001667083               0.001261514               0.000000000               0.000000000               0.000000000               0.000000000               0.000350420               0.004558929              -0.000000000              -0.000438458               0.001665780               0.001227323               0.000000000               0.000000000               0.000000000               0.000000000               0.000254471               0.004517680              -0.000000000              -0.000469282               0.001662306               0.001193023               0.000000000               0.000000000               0.000000000               0.000000000               0.000163720               0.004467670              -0.000000000              -0.000497062               0.001654896               0.001157833               0.000000000               0.000000000               0.000000000               0.000000000               0.000079865               0.004404261              -0.000000000              -0.000520582               0.001641600               0.001121018               0.000000000               0.000000000               0.000000000               0.000000000               0.000036449               0.004356524              -0.000000000              -0.000530896               0.001629125               0.001098230               0.000000000               0.000000000               0.000000000               0.000000000               0.000945004               0.009920326              -0.000740334              -0.000885662               0.003601963               0.002716301               0.000000000               0.000000000               0.000000000               0.000000000               0.000981614               0.008130319              -0.000448394              -0.000648183               0.002926140               0.002277957               0.000000000               0.000000000               0.000000000               0.000000000               0.001313459               0.006710645              -0.000150235              -0.000346283               0.002352287               0.002006004               0.000000000               0.000000000               0.000000000               0.000000000               0.001338096               0.005928514              -0.000015050              -0.000239278               0.002055911               0.001816633               0.000000000               0.000000000               0.000000000               0.000000000               0.001256381               0.005466993               0.000047599              -0.000212231               0.001893056               0.001680826               0.000000000               0.000000000               0.000000000               0.000000000               0.001137586               0.005179521               0.000075482              -0.000220845               0.001800105               0.001579260               0.000000000               0.000000000               0.000000000               0.000000000               0.001007517               0.004992394               0.000086805              -0.000246230               0.001746191               0.001499962               0.000000000               0.000000000               0.000000000               0.000000000               0.000878876               0.004865618               0.000090523              -0.000278623               0.001714731               0.001436108               0.000000000               0.000000000               0.000000000               0.000000000               0.000756734               0.004776675               0.000090712              -0.000313308               0.001696645               0.001383337               0.000000000               0.000000000               0.000000000               0.000000000               0.000639480               0.004711324               0.000088752              -0.000349110               0.001686795               0.001337686               0.000000000               0.000000000               0.000000000               0.000000000               0.000531322               0.004662241               0.000086236              -0.000383533               0.001681909               0.001298376               0.000000000               0.000000000               0.000000000               0.000000000               0.000433117               0.004625005               0.000083527              -0.000415706               0.001680222               0.001264516               0.000000000               0.000000000               0.000000000               0.000000000               0.000338005               0.004592136               0.000077534              -0.000447264               0.001679784               0.001232521               0.000000000               0.000000000               0.000000000               0.000000000               0.000246429               0.004558614               0.000067582              -0.000477415               0.001678661               0.001201247               0.000000000               0.000000000               0.000000000               0.000000000               0.000159192               0.004521017               0.000052875              -0.000505429               0.001675467               0.001170038               0.000000000               0.000000000               0.000000000               0.000000000               0.000076856               0.004474926               0.000031108              -0.000530543               0.001668475               0.001137932               0.000000000               0.000000000               0.000000000               0.000000000               0.000035935               0.004442406               0.000017824              -0.000541824               0.001661395               0.001119571               0.000000000               0.000000000               0.000000000               0.000000000               0.001078813               0.009408187              -0.001398085              -0.000771467               0.003393187               0.002621719               0.000000000               0.000000000               0.000000000               0.000000000               0.000999700               0.007782126              -0.000847544              -0.000597877               0.002793308               0.002195431               0.000000000               0.000000000               0.000000000               0.000000000               0.001207631               0.006541078              -0.000289523              -0.000364772               0.002301928               0.001937156               0.000000000               0.000000000               0.000000000               0.000000000               0.001182380               0.005854128              -0.000041164              -0.000288373               0.002047481               0.001759108               0.000000000               0.000000000               0.000000000               0.000000000               0.001086004               0.005446769               0.000074145              -0.000273594               0.001906769               0.001633176               0.000000000               0.000000000               0.000000000               0.000000000               0.000971873               0.005191721               0.000125325              -0.000284512               0.001825394               0.001540882               0.000000000               0.000000000               0.000000000               0.000000000               0.000857466               0.005025341               0.000144460              -0.000306617               0.001777303               0.001470686               0.000000000               0.000000000               0.000000000               0.000000000               0.000747969               0.004908977               0.000148608              -0.000333133               0.001747354               0.001414221               0.000000000               0.000000000               0.000000000               0.000000000               0.000646940               0.004824967               0.000146953              -0.000360518               0.001728479               0.001367961               0.000000000               0.000000000               0.000000000               0.000000000               0.000549659               0.004761133               0.000142805              -0.000389019               0.001716701               0.001327683               0.000000000               0.000000000               0.000000000               0.000000000               0.000460575               0.004714470               0.000137993              -0.000416592               0.001710338               0.001293746               0.000000000               0.000000000               0.000000000               0.000000000               0.000379705               0.004680928               0.000132049              -0.000442725               0.001707869               0.001265143               0.000000000               0.000000000               0.000000000               0.000000000               0.000299201               0.004655603               0.000120929              -0.000469749               0.001708435               0.001238686               0.000000000               0.000000000               0.000000000               0.000000000               0.000220159               0.004636014               0.000104286              -0.000496941               0.001710970               0.001214029               0.000000000               0.000000000               0.000000000               0.000000000               0.000142410               0.004621162               0.000080440              -0.000524240               0.001715118               0.001190878               0.000000000               0.000000000               0.000000000               0.000000000               0.000067514               0.004610150               0.000046124              -0.000550950               0.001720351               0.001169402               0.000000000               0.000000000               0.000000000               0.000000000               0.000034565               0.004609342               0.000024856              -0.000563204               0.001724167               0.001160962               0.000000000               0.000000000               0.000000000               0.000000000               0.001257177               0.008622254              -0.001906080              -0.000606340               0.003076169               0.002469829               0.000000000               0.000000000               0.000000000               0.000000000               0.001015558               0.007256370              -0.001162918              -0.000526211               0.002594169               0.002067958               0.000000000               0.000000000               0.000000000               0.000000000               0.001049952               0.006289181              -0.000417545              -0.000392415               0.002227178               0.001834763               0.000000000               0.000000000               0.000000000               0.000000000               0.000964750               0.005747240              -0.000098413              -0.000356623               0.002034602               0.001677979               0.000000000               0.000000000               0.000000000               0.000000000               0.000856863               0.005413879               0.000046618              -0.000355410               0.001923078               0.001567668               0.000000000               0.000000000               0.000000000               0.000000000               0.000753008               0.005197929               0.000110334              -0.000367362               0.001855080               0.001487718               0.000000000               0.000000000               0.000000000               0.000000000               0.000659172               0.005047936               0.000133882              -0.000383802               0.001810562               0.001426761               0.000000000               0.000000000               0.000000000               0.000000000               0.000574827               0.004937557               0.000139588              -0.000401633               0.001779714               0.001378080               0.000000000               0.000000000               0.000000000               0.000000000               0.000500443               0.004855898               0.000137755              -0.000419320               0.001758390               0.001339070               0.000000000               0.000000000               0.000000000               0.000000000               0.000429525               0.004792305               0.000132597              -0.000437965               0.001743408               0.001305442               0.000000000               0.000000000               0.000000000               0.000000000               0.000361247               0.004743199               0.000126972              -0.000457431               0.001733528               0.001276097               0.000000000               0.000000000               0.000000000               0.000000000               0.000297981               0.004707758               0.000119901              -0.000476726               0.001728146               0.001251420               0.000000000               0.000000000               0.000000000               0.000000000               0.000236138               0.004683882               0.000108012              -0.000496932               0.001726922               0.001229990               0.000000000               0.000000000               0.000000000               0.000000000               0.000174413               0.004671247               0.000090704              -0.000518500               0.001729900               0.001211400               0.000000000               0.000000000               0.000000000               0.000000000               0.000112023               0.004668023               0.000067839              -0.000541493               0.001736490               0.001194997               0.000000000               0.000000000               0.000000000               0.000000000               0.000052440               0.004675013               0.000036992              -0.000564710               0.001746559               0.001181849               0.000000000               0.000000000               0.000000000               0.000000000               0.000028425               0.004688722               0.000017750              -0.000575429               0.001754702               0.001179272               0.000000000               0.000000000               0.000000000               0.000000000               0.001422734               0.007651178              -0.002225311              -0.000422873               0.002691324               0.002268451               0.000000000               0.000000000               0.000000000               0.000000000               0.001005605               0.006618991              -0.001379369              -0.000450272               0.002356399               0.001906127               0.000000000               0.000000000               0.000000000               0.000000000               0.000855135               0.005982253              -0.000537672              -0.000427105               0.002136433               0.001709328               0.000000000               0.000000000               0.000000000               0.000000000               0.000719639               0.005600082              -0.000192835              -0.000430144               0.002010057               0.001579912               0.000000000               0.000000000               0.000000000               0.000000000               0.000611029               0.005346852              -0.000041030              -0.000439219               0.001928673               0.001489453               0.000000000               0.000000000               0.000000000               0.000000000               0.000529461               0.005166230               0.000027191              -0.000447230               0.001871136               0.001423906               0.000000000               0.000000000               0.000000000               0.000000000               0.000465618               0.005027769               0.000056529              -0.000453863               0.001827194               0.001373331               0.000000000               0.000000000               0.000000000               0.000000000               0.000408513               0.004920378               0.000069052              -0.000461854               0.001794061               0.001332207               0.000000000               0.000000000               0.000000000               0.000000000               0.000355685               0.004837088               0.000072742              -0.000471253               0.001769431               0.001298178               0.000000000               0.000000000               0.000000000               0.000000000               0.000306106               0.004771284               0.000070498              -0.000481620               0.001750952               0.001269333               0.000000000               0.000000000               0.000000000               0.000000000               0.000255929               0.004716930               0.000068797              -0.000493642               0.001736841               0.001243200               0.000000000               0.000000000               0.000000000               0.000000000               0.000206505               0.004676384               0.000067542              -0.000507107               0.001727815               0.001220708               0.000000000               0.000000000               0.000000000               0.000000000               0.000159289               0.004648241               0.000063703              -0.000521295               0.001723163               0.001201868               0.000000000               0.000000000               0.000000000               0.000000000               0.000112921               0.004632790               0.000055578              -0.000536752               0.001723165               0.001186413               0.000000000               0.000000000               0.000000000               0.000000000               0.000069294               0.004626902               0.000042060              -0.000552376               0.001726411               0.001174034               0.000000000               0.000000000               0.000000000               0.000000000               0.000032591               0.004627439               0.000022285              -0.000566207               0.001731200               0.001164993               0.000000000               0.000000000               0.000000000               0.000000000               0.000017990               0.004632823               0.000009858              -0.000572355               0.001735044               0.001162689               0.000000000               0.000000000               0.000000000               0.000000000               0.001525149               0.006588938              -0.002353938              -0.000251688               0.002280186               0.002028498               0.000000000               0.000000000               0.000000000               0.000000000               0.000957505               0.005933710              -0.001502635              -0.000382650               0.002105433               0.001722783               0.000000000               0.000000000               0.000000000               0.000000000               0.000640776               0.005647834              -0.000655815              -0.000465687               0.002037821               0.001572134               0.000000000               0.000000000               0.000000000               0.000000000               0.000479701               0.005415981              -0.000317404              -0.000497108               0.001971012               0.001473903               0.000000000               0.000000000               0.000000000               0.000000000               0.000386734               0.005233268              -0.000168975              -0.000509132               0.001914116               0.001404984               0.000000000               0.000000000               0.000000000               0.000000000               0.000334549               0.005079539              -0.000095866              -0.000509485               0.001862991               0.001353506               0.000000000               0.000000000               0.000000000               0.000000000               0.000304172               0.004951974              -0.000056026              -0.000504931               0.001818952               0.001314021               0.000000000               0.000000000               0.000000000               0.000000000               0.000272749               0.004847134              -0.000031579              -0.000503610               0.001783565               0.001279955               0.000000000               0.000000000               0.000000000               0.000000000               0.000236374               0.004761395              -0.000015993              -0.000506533               0.001755960               0.001249427               0.000000000               0.000000000               0.000000000               0.000000000               0.000199067               0.004691666              -0.000008582              -0.000511807               0.001734475               0.001222668               0.000000000               0.000000000               0.000000000               0.000000000               0.000163427               0.004635385              -0.000000648              -0.000518137               0.001717825               0.001199688               0.000000000               0.000000000               0.000000000               0.000000000               0.000127540               0.004591564               0.000009809              -0.000526117               0.001705878               0.001179761               0.000000000               0.000000000               0.000000000               0.000000000               0.000091401               0.004558851               0.000018279              -0.000535580               0.001698128               0.001162549               0.000000000               0.000000000               0.000000000               0.000000000               0.000059799               0.004535051               0.000023335              -0.000544455               0.001693154               0.001148698               0.000000000               0.000000000               0.000000000               0.000000000               0.000033360               0.004514543               0.000020771              -0.000551807               0.001688768               0.001136962               0.000000000               0.000000000               0.000000000               0.000000000               0.000014597               0.004495034               0.000011272              -0.000556404               0.001683798               0.001127394               0.000000000               0.000000000               0.000000000               0.000000000               0.000006343               0.004482607               0.000006485              -0.000557946               0.001680169               0.001122224               0.000000000               0.000000000               0.000000000               0.000000000               0.001533227               0.005516529              -0.002316687              -0.000114609               0.001877027               0.001762418               0.000000000               0.000000000               0.000000000               0.000000000               0.000876668               0.005251439              -0.001549679              -0.000327680               0.001859689               0.001532008               0.000000000               0.000000000               0.000000000               0.000000000               0.000440011               0.005298823              -0.000776105              -0.000497348               0.001932039               0.001434691               0.000000000               0.000000000               0.000000000               0.000000000               0.000279028               0.005196322              -0.000461669              -0.000544904               0.001913724               0.001368821               0.000000000               0.000000000               0.000000000               0.000000000               0.000217203               0.005070150              -0.000313904              -0.000552316               0.001874139               0.001321822               0.000000000               0.000000000               0.000000000               0.000000000               0.000196427               0.004942060              -0.000230669              -0.000544096               0.001828702               0.001284606               0.000000000               0.000000000               0.000000000               0.000000000               0.000189545               0.004828170              -0.000175133              -0.000532441               0.001786854               0.001254414               0.000000000               0.000000000               0.000000000               0.000000000               0.000175804               0.004730065              -0.000134586              -0.000525330               0.001751783               0.001226453               0.000000000               0.000000000               0.000000000               0.000000000               0.000153048               0.004646887              -0.000104194              -0.000523467               0.001723436               0.001199969               0.000000000               0.000000000               0.000000000               0.000000000               0.000124582               0.004577241              -0.000083031              -0.000525436               0.001700877               0.001175441               0.000000000               0.000000000               0.000000000               0.000000000               0.000095194               0.004520077              -0.000062855              -0.000529311               0.001683114               0.001153803               0.000000000               0.000000000               0.000000000               0.000000000               0.000067950               0.004474255              -0.000041215              -0.000533799               0.001669337               0.001135537               0.000000000               0.000000000               0.000000000               0.000000000               0.000043228               0.004432992              -0.000021627              -0.000537912               0.001656953               0.001119041               0.000000000               0.000000000               0.000000000               0.000000000               0.000022255               0.004389431              -0.000006669              -0.000540332               0.001643240               0.001102908               0.000000000               0.000000000               0.000000000               0.000000000               0.000008472               0.004343018               0.000000302              -0.000539699               0.001627558               0.001087859               0.000000000               0.000000000               0.000000000               0.000000000               0.000003659               0.004295491               0.000000809              -0.000535563               0.001610337               0.001074774               0.000000000               0.000000000               0.000000000               0.000000000              -0.000001816               0.004262205               0.000003064              -0.000533455               0.001598539               0.001065084               0.000000000               0.000000000               0.000000000               0.000000000               0.001454861               0.004495213              -0.002145775              -0.000016332               0.001503832               0.001487501               0.000000000               0.000000000               0.000000000               0.000000000               0.000773124               0.004606859              -0.001540060              -0.000285937               0.001630916               0.001344979               0.000000000               0.000000000               0.000000000               0.000000000               0.000282022               0.004941811              -0.000899497              -0.000511967               0.001817909               0.001305942               0.000000000               0.000000000               0.000000000               0.000000000               0.000143624               0.004948855              -0.000608063              -0.000564747               0.001837851               0.001273104               0.000000000               0.000000000               0.000000000               0.000000000               0.000114304               0.004875725              -0.000451811              -0.000566600               0.001814092               0.001247492               0.000000000               0.000000000               0.000000000               0.000000000               0.000120479               0.004779991              -0.000354337              -0.000552318               0.001777420               0.001225102               0.000000000               0.000000000               0.000000000               0.000000000               0.000130977               0.004685273              -0.000282324              -0.000536542               0.001740589               0.001204048               0.000000000               0.000000000               0.000000000               0.000000000               0.000125569               0.004597969              -0.000226232              -0.000527656               0.001708526               0.001180870               0.000000000               0.000000000               0.000000000               0.000000000               0.000107333               0.004520126              -0.000179922              -0.000524765               0.001681615               0.001156850               0.000000000               0.000000000               0.000000000               0.000000000               0.000082980               0.004452724              -0.000144237              -0.000525472               0.001659384               0.001133912               0.000000000               0.000000000               0.000000000               0.000000000               0.000052280               0.004392978              -0.000112171              -0.000529516               0.001640817               0.001111301               0.000000000               0.000000000               0.000000000               0.000000000               0.000023597               0.004336625              -0.000080076              -0.000533228               0.001623270               0.001090042               0.000000000               0.000000000               0.000000000               0.000000000               0.000002961               0.004276146              -0.000053415              -0.000533406               0.001603170               0.001069763               0.000000000               0.000000000               0.000000000               0.000000000              -0.000010819               0.004206381              -0.000030465              -0.000529853               0.001578731               0.001048877               0.000000000               0.000000000               0.000000000               0.000000000              -0.000016240               0.004132396              -0.000013114              -0.000522638               0.001551664               0.001029026               0.000000000               0.000000000               0.000000000               0.000000000              -0.000011294               0.004061794              -0.000003255              -0.000511958               0.001524571               0.001012612               0.000000000               0.000000000               0.000000000               0.000000000              -0.000012167               0.004016201               0.000004262              -0.000506586               0.001507583               0.001000996               0.000000000               0.000000000               0.000000000               0.000000000               0.001335542               0.003603850              -0.001890470               0.000050344               0.001184489               0.001234833               0.000000000               0.000000000               0.000000000               0.000000000               0.000688070               0.004022293              -0.001501279              -0.000244762               0.001422337               0.001177576               0.000000000               0.000000000               0.000000000               0.000000000               0.000191152               0.004603900              -0.001034468              -0.000503805               0.001702553               0.001198748               0.000000000               0.000000000               0.000000000               0.000000000               0.000079093               0.004723406              -0.000758128              -0.000560765               0.001761374               0.001200610               0.000000000               0.000000000               0.000000000               0.000000000               0.000070364               0.004705558              -0.000585726              -0.000561807               0.001755773               0.001193965               0.000000000               0.000000000               0.000000000               0.000000000               0.000091830               0.004642402              -0.000471230              -0.000545863               0.001729406               0.001183543               0.000000000               0.000000000               0.000000000               0.000000000               0.000110544               0.004571451              -0.000386013              -0.000529976               0.001700461               0.001170484               0.000000000               0.000000000               0.000000000               0.000000000               0.000114056               0.004502962              -0.000316761              -0.000520098               0.001674338               0.001154240               0.000000000               0.000000000               0.000000000               0.000000000               0.000099939               0.004435602              -0.000256935              -0.000516972               0.001650843               0.001133871               0.000000000               0.000000000               0.000000000               0.000000000               0.000073450               0.004368365              -0.000208015              -0.000518501               0.001628941               0.001110440               0.000000000               0.000000000               0.000000000               0.000000000               0.000039709               0.004303324              -0.000166225              -0.000523023               0.001608768               0.001085745               0.000000000               0.000000000               0.000000000               0.000000000               0.000005793               0.004235905              -0.000125873              -0.000527314               0.001587726               0.001060411               0.000000000               0.000000000               0.000000000               0.000000000              -0.000020874               0.004158062              -0.000090676              -0.000527584               0.001561868               0.001034284               0.000000000               0.000000000               0.000000000               0.000000000              -0.000038821               0.004070798              -0.000058826              -0.000523406               0.001531388               0.001007982               0.000000000               0.000000000               0.000000000               0.000000000              -0.000052393               0.003980506              -0.000030119              -0.000517209               0.001499225               0.000982016               0.000000000               0.000000000               0.000000000               0.000000000              -0.000063319               0.003894557              -0.000009690              -0.000510563               0.001468361               0.000957797               0.000000000               0.000000000               0.000000000               0.000000000              -0.000068781               0.003845933               0.000000291              -0.000506533               0.001450809               0.000944276               0.000000000               0.000000000               0.000000000               0.000000000               0.001164154               0.002758682              -0.001599717               0.000091720               0.000888977               0.000980697               0.000000000               0.000000000               0.000000000               0.000000000               0.000643018               0.003347924              -0.001444905              -0.000177360               0.001175083               0.000997723               0.000000000               0.000000000               0.000000000               0.000000000               0.000185764               0.004104417              -0.001180077              -0.000443390               0.001515922               0.001072532               0.000000000               0.000000000               0.000000000               0.000000000               0.000080344               0.004365951              -0.000932057              -0.000515614               0.001627174               0.001111560               0.000000000               0.000000000               0.000000000               0.000000000               0.000072856               0.004437641              -0.000747163              -0.000527383               0.001654993               0.001127610               0.000000000               0.000000000               0.000000000               0.000000000               0.000096247               0.004435314              -0.000611440              -0.000518321               0.001651197               0.001132876               0.000000000               0.000000000               0.000000000               0.000000000               0.000117239               0.004407958              -0.000508082              -0.000507029               0.001638314               0.001131285               0.000000000               0.000000000               0.000000000               0.000000000               0.000124054               0.004369592              -0.000424272              -0.000499678               0.001623075               0.001123397               0.000000000               0.000000000               0.000000000               0.000000000               0.000115582               0.004322334              -0.000353718              -0.000496947               0.001606413               0.001109465               0.000000000               0.000000000               0.000000000               0.000000000               0.000092006               0.004265908              -0.000293030              -0.000498735               0.001588200               0.001089465               0.000000000               0.000000000               0.000000000               0.000000000               0.000056559               0.004207086              -0.000238379              -0.000504675               0.001570573               0.001065898               0.000000000               0.000000000               0.000000000               0.000000000               0.000013312               0.004147694              -0.000187672              -0.000513469               0.001553707               0.001040239               0.000000000               0.000000000               0.000000000               0.000000000              -0.000029902               0.004080597              -0.000142340              -0.000521287               0.001533948               0.001012661               0.000000000               0.000000000               0.000000000               0.000000000              -0.000070134               0.004002501              -0.000097743              -0.000526612               0.001509691               0.000983079               0.000000000               0.000000000               0.000000000               0.000000000              -0.000107286               0.003916811              -0.000055302              -0.000529832               0.001482201               0.000952369               0.000000000               0.000000000               0.000000000               0.000000000              -0.000144941               0.003829145              -0.000020612              -0.000532994               0.001454034               0.000921039               0.000000000               0.000000000               0.000000000               0.000000000              -0.000167179               0.003781622              -0.000003804              -0.000535394               0.001438993               0.000903599               0.000000000               0.000000000               0.000000000               0.000000000               0.000893123               0.001988405              -0.001281768               0.000086368               0.000634005               0.000720373               0.000000000               0.000000000               0.000000000               0.000000000               0.000588738               0.002679452              -0.001343805              -0.000114156               0.000931193               0.000817037               0.000000000               0.000000000               0.000000000               0.000000000               0.000235870               0.003538719              -0.001283133              -0.000353889               0.001297524               0.000943635               0.000000000               0.000000000               0.000000000               0.000000000               0.000140422               0.003927831              -0.001094368              -0.000438320               0.001455370               0.001017050               0.000000000               0.000000000               0.000000000               0.000000000               0.000123957               0.004106435              -0.000914516              -0.000466820               0.001524404               0.001057585               0.000000000               0.000000000               0.000000000               0.000000000               0.000133884               0.004187097              -0.000762237              -0.000473180               0.001553411               0.001080232               0.000000000               0.000000000               0.000000000               0.000000000               0.000148811               0.004216808              -0.000642195              -0.000471296               0.001562687               0.001091391               0.000000000               0.000000000               0.000000000               0.000000000               0.000157897               0.004218143              -0.000546808              -0.000468056               0.001562052               0.001093996               0.000000000               0.000000000               0.000000000               0.000000000               0.000153885               0.004197925              -0.000467625              -0.000467033               0.001554972               0.001087939               0.000000000               0.000000000               0.000000000               0.000000000               0.000133720               0.004165360              -0.000397501              -0.000470524               0.001545281               0.001074757               0.000000000               0.000000000               0.000000000               0.000000000               0.000098356               0.004125543              -0.000331185              -0.000478808               0.001534770               0.001055962               0.000000000               0.000000000               0.000000000               0.000000000               0.000051838               0.004084490              -0.000270164              -0.000491121               0.001525190               0.001034069               0.000000000               0.000000000               0.000000000               0.000000000              -0.000002784               0.004038438              -0.000214258              -0.000505848               0.001514748               0.001008901               0.000000000               0.000000000               0.000000000               0.000000000              -0.000060926               0.003978598              -0.000158942              -0.000520171               0.001499576               0.000979406               0.000000000               0.000000000               0.000000000               0.000000000              -0.000120963               0.003903457              -0.000102776              -0.000533292               0.001478903               0.000945611               0.000000000               0.000000000               0.000000000               0.000000000              -0.000186213               0.003823298              -0.000047474              -0.000547741               0.001457000               0.000909259               0.000000000               0.000000000               0.000000000               0.000000000              -0.000233520               0.003775765              -0.000015089              -0.000559539               0.001445089               0.000885550               0.000000000               0.000000000               0.000000000               0.000000000               0.000537884               0.001325190              -0.000951650               0.000036056               0.000429706               0.000465763               0.000000000               0.000000000               0.000000000               0.000000000               0.000497739               0.002043698              -0.001181405              -0.000068812               0.000704162               0.000635351               0.000000000               0.000000000               0.000000000               0.000000000               0.000315406               0.002915603              -0.001294701              -0.000246174               0.001053915               0.000807742               0.000000000               0.000000000               0.000000000               0.000000000               0.000253099               0.003399393              -0.001181532              -0.000330012               0.001243123               0.000913111               0.000000000               0.000000000               0.000000000               0.000000000               0.000228579               0.003680679              -0.001025345              -0.000374367               0.001351670               0.000977302               0.000000000               0.000000000               0.000000000               0.000000000               0.000220357               0.003845224              -0.000875163              -0.000398018               0.001414401               0.001016383               0.000000000               0.000000000               0.000000000               0.000000000               0.000222295               0.003939309              -0.000749968              -0.000409052               0.001449440               0.001040388               0.000000000               0.000000000               0.000000000               0.000000000               0.000227167               0.003992546              -0.000647574              -0.000413880               0.001468795               0.001054915               0.000000000               0.000000000               0.000000000               0.000000000               0.000220853               0.004014760              -0.000559339              -0.000419024               0.001477915               0.001058890               0.000000000               0.000000000               0.000000000               0.000000000               0.000200068               0.004016281              -0.000481614              -0.000427009               0.001481083               0.001054074               0.000000000               0.000000000               0.000000000               0.000000000               0.000165680               0.004004081              -0.000409451              -0.000438379               0.001480807               0.001042427               0.000000000               0.000000000               0.000000000               0.000000000               0.000121992               0.003987719              -0.000343234              -0.000452717               0.001480132               0.001027415               0.000000000               0.000000000               0.000000000               0.000000000               0.000067726               0.003963831              -0.000282010              -0.000470080               0.001477957               0.001007877               0.000000000               0.000000000               0.000000000               0.000000000               0.000005589               0.003927671              -0.000221103              -0.000488862               0.001472165               0.000983303               0.000000000               0.000000000               0.000000000               0.000000000              -0.000065405               0.003874777              -0.000154000              -0.000508873               0.001461203               0.000952331               0.000000000               0.000000000               0.000000000               0.000000000              -0.000147186               0.003812901              -0.000078100              -0.000531806               0.001448223               0.000916417               0.000000000               0.000000000               0.000000000               0.000000000              -0.000209622               0.003769302              -0.000031052              -0.000549770               0.001439678               0.000889908               0.000000000               0.000000000               0.000000000               0.000000000               0.000132003               0.000796908              -0.000642817              -0.000050113               0.000282337               0.000232224               0.000000000               0.000000000               0.000000000               0.000000000               0.000371296               0.001472359              -0.000973037              -0.000044810               0.000505717               0.000460908               0.000000000               0.000000000               0.000000000               0.000000000               0.000403372               0.002290907              -0.001203804              -0.000135100               0.000808661               0.000673561               0.000000000               0.000000000               0.000000000               0.000000000               0.000395409               0.002828724              -0.001160281              -0.000205313               0.001011336               0.000806023               0.000000000               0.000000000               0.000000000               0.000000000               0.000372245               0.003186068              -0.001041243              -0.000258667               0.001148234               0.000889567               0.000000000               0.000000000               0.000000000               0.000000000               0.000352501               0.003422446              -0.000913237              -0.000295618               0.001239343               0.000943725               0.000000000               0.000000000               0.000000000               0.000000000               0.000339510               0.003585577              -0.000799377              -0.000320881               0.001302140               0.000981260               0.000000000               0.000000000               0.000000000               0.000000000               0.000332138               0.003700921              -0.000698358              -0.000338063               0.001346316               0.001008253               0.000000000               0.000000000               0.000000000               0.000000000               0.000319129               0.003776057              -0.000607312              -0.000352333               0.001376117               0.001023784               0.000000000               0.000000000               0.000000000               0.000000000               0.000297225               0.003822052              -0.000526778              -0.000366297               0.001396103               0.001029807               0.000000000               0.000000000               0.000000000               0.000000000               0.000265612               0.003846724              -0.000453980              -0.000381235               0.001409307               0.001028072               0.000000000               0.000000000               0.000000000               0.000000000               0.000228352               0.003860472              -0.000388475              -0.000396926               0.001419120               0.001022194               0.000000000               0.000000000               0.000000000               0.000000000               0.000183088               0.003860732              -0.000328589              -0.000413933               0.001424875               0.001010943               0.000000000               0.000000000               0.000000000               0.000000000               0.000127518               0.003845428              -0.000266179              -0.000432858               0.001426082               0.000993224               0.000000000               0.000000000               0.000000000               0.000000000               0.000061315               0.003822395              -0.000191890              -0.000454805               0.001425721               0.000970915               0.000000000               0.000000000               0.000000000               0.000000000              -0.000018300               0.003791311              -0.000101776              -0.000480775               0.001424016               0.000943241               0.000000000               0.000000000               0.000000000               0.000000000              -0.000080182               0.003761451              -0.000047014              -0.000500248               0.001420554               0.000920306               0.000000000               0.000000000               0.000000000               0.000000000              -0.000273622               0.000424686              -0.000383696              -0.000155694               0.000193458               0.000037764               0.000000000               0.000000000               0.000000000               0.000000000               0.000221427               0.001002761              -0.000734750              -0.000042311               0.000348353               0.000306042               0.000000000               0.000000000               0.000000000               0.000000000               0.000473664               0.001717595              -0.001009935              -0.000037077               0.000584884               0.000547808               0.000000000               0.000000000               0.000000000               0.000000000               0.000542391               0.002270183              -0.001016586              -0.000080377               0.000783512               0.000703135               0.000000000               0.000000000               0.000000000               0.000000000               0.000539349               0.002676912              -0.000940342              -0.000132359               0.000936414               0.000804056               0.000000000               0.000000000               0.000000000               0.000000000               0.000515363               0.002973645              -0.000845605              -0.000178445               0.001050687               0.000872242               0.000000000               0.000000000               0.000000000               0.000000000               0.000489446               0.003200657              -0.000755038              -0.000216540               0.001139055               0.000922515               0.000000000               0.000000000               0.000000000               0.000000000               0.000466892               0.003376904              -0.000668567              -0.000247028               0.001207966               0.000960938               0.000000000               0.000000000               0.000000000               0.000000000               0.000443894               0.003507754              -0.000586317              -0.000272008               0.001259909               0.000987901               0.000000000               0.000000000               0.000000000               0.000000000               0.000416667               0.003599633              -0.000511322              -0.000293703               0.001297767               0.001004063               0.000000000               0.000000000               0.000000000               0.000000000               0.000386687               0.003664354              -0.000444861              -0.000313036               0.001325784               0.001012748               0.000000000               0.000000000               0.000000000               0.000000000               0.000357023               0.003712361              -0.000386621              -0.000330161               0.001347495               0.001017334               0.000000000               0.000000000               0.000000000               0.000000000               0.000322996               0.003741284              -0.000332794              -0.000346536               0.001362594               0.001016058               0.000000000               0.000000000               0.000000000               0.000000000               0.000282620               0.003754319              -0.000275219              -0.000363307               0.001372529               0.001009223               0.000000000               0.000000000               0.000000000               0.000000000               0.000237925               0.003761320              -0.000202954              -0.000380942               0.001380741               0.000999799               0.000000000               0.000000000               0.000000000               0.000000000               0.000185527               0.003760534              -0.000110188              -0.000400493               0.001386996               0.000986503               0.000000000               0.000000000               0.000000000               0.000000000               0.000143765               0.003749800              -0.000054861              -0.000414812               0.001388192               0.000973379               0.000000000               0.000000000               0.000000000               0.000000000              -0.000620654               0.000190212              -0.000195738              -0.000256522               0.000148910              -0.000107612               0.000000000               0.000000000               0.000000000               0.000000000               0.000080839               0.000657495              -0.000484132              -0.000051873               0.000236453               0.000184581               0.000000000               0.000000000               0.000000000               0.000000000               0.000521270               0.001257195              -0.000724956               0.000038326               0.000406285               0.000444611               0.000000000               0.000000000               0.000000000               0.000000000               0.000671290               0.001798645              -0.000756565               0.000026902               0.000590575               0.000617477               0.000000000               0.000000000               0.000000000               0.000000000               0.000699479               0.002231278              -0.000716941              -0.000016606               0.000749287               0.000732681               0.000000000               0.000000000               0.000000000               0.000000000               0.000676550               0.002569559              -0.000657562              -0.000067489               0.000879007               0.000811518               0.000000000               0.000000000               0.000000000               0.000000000               0.000639936               0.002845261              -0.000597087              -0.000115682               0.000986971               0.000871289               0.000000000               0.000000000               0.000000000               0.000000000               0.000601877               0.003070749              -0.000534915              -0.000158140               0.001076286               0.000918146               0.000000000               0.000000000               0.000000000               0.000000000               0.000565386               0.003248160              -0.000472413              -0.000194000               0.001147376               0.000953376               0.000000000               0.000000000               0.000000000               0.000000000               0.000530732               0.003383681              -0.000415405              -0.000223935               0.001202528               0.000978592               0.000000000               0.000000000               0.000000000               0.000000000               0.000500898               0.003487588              -0.000365765              -0.000248111               0.001245222               0.000997110               0.000000000               0.000000000               0.000000000               0.000000000               0.000475571               0.003569660              -0.000322035              -0.000267868               0.001279164               0.001011296               0.000000000               0.000000000               0.000000000               0.000000000               0.000453892               0.003631918              -0.000280548              -0.000283779               0.001305220               0.001021441               0.000000000               0.000000000               0.000000000               0.000000000               0.000435466               0.003678039              -0.000235942              -0.000296454               0.001324819               0.001028365               0.000000000               0.000000000               0.000000000               0.000000000               0.000424182               0.003712962              -0.000178373              -0.000305051               0.001339325               0.001034274               0.000000000               0.000000000               0.000000000               0.000000000               0.000421073               0.003735137              -0.000099300              -0.000308989               0.001348030               0.001039041               0.000000000               0.000000000               0.000000000               0.000000000               0.000421240               0.003741322              -0.000052440              -0.000309700               0.001350328               0.001040629               0.000000000               0.000000000               0.000000000               0.000000000              -0.000855680               0.000065473              -0.000078148              -0.000329064               0.000131511              -0.000197552               0.000000000               0.000000000               0.000000000               0.000000000              -0.000021758               0.000450066              -0.000239494              -0.000064418               0.000171493               0.000107075               0.000000000               0.000000000               0.000000000               0.000000000               0.000546527               0.000963205              -0.000378579               0.000084546               0.000292883               0.000377429               0.000000000               0.000000000               0.000000000               0.000000000               0.000756656               0.001483153              -0.000404356               0.000098351               0.000461596               0.000559946               0.000000000               0.000000000               0.000000000               0.000000000               0.000812340               0.001922584              -0.000389108               0.000064304               0.000619420               0.000683724               0.000000000               0.000000000               0.000000000               0.000000000               0.000797188               0.002284522              -0.000361394               0.000013380               0.000757040               0.000770420               0.000000000               0.000000000               0.000000000               0.000000000               0.000751349               0.002589229              -0.000331863              -0.000041898               0.000877033               0.000835136               0.000000000               0.000000000               0.000000000               0.000000000               0.000696186               0.002848544              -0.000299929              -0.000094998               0.000981171               0.000886173               0.000000000               0.000000000               0.000000000               0.000000000               0.000646578               0.003063037              -0.000266564              -0.000140413               0.001067807               0.000927394               0.000000000               0.000000000               0.000000000               0.000000000               0.000604771               0.003228888              -0.000236500              -0.000176822               0.001135226               0.000958404               0.000000000               0.000000000               0.000000000               0.000000000               0.000572799               0.003356749              -0.000210212              -0.000204794               0.001187170               0.000982376               0.000000000               0.000000000               0.000000000               0.000000000               0.000552407               0.003463274              -0.000186823              -0.000225756               0.001229665               0.001003909               0.000000000               0.000000000               0.000000000               0.000000000               0.000543499               0.003550770              -0.000164728              -0.000240034               0.001263589               0.001023556               0.000000000               0.000000000               0.000000000               0.000000000               0.000546287               0.003618284              -0.000140272              -0.000247427               0.001288558               0.001041131               0.000000000               0.000000000               0.000000000               0.000000000               0.000566870               0.003673086              -0.000108253              -0.000246559               0.001306536               0.001059977               0.000000000               0.000000000               0.000000000               0.000000000               0.000613317               0.003715641              -0.000061782              -0.000234461               0.001316688               0.001082228               0.000000000               0.000000000               0.000000000               0.000000000               0.000660135               0.003737972              -0.000034383              -0.000219695               0.001319210               0.001099515               0.000000000               0.000000000               0.000000000               0.000000000               0.000000000               0.000000000               0.000000000               0.000000000               0.000000000               0.000000000               0.000000000               0.000000000               0.000000000               0.000000000               0.000000000               0.000000000               0.000000000               0.000000000               0.000000000               0.000000000               0.000000000               0.000000000               0.000000000               0.000000000               0.000000000               0.000000000               0.000000000               0.000000000               0.000000000               0.000000000               0.000000000               0.000000000               0.000000000               0.000000000               0.000000000               0.000000000               0.000000000               0.000000000               0.000000000               0.000000000               0.000000000               0.000000000               0.000000000               0.000000000               0.000000000               0.000000000               0.000000000               0.000000000               0.000000000               0.000000000               0.000000000               0.000000000               0.000000000               0.000000000               0.000000000               0.000000000               0.000000000               0.000000000               0.000000000               0.000000000               0.000000000               0.000000000               0.000000000               0.000000000               0.000000000               0.000000000               0.000000000               0.000000000               0.000000000               0.000000000               0.000000000               0.000000000               0.000000000               0.000000000               0.000000000               0.000000000               0.000000000               0.000000000               0.000000000               0.000000000               0.000000000               0.000000000               0.000000000               0.000000000               0.000000000               0.000000000               0.000000000               0.000000000               0.000000000               0.000000000               0.000000000               0.000000000               0.000000000               0.000000000               0.000000000               0.000000000               0.000000000               0.000000000               0.000000000               0.000000000               0.000000000               0.000000000               0.000000000               0.000000000               0.000000000               0.000000000               0.000000000               0.000000000               0.000000000               0.000000000               0.000000000               0.000000000               0.000000000               0.000000000               0.000000000               0.000000000               0.000000000               0.000000000               0.000000000               0.000000000               0.000000000               0.000000000               0.000000000               0.000000000               0.000000000               0.000000000               0.000000000               0.000000000               0.000000000               0.000000000               0.000000000               0.000000000               0.000000000               0.000000000               0.000000000               0.000000000               0.000000000               0.000000000               0.000000000               0.000000000               0.000000000               0.000000000               0.000000000               0.000000000               0.000000000               0.000000000               0.000000000               0.000000000               0.000000000               0.000000000               0.000000000               0.000000000               0.000000000               0.000000000               0.000000000               0.000000000               0.000000000               0.000000000               0.000000000               0.000000000               0.000000000               0.000000000               0.000000000               0.000000000               0.000000000               0.000000000               0.000000000               0.000000000               0.000000000               0.000000000               0.000000000               0.000000000               0.000000000               0.000000000               0.000000000               0.000000000               0.000000000               0.000000000               0.000000000               0.000000000               0.000000000               0.000000000               0.000000000               0.000000000               0.000000000               0.000000000               0.000000000               0.000000000               0.000000000               0.000000000               0.000000000               0.000000000               0.000000000               0.000000000               0.000000000               0.000000000               0.000000000               0.000000000               0.000000000               0.000000000               0.000000000               0.000000000               0.000000000               0.000000000               0.000000000               0.000000000               0.000000000               0.000000000               0.000000000               0.000000000               0.000000000               0.000000000               0.000000000               0.000000000               0.000000000               0.000000000               0.000000000               0.000000000               0.000000000               0.000000000               0.000000000               0.000000000               0.000000000               0.000000000               0.000000000               0.000000000               0.000000000               0.000000000               0.000000000               0.000000000               0.000000000               0.000000000               0.000000000               0.000000000               0.000000000               0.000000000               0.000000000               0.000000000               0.000000000               0.000000000               0.000000000               0.000000000               0.000000000               0.000000000               0.000000000               0.000000000               0.000000000               0.000000000               0.000000000               0.000000000               0.000000000               0.000000000               0.000000000               0.000000000               0.000000000               0.000000000               0.000000000               0.000000000               0.000000000               0.000000000               0.000000000               0.000000000               0.000000000               0.000000000               0.000000000               0.000000000               0.000000000               0.000000000               0.000000000               0.000000000               0.000000000               0.000000000               0.000000000               0.000000000               0.000000000               0.000000000               0.000000000               0.000000000               0.000000000               0.000000000               0.000000000               0.000000000               0.000000000               0.000000000               0.000000000               0.000000000               0.000000000               0.000000000               0.000000000               0.000000000               0.000000000               0.000000000               0.000000000               0.000000000               0.000000000               0.000000000               0.000000000               0.000000000               0.000000000               0.000000000               0.000000000               0.000000000               0.000000000               0.000000000               0.000000000               0.000000000               0.000000000               0.000000000               0.000000000               0.000000000               0.000000000               0.000000000               0.000000000               0.000000000               0.000000000               0.000000000               0.000000000               0.000000000               0.000000000               0.000000000               0.000000000               0.000000000               0.000000000               0.000000000               0.000000000               0.000000000               0.000000000               0.000000000               0.000000000               0.000000000               0.000000000               0.000000000               0.000000000               0.000000000               0.000000000               0.000000000               0.000000000               0.000000000               0.000000000               0.000000000               0.000000000               0.000000000               0.000000000               0.000000000               0.000945004               0.009920326               0.000740334              -0.000885662               0.003601963               0.002716301               0.000000000               0.000000000               0.000000000               0.000000000               0.000981614               0.008130319               0.000448394              -0.000648183               0.002926140               0.002277957               0.000000000               0.000000000               0.000000000               0.000000000               0.001313459               0.006710645               0.000150235              -0.000346283               0.002352287               0.002006004               0.000000000               0.000000000               0.000000000               0.000000000               0.001338096               0.005928514               0.000015050              -0.000239278               0.002055911               0.001816633               0.000000000               0.000000000               0.000000000               0.000000000               0.001256381               0.005466993              -0.000047599              -0.000212231               0.001893056               0.001680826               0.000000000               0.000000000               0.000000000               0.000000000               0.001137586               0.005179521              -0.000075482              -0.000220845               0.001800105               0.001579260               0.000000000               0.000000000               0.000000000               0.000000000               0.001007517               0.004992394              -0.000086805              -0.000246230               0.001746191               0.001499962               0.000000000               0.000000000               0.000000000               0.000000000               0.000878876               0.004865618              -0.000090523              -0.000278623               0.001714731               0.001436108               0.000000000               0.000000000               0.000000000               0.000000000               0.000756734               0.004776675              -0.000090712              -0.000313308               0.001696645               0.001383337               0.000000000               0.000000000               0.000000000               0.000000000               0.000639480               0.004711324              -0.000088752              -0.000349110               0.001686795               0.001337686               0.000000000               0.000000000               0.000000000               0.000000000               0.000531322               0.004662241              -0.000086236              -0.000383533               0.001681909               0.001298376               0.000000000               0.000000000               0.000000000               0.000000000               0.000433117               0.004625005              -0.000083527              -0.000415706               0.001680222               0.001264516               0.000000000               0.000000000               0.000000000               0.000000000               0.000338005               0.004592136              -0.000077534              -0.000447264               0.001679784               0.001232521               0.000000000               0.000000000               0.000000000               0.000000000               0.000246429               0.004558614              -0.000067582              -0.000477415               0.001678661               0.001201247               0.000000000               0.000000000               0.000000000               0.000000000               0.000159192               0.004521017              -0.000052875              -0.000505429               0.001675467               0.001170038               0.000000000               0.000000000               0.000000000               0.000000000               0.000076856               0.004474926              -0.000031108              -0.000530543               0.001668475               0.001137932               0.000000000               0.000000000               0.000000000               0.000000000               0.000035935               0.004442406              -0.000017824              -0.000541824               0.001661395               0.001119571               0.000000000               0.000000000               0.000000000               0.000000000               0.001078813               0.009408187               0.001398085              -0.000771467               0.003393187               0.002621719               0.000000000               0.000000000               0.000000000               0.000000000               0.000999700               0.007782126               0.000847544              -0.000597877               0.002793308               0.002195431               0.000000000               0.000000000               0.000000000               0.000000000               0.001207631               0.006541078               0.000289523              -0.000364772               0.002301928               0.001937156               0.000000000               0.000000000               0.000000000               0.000000000               0.001182380               0.005854128               0.000041164              -0.000288373               0.002047481               0.001759108               0.000000000               0.000000000               0.000000000               0.000000000               0.001086004               0.005446769              -0.000074145              -0.000273594               0.001906769               0.001633176               0.000000000               0.000000000               0.000000000               0.000000000               0.000971873               0.005191721              -0.000125325              -0.000284512               0.001825394               0.001540882               0.000000000               0.000000000               0.000000000               0.000000000               0.000857466               0.005025341              -0.000144460              -0.000306617               0.001777303               0.001470686               0.000000000               0.000000000               0.000000000               0.000000000               0.000747969               0.004908977              -0.000148608              -0.000333133               0.001747354               0.001414221               0.000000000               0.000000000               0.000000000               0.000000000               0.000646940               0.004824967              -0.000146953              -0.000360518               0.001728479               0.001367961               0.000000000               0.000000000               0.000000000               0.000000000               0.000549659               0.004761133              -0.000142805              -0.000389019               0.001716701               0.001327683               0.000000000               0.000000000               0.000000000               0.000000000               0.000460575               0.004714470              -0.000137993              -0.000416592               0.001710338               0.001293746               0.000000000               0.000000000               0.000000000               0.000000000               0.000379705               0.004680928              -0.000132049              -0.000442725               0.001707869               0.001265143               0.000000000               0.000000000               0.000000000               0.000000000               0.000299201               0.004655603              -0.000120929              -0.000469749               0.001708435               0.001238686               0.000000000               0.000000000               0.000000000               0.000000000               0.000220159               0.004636014              -0.000104286              -0.000496941               0.001710970               0.001214029               0.000000000               0.000000000               0.000000000               0.000000000               0.000142410               0.004621162              -0.000080440              -0.000524240               0.001715118               0.001190878               0.000000000               0.000000000               0.000000000               0.000000000               0.000067514               0.004610150              -0.000046124              -0.000550950               0.001720351               0.001169402               0.000000000               0.000000000               0.000000000               0.000000000               0.000034565               0.004609342              -0.000024856              -0.000563204               0.001724167               0.001160962               0.000000000               0.000000000               0.000000000               0.000000000               0.001257177               0.008622254               0.001906080              -0.000606340               0.003076169               0.002469829               0.000000000               0.000000000               0.000000000               0.000000000               0.001015558               0.007256370               0.001162918              -0.000526211               0.002594169               0.002067958               0.000000000               0.000000000               0.000000000               0.000000000               0.001049952               0.006289181               0.000417545              -0.000392415               0.002227178               0.001834763               0.000000000               0.000000000               0.000000000               0.000000000               0.000964750               0.005747240               0.000098413              -0.000356623               0.002034602               0.001677979               0.000000000               0.000000000               0.000000000               0.000000000               0.000856863               0.005413879              -0.000046618              -0.000355410               0.001923078               0.001567668               0.000000000               0.000000000               0.000000000               0.000000000               0.000753008               0.005197929              -0.000110334              -0.000367362               0.001855080               0.001487718               0.000000000               0.000000000               0.000000000               0.000000000               0.000659172               0.005047936              -0.000133882              -0.000383802               0.001810562               0.001426761               0.000000000               0.000000000               0.000000000               0.000000000               0.000574827               0.004937557              -0.000139588              -0.000401633               0.001779714               0.001378080               0.000000000               0.000000000               0.000000000               0.000000000               0.000500443               0.004855898              -0.000137755              -0.000419320               0.001758390               0.001339070               0.000000000               0.000000000               0.000000000               0.000000000               0.000429525               0.004792305              -0.000132597              -0.000437965               0.001743408               0.001305442               0.000000000               0.000000000               0.000000000               0.000000000               0.000361247               0.004743199              -0.000126972              -0.000457431               0.001733528               0.001276097               0.000000000               0.000000000               0.000000000               0.000000000               0.000297981               0.004707758              -0.000119901              -0.000476726               0.001728146               0.001251420               0.000000000               0.000000000               0.000000000               0.000000000               0.000236138               0.004683882              -0.000108012              -0.000496932               0.001726922               0.001229990               0.000000000               0.000000000               0.000000000               0.000000000               0.000174413               0.004671247              -0.000090704              -0.000518500               0.001729900               0.001211400               0.000000000               0.000000000               0.000000000               0.000000000               0.000112023               0.004668023              -0.000067839              -0.000541493               0.001736490               0.001194997               0.000000000               0.000000000               0.000000000               0.000000000               0.000052440               0.004675013              -0.000036992              -0.000564710               0.001746559               0.001181849               0.000000000               0.000000000               0.000000000               0.000000000               0.000028425               0.004688722              -0.000017750              -0.000575429               0.001754702               0.001179272               0.000000000               0.000000000               0.000000000               0.000000000               0.001422734               0.007651178               0.002225311              -0.000422873               0.002691324               0.002268451               0.000000000               0.000000000               0.000000000               0.000000000               0.001005605               0.006618991               0.001379369              -0.000450272               0.002356399               0.001906127               0.000000000               0.000000000               0.000000000               0.000000000               0.000855135               0.005982253               0.000537672              -0.000427105               0.002136433               0.001709328               0.000000000               0.000000000               0.000000000               0.000000000               0.000719639               0.005600082               0.000192835              -0.000430144               0.002010057               0.001579912               0.000000000               0.000000000               0.000000000               0.000000000               0.000611029               0.005346852               0.000041030              -0.000439219               0.001928673               0.001489453               0.000000000               0.000000000               0.000000000               0.000000000               0.000529461               0.005166230              -0.000027191              -0.000447230               0.001871136               0.001423906               0.000000000               0.000000000               0.000000000               0.000000000               0.000465618               0.005027769              -0.000056529              -0.000453863               0.001827194               0.001373331               0.000000000               0.000000000               0.000000000               0.000000000               0.000408513               0.004920378              -0.000069052              -0.000461854               0.001794061               0.001332207               0.000000000               0.000000000               0.000000000               0.000000000               0.000355685               0.004837088              -0.000072742              -0.000471253               0.001769431               0.001298178               0.000000000               0.000000000               0.000000000               0.000000000               0.000306106               0.004771284              -0.000070498              -0.000481620               0.001750952               0.001269333               0.000000000               0.000000000               0.000000000               0.000000000               0.000255929               0.004716930              -0.000068797              -0.000493642               0.001736841               0.001243200               0.000000000               0.000000000               0.000000000               0.000000000               0.000206505               0.004676384              -0.000067542              -0.000507107               0.001727815               0.001220708               0.000000000               0.000000000               0.000000000               0.000000000               0.000159289               0.004648241              -0.000063703              -0.000521295               0.001723163               0.001201868               0.000000000               0.000000000               0.000000000               0.000000000               0.000112921               0.004632790              -0.000055578              -0.000536752               0.001723165               0.001186413               0.000000000               0.000000000               0.000000000               0.000000000               0.000069294               0.004626902              -0.000042060              -0.000552376               0.001726411               0.001174034               0.000000000               0.000000000               0.000000000               0.000000000               0.000032591               0.004627439              -0.000022285              -0.000566207               0.001731200               0.001164993               0.000000000               0.000000000               0.000000000               0.000000000               0.000017990               0.004632823              -0.000009858              -0.000572355               0.001735044               0.001162689               0.000000000               0.000000000               0.000000000               0.000000000               0.001525149               0.006588938               0.002353938              -0.000251688               0.002280186               0.002028498               0.000000000               0.000000000               0.000000000               0.000000000               0.000957505               0.005933710               0.001502635              -0.000382650               0.002105433               0.001722783               0.000000000               0.000000000               0.000000000               0.000000000               0.000640776               0.005647834               0.000655815              -0.000465687               0.002037821               0.001572134               0.000000000               0.000000000               0.000000000               0.000000000               0.000479701               0.005415981               0.000317404              -0.000497108               0.001971012               0.001473903               0.000000000               0.000000000               0.000000000               0.000000000               0.000386734               0.005233268               0.000168975              -0.000509132               0.001914116               0.001404984               0.000000000               0.000000000               0.000000000               0.000000000               0.000334549               0.005079539               0.000095866              -0.000509485               0.001862991               0.001353506               0.000000000               0.000000000               0.000000000               0.000000000               0.000304172               0.004951974               0.000056026              -0.000504931               0.001818952               0.001314021               0.000000000               0.000000000               0.000000000               0.000000000               0.000272749               0.004847134               0.000031579              -0.000503610               0.001783565               0.001279955               0.000000000               0.000000000               0.000000000               0.000000000               0.000236374               0.004761395               0.000015993              -0.000506533               0.001755960               0.001249427               0.000000000               0.000000000               0.000000000               0.000000000               0.000199067               0.004691666               0.000008582              -0.000511807               0.001734475               0.001222668               0.000000000               0.000000000               0.000000000               0.000000000               0.000163427               0.004635385               0.000000648              -0.000518137               0.001717825               0.001199688               0.000000000               0.000000000               0.000000000               0.000000000               0.000127540               0.004591564              -0.000009809              -0.000526117               0.001705878               0.001179761               0.000000000               0.000000000               0.000000000               0.000000000               0.000091401               0.004558851              -0.000018279              -0.000535580               0.001698128               0.001162549               0.000000000               0.000000000               0.000000000               0.000000000               0.000059799               0.004535051              -0.000023335              -0.000544455               0.001693154               0.001148698               0.000000000               0.000000000               0.000000000               0.000000000               0.000033360               0.004514543              -0.000020771              -0.000551807               0.001688768               0.001136962               0.000000000               0.000000000               0.000000000               0.000000000               0.000014597               0.004495034              -0.000011272              -0.000556404               0.001683798               0.001127394               0.000000000               0.000000000               0.000000000               0.000000000               0.000006343               0.004482607              -0.000006485              -0.000557946               0.001680169               0.001122224               0.000000000               0.000000000               0.000000000               0.000000000               0.001533227               0.005516529               0.002316687              -0.000114609               0.001877027               0.001762418               0.000000000               0.000000000               0.000000000               0.000000000               0.000876668               0.005251439               0.001549679              -0.000327680               0.001859689               0.001532008               0.000000000               0.000000000               0.000000000               0.000000000               0.000440011               0.005298823               0.000776105              -0.000497348               0.001932039               0.001434691               0.000000000               0.000000000               0.000000000               0.000000000               0.000279028               0.005196322               0.000461669              -0.000544904               0.001913724               0.001368821               0.000000000               0.000000000               0.000000000               0.000000000               0.000217203               0.005070150               0.000313904              -0.000552316               0.001874139               0.001321822               0.000000000               0.000000000               0.000000000               0.000000000               0.000196427               0.004942060               0.000230669              -0.000544096               0.001828702               0.001284606               0.000000000               0.000000000               0.000000000               0.000000000               0.000189545               0.004828170               0.000175133              -0.000532441               0.001786854               0.001254414               0.000000000               0.000000000               0.000000000               0.000000000               0.000175804               0.004730065               0.000134586              -0.000525330               0.001751783               0.001226453               0.000000000               0.000000000               0.000000000               0.000000000               0.000153048               0.004646887               0.000104194              -0.000523467               0.001723436               0.001199969               0.000000000               0.000000000               0.000000000               0.000000000               0.000124582               0.004577241               0.000083031              -0.000525436               0.001700877               0.001175441               0.000000000               0.000000000               0.000000000               0.000000000               0.000095194               0.004520077               0.000062855              -0.000529311               0.001683114               0.001153803               0.000000000               0.000000000               0.000000000               0.000000000               0.000067950               0.004474255               0.000041215              -0.000533799               0.001669337               0.001135537               0.000000000               0.000000000               0.000000000               0.000000000               0.000043228               0.004432992               0.000021627              -0.000537912               0.001656953               0.001119041               0.000000000               0.000000000               0.000000000               0.000000000               0.000022255               0.004389431               0.000006669              -0.000540332               0.001643240               0.001102908               0.000000000               0.000000000               0.000000000               0.000000000               0.000008472               0.004343018              -0.000000302              -0.000539699               0.001627558               0.001087859               0.000000000               0.000000000               0.000000000               0.000000000               0.000003659               0.004295491              -0.000000809              -0.000535563               0.001610337               0.001074774               0.000000000               0.000000000               0.000000000               0.000000000              -0.000001816               0.004262205              -0.000003064              -0.000533455               0.001598539               0.001065084               0.000000000               0.000000000               0.000000000               0.000000000               0.001454861               0.004495213               0.002145775              -0.000016332               0.001503832               0.001487501               0.000000000               0.000000000               0.000000000               0.000000000               0.000773124               0.004606859               0.001540060              -0.000285937               0.001630916               0.001344979               0.000000000               0.000000000               0.000000000               0.000000000               0.000282022               0.004941811               0.000899497              -0.000511967               0.001817909               0.001305942               0.000000000               0.000000000               0.000000000               0.000000000               0.000143624               0.004948855               0.000608063              -0.000564747               0.001837851               0.001273104               0.000000000               0.000000000               0.000000000               0.000000000               0.000114304               0.004875725               0.000451811              -0.000566600               0.001814092               0.001247492               0.000000000               0.000000000               0.000000000               0.000000000               0.000120479               0.004779991               0.000354337              -0.000552318               0.001777420               0.001225102               0.000000000               0.000000000               0.000000000               0.000000000               0.000130977               0.004685273               0.000282324              -0.000536542               0.001740589               0.001204048               0.000000000               0.000000000               0.000000000               0.000000000               0.000125569               0.004597969               0.000226232              -0.000527656               0.001708526               0.001180870               0.000000000               0.000000000               0.000000000               0.000000000               0.000107333               0.004520126               0.000179922              -0.000524765               0.001681615               0.001156850               0.000000000               0.000000000               0.000000000               0.000000000               0.000082980               0.004452724               0.000144237              -0.000525472               0.001659384               0.001133912               0.000000000               0.000000000               0.000000000               0.000000000               0.000052280               0.004392978               0.000112171              -0.000529516               0.001640817               0.001111301               0.000000000               0.000000000               0.000000000               0.000000000               0.000023597               0.004336625               0.000080076              -0.000533228               0.001623270               0.001090042               0.000000000               0.000000000               0.000000000               0.000000000               0.000002961               0.004276146               0.000053415              -0.000533406               0.001603170               0.001069763               0.000000000               0.000000000               0.000000000               0.000000000              -0.000010819               0.004206381               0.000030465              -0.000529853               0.001578731               0.001048877               0.000000000               0.000000000               0.000000000               0.000000000              -0.000016240               0.004132396               0.000013114              -0.000522638               0.001551664               0.001029026               0.000000000               0.000000000               0.000000000               0.000000000              -0.000011294               0.004061794               0.000003255              -0.000511958               0.001524571               0.001012612               0.000000000               0.000000000               0.000000000               0.000000000              -0.000012167               0.004016201              -0.000004262              -0.000506586               0.001507583               0.001000996               0.000000000               0.000000000               0.000000000               0.000000000               0.001335542               0.003603850               0.001890470               0.000050344               0.001184489               0.001234833               0.000000000               0.000000000               0.000000000               0.000000000               0.000688070               0.004022293               0.001501279              -0.000244762               0.001422337               0.001177576               0.000000000               0.000000000               0.000000000               0.000000000               0.000191152               0.004603900               0.001034468              -0.000503805               0.001702553               0.001198748               0.000000000               0.000000000               0.000000000               0.000000000               0.000079093               0.004723406               0.000758128              -0.000560765               0.001761374               0.001200610               0.000000000               0.000000000               0.000000000               0.000000000               0.000070364               0.004705558               0.000585726              -0.000561807               0.001755773               0.001193965               0.000000000               0.000000000               0.000000000               0.000000000               0.000091830               0.004642402               0.000471230              -0.000545863               0.001729406               0.001183543               0.000000000               0.000000000               0.000000000               0.000000000               0.000110544               0.004571451               0.000386013              -0.000529976               0.001700461               0.001170484               0.000000000               0.000000000               0.000000000               0.000000000               0.000114056               0.004502962               0.000316761              -0.000520098               0.001674338               0.001154240               0.000000000               0.000000000               0.000000000               0.000000000               0.000099939               0.004435602               0.000256935              -0.000516972               0.001650843               0.001133871               0.000000000               0.000000000               0.000000000               0.000000000               0.000073450               0.004368365               0.000208015              -0.000518501               0.001628941               0.001110440               0.000000000               0.000000000               0.000000000               0.000000000               0.000039709               0.004303324               0.000166225              -0.000523023               0.001608768               0.001085745               0.000000000               0.000000000               0.000000000               0.000000000               0.000005793               0.004235905               0.000125873              -0.000527314               0.001587726               0.001060411               0.000000000               0.000000000               0.000000000               0.000000000              -0.000020874               0.004158062               0.000090676              -0.000527584               0.001561868               0.001034284               0.000000000               0.000000000               0.000000000               0.000000000              -0.000038821               0.004070798               0.000058826              -0.000523406               0.001531388               0.001007982               0.000000000               0.000000000               0.000000000               0.000000000              -0.000052393               0.003980506               0.000030119              -0.000517209               0.001499225               0.000982016               0.000000000               0.000000000               0.000000000               0.000000000              -0.000063319               0.003894557               0.000009690              -0.000510563               0.001468361               0.000957797               0.000000000               0.000000000               0.000000000               0.000000000              -0.000068781               0.003845933              -0.000000291              -0.000506533               0.001450809               0.000944276               0.000000000               0.000000000               0.000000000               0.000000000               0.001164154               0.002758682               0.001599717               0.000091720               0.000888977               0.000980697               0.000000000               0.000000000               0.000000000               0.000000000               0.000643018               0.003347924               0.001444905              -0.000177360               0.001175083               0.000997723               0.000000000               0.000000000               0.000000000               0.000000000               0.000185764               0.004104417               0.001180077              -0.000443390               0.001515922               0.001072532               0.000000000               0.000000000               0.000000000               0.000000000               0.000080344               0.004365951               0.000932057              -0.000515614               0.001627174               0.001111560               0.000000000               0.000000000               0.000000000               0.000000000               0.000072856               0.004437641               0.000747163              -0.000527383               0.001654993               0.001127610               0.000000000               0.000000000               0.000000000               0.000000000               0.000096247               0.004435314               0.000611440              -0.000518321               0.001651197               0.001132876               0.000000000               0.000000000               0.000000000               0.000000000               0.000117239               0.004407958               0.000508082              -0.000507029               0.001638314               0.001131285               0.000000000               0.000000000               0.000000000               0.000000000               0.000124054               0.004369592               0.000424272              -0.000499678               0.001623075               0.001123397               0.000000000               0.000000000               0.000000000               0.000000000               0.000115582               0.004322334               0.000353718              -0.000496947               0.001606413               0.001109465               0.000000000               0.000000000               0.000000000               0.000000000               0.000092006               0.004265908               0.000293030              -0.000498735               0.001588200               0.001089465               0.000000000               0.000000000               0.000000000               0.000000000               0.000056559               0.004207086               0.000238379              -0.000504675               0.001570573               0.001065898               0.000000000               0.000000000               0.000000000               0.000000000               0.000013312               0.004147694               0.000187672              -0.000513469               0.001553707               0.001040239               0.000000000               0.000000000               0.000000000               0.000000000              -0.000029902               0.004080597               0.000142340              -0.000521287               0.001533948               0.001012661               0.000000000               0.000000000               0.000000000               0.000000000              -0.000070134               0.004002501               0.000097743              -0.000526612               0.001509691               0.000983079               0.000000000               0.000000000               0.000000000               0.000000000              -0.000107286               0.003916811               0.000055302              -0.000529832               0.001482201               0.000952369               0.000000000               0.000000000               0.000000000               0.000000000              -0.000144941               0.003829145               0.000020612              -0.000532994               0.001454034               0.000921039               0.000000000               0.000000000               0.000000000               0.000000000              -0.000167179               0.003781622               0.000003804              -0.000535394               0.001438993               0.000903599               0.000000000               0.000000000               0.000000000               0.000000000               0.000893123               0.001988405               0.001281768               0.000086368               0.000634005               0.000720373               0.000000000               0.000000000               0.000000000               0.000000000               0.000588738               0.002679452               0.001343805              -0.000114156               0.000931193               0.000817037               0.000000000               0.000000000               0.000000000               0.000000000               0.000235870               0.003538719               0.001283133              -0.000353889               0.001297524               0.000943635               0.000000000               0.000000000               0.000000000               0.000000000               0.000140422               0.003927831               0.001094368              -0.000438320               0.001455370               0.001017050               0.000000000               0.000000000               0.000000000               0.000000000               0.000123957               0.004106435               0.000914516              -0.000466820               0.001524404               0.001057585               0.000000000               0.000000000               0.000000000               0.000000000               0.000133884               0.004187097               0.000762237              -0.000473180               0.001553411               0.001080232               0.000000000               0.000000000               0.000000000               0.000000000               0.000148811               0.004216808               0.000642195              -0.000471296               0.001562687               0.001091391               0.000000000               0.000000000               0.000000000               0.000000000               0.000157897               0.004218143               0.000546808              -0.000468056               0.001562052               0.001093996               0.000000000               0.000000000               0.000000000               0.000000000               0.000153885               0.004197925               0.000467625              -0.000467033               0.001554972               0.001087939               0.000000000               0.000000000               0.000000000               0.000000000               0.000133720               0.004165360               0.000397501              -0.000470524               0.001545281               0.001074757               0.000000000               0.000000000               0.000000000               0.000000000               0.000098356               0.004125543               0.000331185              -0.000478808               0.001534770               0.001055962               0.000000000               0.000000000               0.000000000               0.000000000               0.000051838               0.004084490               0.000270164              -0.000491121               0.001525190               0.001034069               0.000000000               0.000000000               0.000000000               0.000000000              -0.000002784               0.004038438               0.000214258              -0.000505848               0.001514748               0.001008901               0.000000000               0.000000000               0.000000000               0.000000000              -0.000060926               0.003978598               0.000158942              -0.000520171               0.001499576               0.000979406               0.000000000               0.000000000               0.000000000               0.000000000              -0.000120963               0.003903457               0.000102776              -0.000533292               0.001478903               0.000945611               0.000000000               0.000000000               0.000000000               0.000000000              -0.000186213               0.003823298               0.000047474              -0.000547741               0.001457000               0.000909259               0.000000000               0.000000000               0.000000000               0.000000000              -0.000233520               0.003775765               0.000015089              -0.000559539               0.001445089               0.000885550               0.000000000               0.000000000               0.000000000               0.000000000               0.000537884               0.001325190               0.000951650               0.000036056               0.000429706               0.000465763               0.000000000               0.000000000               0.000000000               0.000000000               0.000497739               0.002043698               0.001181405              -0.000068812               0.000704162               0.000635351               0.000000000               0.000000000               0.000000000               0.000000000               0.000315406               0.002915603               0.001294701              -0.000246174               0.001053915               0.000807742               0.000000000               0.000000000               0.000000000               0.000000000               0.000253099               0.003399393               0.001181532              -0.000330012               0.001243123               0.000913111               0.000000000               0.000000000               0.000000000               0.000000000               0.000228579               0.003680679               0.001025345              -0.000374367               0.001351670               0.000977302               0.000000000               0.000000000               0.000000000               0.000000000               0.000220357               0.003845224               0.000875163              -0.000398018               0.001414401               0.001016383               0.000000000               0.000000000               0.000000000               0.000000000               0.000222295               0.003939309               0.000749968              -0.000409052               0.001449440               0.001040388               0.000000000               0.000000000               0.000000000               0.000000000               0.000227167               0.003992546               0.000647574              -0.000413880               0.001468795               0.001054915               0.000000000               0.000000000               0.000000000               0.000000000               0.000220853               0.004014760               0.000559339              -0.000419024               0.001477915               0.001058890               0.000000000               0.000000000               0.000000000               0.000000000               0.000200068               0.004016281               0.000481614              -0.000427009               0.001481083               0.001054074               0.000000000               0.000000000               0.000000000               0.000000000               0.000165680               0.004004081               0.000409451              -0.000438379               0.001480807               0.001042427               0.000000000               0.000000000               0.000000000               0.000000000               0.000121992               0.003987719               0.000343234              -0.000452717               0.001480132               0.001027415               0.000000000               0.000000000               0.000000000               0.000000000               0.000067726               0.003963831               0.000282010              -0.000470080               0.001477957               0.001007877               0.000000000               0.000000000               0.000000000               0.000000000               0.000005589               0.003927671               0.000221103              -0.000488862               0.001472165               0.000983303               0.000000000               0.000000000               0.000000000               0.000000000              -0.000065405               0.003874777               0.000154000              -0.000508873               0.001461203               0.000952331               0.000000000               0.000000000               0.000000000               0.000000000              -0.000147186               0.003812901               0.000078100              -0.000531806               0.001448223               0.000916417               0.000000000               0.000000000               0.000000000               0.000000000              -0.000209622               0.003769302               0.000031052              -0.000549770               0.001439678               0.000889908               0.000000000               0.000000000               0.000000000               0.000000000               0.000132003               0.000796908               0.000642817              -0.000050113               0.000282337               0.000232224               0.000000000               0.000000000               0.000000000               0.000000000               0.000371296               0.001472359               0.000973037              -0.000044810               0.000505717               0.000460908               0.000000000               0.000000000               0.000000000               0.000000000               0.000403372               0.002290907               0.001203804              -0.000135100               0.000808661               0.000673561               0.000000000               0.000000000               0.000000000               0.000000000               0.000395409               0.002828724               0.001160281              -0.000205313               0.001011336               0.000806023               0.000000000               0.000000000               0.000000000               0.000000000               0.000372245               0.003186068               0.001041243              -0.000258667               0.001148234               0.000889567               0.000000000               0.000000000               0.000000000               0.000000000               0.000352501               0.003422446               0.000913237              -0.000295618               0.001239343               0.000943725               0.000000000               0.000000000               0.000000000               0.000000000               0.000339510               0.003585577               0.000799377              -0.000320881               0.001302140               0.000981260               0.000000000               0.000000000               0.000000000               0.000000000               0.000332138               0.003700921               0.000698358              -0.000338063               0.001346316               0.001008253               0.000000000               0.000000000               0.000000000               0.000000000               0.000319129               0.003776057               0.000607312              -0.000352333               0.001376117               0.001023784               0.000000000               0.000000000               0.000000000               0.000000000               0.000297225               0.003822052               0.000526778              -0.000366297               0.001396103               0.001029807               0.000000000               0.000000000               0.000000000               0.000000000               0.000265612               0.003846724               0.000453980              -0.000381235               0.001409307               0.001028072               0.000000000               0.000000000               0.000000000               0.000000000               0.000228352               0.003860472               0.000388475              -0.000396926               0.001419120               0.001022194               0.000000000               0.000000000               0.000000000               0.000000000               0.000183088               0.003860732               0.000328589              -0.000413933               0.001424875               0.001010943               0.000000000               0.000000000               0.000000000               0.000000000               0.000127518               0.003845428               0.000266179              -0.000432858               0.001426082               0.000993224               0.000000000               0.000000000               0.000000000               0.000000000               0.000061315               0.003822395               0.000191890              -0.000454805               0.001425721               0.000970915               0.000000000               0.000000000               0.000000000               0.000000000              -0.000018300               0.003791311               0.000101776              -0.000480775               0.001424016               0.000943241               0.000000000               0.000000000               0.000000000               0.000000000              -0.000080182               0.003761451               0.000047014              -0.000500248               0.001420554               0.000920306               0.000000000               0.000000000               0.000000000               0.000000000              -0.000273622               0.000424686               0.000383696              -0.000155694               0.000193458               0.000037764               0.000000000               0.000000000               0.000000000               0.000000000               0.000221427               0.001002761               0.000734750              -0.000042311               0.000348353               0.000306042               0.000000000               0.000000000               0.000000000               0.000000000               0.000473664               0.001717595               0.001009935              -0.000037077               0.000584884               0.000547808               0.000000000               0.000000000               0.000000000               0.000000000               0.000542391               0.002270183               0.001016586              -0.000080377               0.000783512               0.000703135               0.000000000               0.000000000               0.000000000               0.000000000               0.000539349               0.002676912               0.000940342              -0.000132359               0.000936414               0.000804056               0.000000000               0.000000000               0.000000000               0.000000000               0.000515363               0.002973645               0.000845605              -0.000178445               0.001050687               0.000872242               0.000000000               0.000000000               0.000000000               0.000000000               0.000489446               0.003200657               0.000755038              -0.000216540               0.001139055               0.000922515               0.000000000               0.000000000               0.000000000               0.000000000               0.000466892               0.003376904               0.000668567              -0.000247028               0.001207966               0.000960938               0.000000000               0.000000000               0.000000000               0.000000000               0.000443894               0.003507754               0.000586317              -0.000272008               0.001259909               0.000987901               0.000000000               0.000000000               0.000000000               0.000000000               0.000416667               0.003599633               0.000511322              -0.000293703               0.001297767               0.001004063               0.000000000               0.000000000               0.000000000               0.000000000               0.000386687               0.003664354               0.000444861              -0.000313036               0.001325784               0.001012748               0.000000000               0.000000000               0.000000000               0.000000000               0.000357023               0.003712361               0.000386621              -0.000330161               0.001347495               0.001017334               0.000000000               0.000000000               0.000000000               0.000000000               0.000322996               0.003741284               0.000332794              -0.000346536               0.001362594               0.001016058               0.000000000               0.000000000               0.000000000               0.000000000               0.000282620               0.003754319               0.000275219              -0.000363307               0.001372529               0.001009223               0.000000000               0.000000000               0.000000000               0.000000000               0.000237925               0.003761320               0.000202954              -0.000380942               0.001380741               0.000999799               0.000000000               0.000000000               0.000000000               0.000000000               0.000185527               0.003760534               0.000110188              -0.000400493               0.001386996               0.000986503               0.000000000               0.000000000               0.000000000               0.000000000               0.000143765               0.003749800               0.000054861              -0.000414812               0.001388192               0.000973379               0.000000000               0.000000000               0.000000000               0.000000000              -0.000620654               0.000190212               0.000195738              -0.000256522               0.000148910              -0.000107612               0.000000000               0.000000000               0.000000000               0.000000000               0.000080839               0.000657495               0.000484132              -0.000051873               0.000236453               0.000184581               0.000000000               0.000000000               0.000000000               0.000000000               0.000521270               0.001257195               0.000724956               0.000038326               0.000406285               0.000444611               0.000000000               0.000000000               0.000000000               0.000000000               0.000671290               0.001798645               0.000756565               0.000026902               0.000590575               0.000617477               0.000000000               0.000000000               0.000000000               0.000000000               0.000699479               0.002231278               0.000716941              -0.000016606               0.000749287               0.000732681               0.000000000               0.000000000               0.000000000               0.000000000               0.000676550               0.002569559               0.000657562              -0.000067489               0.000879007               0.000811518               0.000000000               0.000000000               0.000000000               0.000000000               0.000639936               0.002845261               0.000597087              -0.000115682               0.000986971               0.000871289               0.000000000               0.000000000               0.000000000               0.000000000               0.000601877               0.003070749               0.000534915              -0.000158140               0.001076286               0.000918146               0.000000000               0.000000000               0.000000000               0.000000000               0.000565386               0.003248160               0.000472413              -0.000194000               0.001147376               0.000953376               0.000000000               0.000000000               0.000000000               0.000000000               0.000530732               0.003383681               0.000415405              -0.000223935               0.001202528               0.000978592               0.000000000               0.000000000               0.000000000               0.000000000               0.000500898               0.003487588               0.000365765              -0.000248111               0.001245222               0.000997110               0.000000000               0.000000000               0.000000000               0.000000000               0.000475571               0.003569660               0.000322035              -0.000267868               0.001279164               0.001011296               0.000000000               0.000000000               0.000000000               0.000000000               0.000453892               0.003631918               0.000280548              -0.000283779               0.001305220               0.001021441               0.000000000               0.000000000               0.000000000               0.000000000               0.000435466               0.003678039               0.000235942              -0.000296454               0.001324819               0.001028365               0.000000000               0.000000000               0.000000000               0.000000000               0.000424182               0.003712962               0.000178373              -0.000305051               0.001339325               0.001034274               0.000000000               0.000000000               0.000000000               0.000000000               0.000421073               0.003735137               0.000099300              -0.000308989               0.001348030               0.001039041               0.000000000               0.000000000               0.000000000               0.000000000               0.000421240               0.003741322               0.000052440              -0.000309700               0.001350328               0.001040629               0.000000000               0.000000000               0.000000000               0.000000000              -0.000855680               0.000065473               0.000078148              -0.000329064               0.000131511              -0.000197552               0.000000000               0.000000000               0.000000000               0.000000000              -0.000021758               0.000450066               0.000239494              -0.000064418               0.000171493               0.000107075               0.000000000               0.000000000               0.000000000               0.000000000               0.000546527               0.000963205               0.000378579               0.000084546               0.000292883               0.000377429               0.000000000               0.000000000               0.000000000               0.000000000               0.000756656               0.001483153               0.000404356               0.000098351               0.000461596               0.000559946               0.000000000               0.000000000               0.000000000               0.000000000               0.000812340               0.001922584               0.000389108               0.000064304               0.000619420               0.000683724               0.000000000               0.000000000               0.000000000               0.000000000               0.000797188               0.002284522               0.000361394               0.000013380               0.000757040               0.000770420               0.000000000               0.000000000               0.000000000               0.000000000               0.000751349               0.002589229               0.000331863              -0.000041898               0.000877033               0.000835136               0.000000000               0.000000000               0.000000000               0.000000000               0.000696186               0.002848544               0.000299929              -0.000094998               0.000981171               0.000886173               0.000000000               0.000000000               0.000000000               0.000000000               0.000646578               0.003063037               0.000266564              -0.000140413               0.001067807               0.000927394               0.000000000               0.000000000               0.000000000               0.000000000               0.000604771               0.003228888               0.000236500              -0.000176822               0.001135226               0.000958404               0.000000000               0.000000000               0.000000000               0.000000000               0.000572799               0.003356749               0.000210212              -0.000204794               0.001187170               0.000982376               0.000000000               0.000000000               0.000000000               0.000000000               0.000552407               0.003463274               0.000186823              -0.000225756               0.001229665               0.001003909               0.000000000               0.000000000               0.000000000               0.000000000               0.000543499               0.003550770               0.000164728              -0.000240034               0.001263589               0.001023556               0.000000000               0.000000000               0.000000000               0.000000000               0.000546287               0.003618284               0.000140272              -0.000247427               0.001288558               0.001041131               0.000000000               0.000000000               0.000000000               0.000000000               0.000566870               0.003673086               0.000108253              -0.000246559               0.001306536               0.001059977               0.000000000               0.000000000               0.000000000               0.000000000               0.000613317               0.003715641               0.000061782              -0.000234461               0.001316688               0.001082228               0.000000000               0.000000000               0.000000000               0.000000000               0.000660135               0.003737972               0.000034383              -0.000219695               0.001319210               0.001099515               0.000000000               0.000000000               0.000000000               0.000000000               0.000000000               0.000000000               0.000000000               0.000000000               0.000000000               0.000000000               0.000000000               0.000000000               0.000000000               0.000000000               0.000000000               0.000000000               0.000000000               0.000000000               0.000000000               0.000000000               0.000000000               0.000000000               0.000000000               0.000000000               0.000000000               0.000000000               0.000000000               0.000000000               0.000000000               0.000000000               0.000000000               0.000000000               0.000000000               0.000000000               0.000000000               0.000000000               0.000000000               0.000000000               0.000000000               0.000000000               0.000000000               0.000000000               0.000000000               0.000000000               0.000000000               0.000000000               0.000000000               0.000000000               0.000000000               0.000000000               0.000000000               0.000000000               0.000000000               0.000000000               0.000000000               0.000000000               0.000000000               0.000000000               0.000000000               0.000000000               0.000000000               0.000000000               0.000000000               0.000000000               0.000000000               0.000000000               0.000000000               0.000000000               0.000000000               0.000000000               0.000000000               0.000000000               0.000000000               0.000000000               0.000000000               0.000000000               0.000000000               0.000000000               0.000000000               0.000000000               0.000000000               0.000000000               0.000000000               0.000000000               0.000000000               0.000000000               0.000000000               0.000000000               0.000000000               0.000000000               0.000000000               0.000000000               0.000000000               0.000000000               0.000000000               0.000000000               0.000000000               0.000000000               0.000000000               0.000000000               0.000000000               0.000000000               0.000000000               0.000000000               0.000000000               0.000000000               0.000000000               0.000000000               0.000000000               0.000000000               0.000000000               0.000000000               0.000000000               0.000000000               0.000000000               0.000000000               0.000000000               0.000000000               0.000000000               0.000000000               0.000000000               0.000000000               0.000000000               0.000000000               0.000000000               0.000000000               0.000000000               0.000000000               0.000000000               0.000000000               0.000000000               0.000000000               0.000000000               0.000000000               0.000000000               0.000000000               0.000000000               0.000000000               0.000000000               0.000000000               0.000000000               0.000000000               0.000000000               0.000000000               0.000000000               0.000000000               0.000000000               0.000000000               0.000000000               0.000000000               0.000000000               0.000000000               0.000000000               0.000000000               0.000000000               0.000000000               0.000000000               0.000000000               0.000000000               0.000000000               0.000000000               0.000000000               0.000000000               0.000000000               0.000000000               0.000000000               0.000000000               0.000000000               0.000000000               0.000000000               0.000000000               0.000000000               0.000000000               0.000000000 </DataArray>
</PointData>
</Piece>
</UnstructuredGrid> </VTKFile>
