<?xml version="1.0"?>
<VTKFile type="UnstructuredGrid" version="0.1">
<UnstructuredGrid>
<Piece NumberOfPoints="      1156" NumberOfCells="      1024">
<Points>
<DataArray type="Float64"                                    Name="coordinates"                                                      NumberOfComponents=" 3" format="ascii">
              0.133000000               0.000000000               0.000000000               0.155937500               0.000000000               0.000000000               0.178875000               0.000000000               0.000000000               0.201812500               0.000000000               0.000000000               0.224750000               0.000000000               0.000000000               0.247687500               0.000000000               0.000000000               0.270625000               0.000000000               0.000000000               0.293562500               0.000000000               0.000000000               0.316500000               0.000000000               0.000000000               0.339437500               0.000000000               0.000000000               0.362375000               0.000000000               0.000000000               0.385312500               0.000000000               0.000000000               0.408250000               0.000000000               0.000000000               0.431187500               0.000000000               0.000000000               0.454125000               0.000000000               0.000000000               0.477062500               0.000000000               0.000000000               0.500000000               0.000000000               0.000000000               0.132359569               0.013036280               0.000000000               0.155337096               0.016127762               0.000000000               0.178314623               0.019219245               0.000000000               0.201292150               0.022310727               0.000000000               0.224269676               0.025402210               0.000000000               0.247247203               0.028493692               0.000000000               0.270224730               0.031585175               0.000000000               0.293202257               0.034676657               0.000000000               0.316179784               0.037768140               0.000000000               0.339157311               0.040859622               0.000000000               0.362134838               0.043951105               0.000000000               0.385112365               0.047042587               0.000000000               0.408089892               0.050134070               0.000000000               0.431067419               0.053225552               0.000000000               0.454044946               0.056317035               0.000000000               0.477022473               0.059408517               0.000000000               0.500000000               0.062500000               0.000000000               0.130444442               0.025947013               0.000000000               0.153541665               0.032137825               0.000000000               0.176638887               0.038328636               0.000000000               0.199736109               0.044519448               0.000000000               0.222833332               0.050710260               0.000000000               0.245930554               0.056901071               0.000000000               0.269027776               0.063091883               0.000000000               0.292124999               0.069282695               0.000000000               0.315222221               0.075473506               0.000000000               0.338319444               0.081664318               0.000000000               0.361416666               0.087855130               0.000000000               0.384513888               0.094045942               0.000000000               0.407611111               0.100236753               0.000000000               0.430708333               0.106427565               0.000000000               0.453805555               0.112618377               0.000000000               0.476902778               0.118809188               0.000000000               0.500000000               0.125000000               0.000000000               0.127273065               0.038607862               0.000000000               0.150568498               0.047913621               0.000000000               0.173863932               0.057219379               0.000000000               0.197159365               0.066525138               0.000000000               0.220454798               0.075830897               0.000000000               0.243750232               0.085136655               0.000000000               0.267045665               0.094442414               0.000000000               0.290341099               0.103748172               0.000000000               0.313636532               0.113053931               0.000000000               0.336931966               0.122359690               0.000000000               0.360227399               0.131665448               0.000000000               0.383522833               0.140971207               0.000000000               0.406818266               0.150276966               0.000000000               0.430113700               0.159582724               0.000000000               0.453409133               0.168888483               0.000000000               0.476704567               0.178194241               0.000000000               0.500000000               0.187500000               0.000000000               0.122875978               0.050896897               0.000000000               0.146446229               0.063340840               0.000000000               0.170016481               0.075784784               0.000000000               0.193586732               0.088228728               0.000000000               0.217156983               0.100672672               0.000000000               0.240727235               0.113116616               0.000000000               0.264297486               0.125560560               0.000000000               0.287867738               0.138004504               0.000000000               0.311437989               0.150448448               0.000000000               0.335008240               0.162892392               0.000000000               0.358578492               0.175336336               0.000000000               0.382148743               0.187780280               0.000000000               0.405718994               0.200224224               0.000000000               0.429289246               0.212668168               0.000000000               0.452859497               0.225112112               0.000000000               0.476429749               0.237556056               0.000000000               0.500000000               0.250000000               0.000000000               0.117295528               0.062695766               0.000000000               0.141214558               0.078308531               0.000000000               0.165133587               0.093921295               0.000000000               0.189052617               0.109534060               0.000000000               0.212971646               0.125146824               0.000000000               0.236890676               0.140759589               0.000000000               0.260809705               0.156372354               0.000000000               0.284728735               0.171985118               0.000000000               0.308647764               0.187597883               0.000000000               0.332566794               0.203210648               0.000000000               0.356485823               0.218823412               0.000000000               0.380404853               0.234436177               0.000000000               0.404323882               0.250048941               0.000000000               0.428242912               0.265661706               0.000000000               0.452161941               0.281274471               0.000000000               0.476080971               0.296887235               0.000000000               0.500000000               0.312500000               0.000000000               0.110585458               0.073890841               0.000000000               0.134923867               0.092710163               0.000000000               0.159262276               0.111529486               0.000000000               0.183600685               0.130348808               0.000000000               0.207939094               0.149168131               0.000000000               0.232277503               0.167987453               0.000000000               0.256615912               0.186806776               0.000000000               0.280954320               0.205626098               0.000000000               0.305292729               0.224445420               0.000000000               0.329631138               0.243264743               0.000000000               0.353969547               0.262084065               0.000000000               0.378307956               0.280903388               0.000000000               0.402646365               0.299722710               0.000000000               0.426984773               0.318542033               0.000000000               0.451323182               0.337361355               0.000000000               0.475661591               0.356180678               0.000000000               0.500000000               0.375000000               0.000000000               0.102810390               0.084374307               0.000000000               0.127634741               0.106444663               0.000000000               0.152459092               0.128515018               0.000000000               0.177283442               0.150585374               0.000000000               0.202107793               0.172655730               0.000000000               0.226932143               0.194726086               0.000000000               0.251756494               0.216796442               0.000000000               0.276580845               0.238866798               0.000000000               0.301405195               0.260937153               0.000000000               0.326229546               0.283007509               0.000000000               0.351053896               0.305077865               0.000000000               0.375878247               0.327148221               0.000000000               0.400702598               0.349218577               0.000000000               0.425526948               0.371288933               0.000000000               0.450351299               0.393359288               0.000000000               0.475175649               0.415429644               0.000000000               0.500000000               0.437500000               0.000000000               0.094045202               0.094045202               0.000000000               0.119417377               0.119417377               0.000000000               0.144789552               0.144789552               0.000000000               0.170161727               0.170161727               0.000000000               0.195533901               0.195533901               0.000000000               0.220906076               0.220906076               0.000000000               0.246278251               0.246278251               0.000000000               0.271650426               0.271650426               0.000000000               0.297022601               0.297022601               0.000000000               0.322394776               0.322394776               0.000000000               0.347766951               0.347766951               0.000000000               0.373139126               0.373139126               0.000000000               0.398511300               0.398511300               0.000000000               0.423883475               0.423883475               0.000000000               0.449255650               0.449255650               0.000000000               0.474627825               0.474627825               0.000000000               0.500000000               0.500000000               0.000000000               0.084374307               0.102810390               0.000000000               0.106444663               0.127634741               0.000000000               0.128515018               0.152459092               0.000000000               0.150585374               0.177283442               0.000000000               0.172655730               0.202107793               0.000000000               0.194726086               0.226932143               0.000000000               0.216796442               0.251756494               0.000000000               0.238866798               0.276580845               0.000000000               0.260937153               0.301405195               0.000000000               0.283007509               0.326229546               0.000000000               0.305077865               0.351053896               0.000000000               0.327148221               0.375878247               0.000000000               0.349218577               0.400702598               0.000000000               0.371288933               0.425526948               0.000000000               0.393359288               0.450351299               0.000000000               0.415429644               0.475175649               0.000000000               0.437500000               0.500000000               0.000000000               0.073890841               0.110585458               0.000000000               0.092710163               0.134923867               0.000000000               0.111529486               0.159262276               0.000000000               0.130348808               0.183600685               0.000000000               0.149168131               0.207939094               0.000000000               0.167987453               0.232277503               0.000000000               0.186806776               0.256615912               0.000000000               0.205626098               0.280954320               0.000000000               0.224445420               0.305292729               0.000000000               0.243264743               0.329631138               0.000000000               0.262084065               0.353969547               0.000000000               0.280903388               0.378307956               0.000000000               0.299722710               0.402646365               0.000000000               0.318542033               0.426984773               0.000000000               0.337361355               0.451323182               0.000000000               0.356180678               0.475661591               0.000000000               0.375000000               0.500000000               0.000000000               0.062695766               0.117295528               0.000000000               0.078308531               0.141214558               0.000000000               0.093921295               0.165133587               0.000000000               0.109534060               0.189052617               0.000000000               0.125146824               0.212971646               0.000000000               0.140759589               0.236890676               0.000000000               0.156372354               0.260809705               0.000000000               0.171985118               0.284728735               0.000000000               0.187597883               0.308647764               0.000000000               0.203210648               0.332566794               0.000000000               0.218823412               0.356485823               0.000000000               0.234436177               0.380404853               0.000000000               0.250048941               0.404323882               0.000000000               0.265661706               0.428242912               0.000000000               0.281274471               0.452161941               0.000000000               0.296887235               0.476080971               0.000000000               0.312500000               0.500000000               0.000000000               0.050896897               0.122875978               0.000000000               0.063340840               0.146446229               0.000000000               0.075784784               0.170016481               0.000000000               0.088228728               0.193586732               0.000000000               0.100672672               0.217156983               0.000000000               0.113116616               0.240727235               0.000000000               0.125560560               0.264297486               0.000000000               0.138004504               0.287867738               0.000000000               0.150448448               0.311437989               0.000000000               0.162892392               0.335008240               0.000000000               0.175336336               0.358578492               0.000000000               0.187780280               0.382148743               0.000000000               0.200224224               0.405718994               0.000000000               0.212668168               0.429289246               0.000000000               0.225112112               0.452859497               0.000000000               0.237556056               0.476429749               0.000000000               0.250000000               0.500000000               0.000000000               0.038607862               0.127273065               0.000000000               0.047913621               0.150568498               0.000000000               0.057219379               0.173863932               0.000000000               0.066525138               0.197159365               0.000000000               0.075830897               0.220454798               0.000000000               0.085136655               0.243750232               0.000000000               0.094442414               0.267045665               0.000000000               0.103748172               0.290341099               0.000000000               0.113053931               0.313636532               0.000000000               0.122359690               0.336931966               0.000000000               0.131665448               0.360227399               0.000000000               0.140971207               0.383522833               0.000000000               0.150276966               0.406818266               0.000000000               0.159582724               0.430113700               0.000000000               0.168888483               0.453409133               0.000000000               0.178194241               0.476704567               0.000000000               0.187500000               0.500000000               0.000000000               0.025947013               0.130444442               0.000000000               0.032137825               0.153541665               0.000000000               0.038328636               0.176638887               0.000000000               0.044519448               0.199736109               0.000000000               0.050710260               0.222833332               0.000000000               0.056901071               0.245930554               0.000000000               0.063091883               0.269027776               0.000000000               0.069282695               0.292124999               0.000000000               0.075473506               0.315222221               0.000000000               0.081664318               0.338319444               0.000000000               0.087855130               0.361416666               0.000000000               0.094045942               0.384513888               0.000000000               0.100236753               0.407611111               0.000000000               0.106427565               0.430708333               0.000000000               0.112618377               0.453805555               0.000000000               0.118809188               0.476902778               0.000000000               0.125000000               0.500000000               0.000000000               0.013036280               0.132359569               0.000000000               0.016127762               0.155337096               0.000000000               0.019219245               0.178314623               0.000000000               0.022310727               0.201292150               0.000000000               0.025402210               0.224269676               0.000000000               0.028493692               0.247247203               0.000000000               0.031585175               0.270224730               0.000000000               0.034676657               0.293202257               0.000000000               0.037768140               0.316179784               0.000000000               0.040859622               0.339157311               0.000000000               0.043951105               0.362134838               0.000000000               0.047042587               0.385112365               0.000000000               0.050134070               0.408089892               0.000000000               0.053225552               0.431067419               0.000000000               0.056317035               0.454044946               0.000000000               0.059408517               0.477022473               0.000000000               0.062500000               0.500000000               0.000000000               0.000000000               0.133000000               0.000000000               0.000000000               0.155937500               0.000000000               0.000000000               0.178875000               0.000000000               0.000000000               0.201812500               0.000000000               0.000000000               0.224750000               0.000000000               0.000000000               0.247687500               0.000000000               0.000000000               0.270625000               0.000000000               0.000000000               0.293562500               0.000000000               0.000000000               0.316500000               0.000000000               0.000000000               0.339437500               0.000000000               0.000000000               0.362375000               0.000000000               0.000000000               0.385312500               0.000000000               0.000000000               0.408250000               0.000000000               0.000000000               0.431187500               0.000000000               0.000000000               0.454125000               0.000000000               0.000000000               0.477062500               0.000000000               0.000000000               0.500000000               0.000000000               0.133000000               0.000000000               0.000000000               0.155937500               0.000000000               0.000000000               0.178875000               0.000000000               0.000000000               0.201812500               0.000000000               0.000000000               0.224750000               0.000000000               0.000000000               0.247687500               0.000000000               0.000000000               0.270625000               0.000000000               0.000000000               0.293562500               0.000000000               0.000000000               0.316500000               0.000000000               0.000000000               0.339437500               0.000000000               0.000000000               0.362375000               0.000000000               0.000000000               0.385312500               0.000000000               0.000000000               0.408250000               0.000000000               0.000000000               0.431187500               0.000000000               0.000000000               0.454125000               0.000000000               0.000000000               0.477062500               0.000000000               0.000000000               0.500000000               0.000000000               0.000000000               0.132359569              -0.013036280               0.000000000               0.155337096              -0.016127762               0.000000000               0.178314623              -0.019219245               0.000000000               0.201292150              -0.022310727               0.000000000               0.224269676              -0.025402210               0.000000000               0.247247203              -0.028493692               0.000000000               0.270224730              -0.031585175               0.000000000               0.293202257              -0.034676657               0.000000000               0.316179784              -0.037768140               0.000000000               0.339157311              -0.040859622               0.000000000               0.362134838              -0.043951105               0.000000000               0.385112365              -0.047042587               0.000000000               0.408089892              -0.050134070               0.000000000               0.431067419              -0.053225552               0.000000000               0.454044946              -0.056317035               0.000000000               0.477022473              -0.059408517               0.000000000               0.500000000              -0.062500000               0.000000000               0.130444442              -0.025947013               0.000000000               0.153541665              -0.032137825               0.000000000               0.176638887              -0.038328636               0.000000000               0.199736109              -0.044519448               0.000000000               0.222833332              -0.050710260               0.000000000               0.245930554              -0.056901071               0.000000000               0.269027776              -0.063091883               0.000000000               0.292124999              -0.069282695               0.000000000               0.315222221              -0.075473506               0.000000000               0.338319444              -0.081664318               0.000000000               0.361416666              -0.087855130               0.000000000               0.384513888              -0.094045942               0.000000000               0.407611111              -0.100236753               0.000000000               0.430708333              -0.106427565               0.000000000               0.453805555              -0.112618377               0.000000000               0.476902778              -0.118809188               0.000000000               0.500000000              -0.125000000               0.000000000               0.127273065              -0.038607862               0.000000000               0.150568498              -0.047913621               0.000000000               0.173863932              -0.057219379               0.000000000               0.197159365              -0.066525138               0.000000000               0.220454798              -0.075830897               0.000000000               0.243750232              -0.085136655               0.000000000               0.267045665              -0.094442414               0.000000000               0.290341099              -0.103748172               0.000000000               0.313636532              -0.113053931               0.000000000               0.336931966              -0.122359690               0.000000000               0.360227399              -0.131665448               0.000000000               0.383522833              -0.140971207               0.000000000               0.406818266              -0.150276966               0.000000000               0.430113700              -0.159582724               0.000000000               0.453409133              -0.168888483               0.000000000               0.476704567              -0.178194241               0.000000000               0.500000000              -0.187500000               0.000000000               0.122875978              -0.050896897               0.000000000               0.146446229              -0.063340840               0.000000000               0.170016481              -0.075784784               0.000000000               0.193586732              -0.088228728               0.000000000               0.217156983              -0.100672672               0.000000000               0.240727235              -0.113116616               0.000000000               0.264297486              -0.125560560               0.000000000               0.287867738              -0.138004504               0.000000000               0.311437989              -0.150448448               0.000000000               0.335008240              -0.162892392               0.000000000               0.358578492              -0.175336336               0.000000000               0.382148743              -0.187780280               0.000000000               0.405718994              -0.200224224               0.000000000               0.429289246              -0.212668168               0.000000000               0.452859497              -0.225112112               0.000000000               0.476429749              -0.237556056               0.000000000               0.500000000              -0.250000000               0.000000000               0.117295528              -0.062695766               0.000000000               0.141214558              -0.078308531               0.000000000               0.165133587              -0.093921295               0.000000000               0.189052617              -0.109534060               0.000000000               0.212971646              -0.125146824               0.000000000               0.236890676              -0.140759589               0.000000000               0.260809705              -0.156372354               0.000000000               0.284728735              -0.171985118               0.000000000               0.308647764              -0.187597883               0.000000000               0.332566794              -0.203210648               0.000000000               0.356485823              -0.218823412               0.000000000               0.380404853              -0.234436177               0.000000000               0.404323882              -0.250048941               0.000000000               0.428242912              -0.265661706               0.000000000               0.452161941              -0.281274471               0.000000000               0.476080971              -0.296887235               0.000000000               0.500000000              -0.312500000               0.000000000               0.110585458              -0.073890841               0.000000000               0.134923867              -0.092710163               0.000000000               0.159262276              -0.111529486               0.000000000               0.183600685              -0.130348808               0.000000000               0.207939094              -0.149168131               0.000000000               0.232277503              -0.167987453               0.000000000               0.256615912              -0.186806776               0.000000000               0.280954320              -0.205626098               0.000000000               0.305292729              -0.224445420               0.000000000               0.329631138              -0.243264743               0.000000000               0.353969547              -0.262084065               0.000000000               0.378307956              -0.280903388               0.000000000               0.402646365              -0.299722710               0.000000000               0.426984773              -0.318542033               0.000000000               0.451323182              -0.337361355               0.000000000               0.475661591              -0.356180678               0.000000000               0.500000000              -0.375000000               0.000000000               0.102810390              -0.084374307               0.000000000               0.127634741              -0.106444663               0.000000000               0.152459092              -0.128515018               0.000000000               0.177283442              -0.150585374               0.000000000               0.202107793              -0.172655730               0.000000000               0.226932143              -0.194726086               0.000000000               0.251756494              -0.216796442               0.000000000               0.276580845              -0.238866798               0.000000000               0.301405195              -0.260937153               0.000000000               0.326229546              -0.283007509               0.000000000               0.351053896              -0.305077865               0.000000000               0.375878247              -0.327148221               0.000000000               0.400702598              -0.349218577               0.000000000               0.425526948              -0.371288933               0.000000000               0.450351299              -0.393359288               0.000000000               0.475175649              -0.415429644               0.000000000               0.500000000              -0.437500000               0.000000000               0.094045202              -0.094045202               0.000000000               0.119417377              -0.119417377               0.000000000               0.144789552              -0.144789552               0.000000000               0.170161727              -0.170161727               0.000000000               0.195533901              -0.195533901               0.000000000               0.220906076              -0.220906076               0.000000000               0.246278251              -0.246278251               0.000000000               0.271650426              -0.271650426               0.000000000               0.297022601              -0.297022601               0.000000000               0.322394776              -0.322394776               0.000000000               0.347766951              -0.347766951               0.000000000               0.373139126              -0.373139126               0.000000000               0.398511300              -0.398511300               0.000000000               0.423883475              -0.423883475               0.000000000               0.449255650              -0.449255650               0.000000000               0.474627825              -0.474627825               0.000000000               0.500000000              -0.500000000               0.000000000               0.084374307              -0.102810390               0.000000000               0.106444663              -0.127634741               0.000000000               0.128515018              -0.152459092               0.000000000               0.150585374              -0.177283442               0.000000000               0.172655730              -0.202107793               0.000000000               0.194726086              -0.226932143               0.000000000               0.216796442              -0.251756494               0.000000000               0.238866798              -0.276580845               0.000000000               0.260937153              -0.301405195               0.000000000               0.283007509              -0.326229546               0.000000000               0.305077865              -0.351053896               0.000000000               0.327148221              -0.375878247               0.000000000               0.349218577              -0.400702598               0.000000000               0.371288933              -0.425526948               0.000000000               0.393359288              -0.450351299               0.000000000               0.415429644              -0.475175649               0.000000000               0.437500000              -0.500000000               0.000000000               0.073890841              -0.110585458               0.000000000               0.092710163              -0.134923867               0.000000000               0.111529486              -0.159262276               0.000000000               0.130348808              -0.183600685               0.000000000               0.149168131              -0.207939094               0.000000000               0.167987453              -0.232277503               0.000000000               0.186806776              -0.256615912               0.000000000               0.205626098              -0.280954320               0.000000000               0.224445420              -0.305292729               0.000000000               0.243264743              -0.329631138               0.000000000               0.262084065              -0.353969547               0.000000000               0.280903388              -0.378307956               0.000000000               0.299722710              -0.402646365               0.000000000               0.318542033              -0.426984773               0.000000000               0.337361355              -0.451323182               0.000000000               0.356180678              -0.475661591               0.000000000               0.375000000              -0.500000000               0.000000000               0.062695766              -0.117295528               0.000000000               0.078308531              -0.141214558               0.000000000               0.093921295              -0.165133587               0.000000000               0.109534060              -0.189052617               0.000000000               0.125146824              -0.212971646               0.000000000               0.140759589              -0.236890676               0.000000000               0.156372354              -0.260809705               0.000000000               0.171985118              -0.284728735               0.000000000               0.187597883              -0.308647764               0.000000000               0.203210648              -0.332566794               0.000000000               0.218823412              -0.356485823               0.000000000               0.234436177              -0.380404853               0.000000000               0.250048941              -0.404323882               0.000000000               0.265661706              -0.428242912               0.000000000               0.281274471              -0.452161941               0.000000000               0.296887235              -0.476080971               0.000000000               0.312500000              -0.500000000               0.000000000               0.050896897              -0.122875978               0.000000000               0.063340840              -0.146446229               0.000000000               0.075784784              -0.170016481               0.000000000               0.088228728              -0.193586732               0.000000000               0.100672672              -0.217156983               0.000000000               0.113116616              -0.240727235               0.000000000               0.125560560              -0.264297486               0.000000000               0.138004504              -0.287867738               0.000000000               0.150448448              -0.311437989               0.000000000               0.162892392              -0.335008240               0.000000000               0.175336336              -0.358578492               0.000000000               0.187780280              -0.382148743               0.000000000               0.200224224              -0.405718994               0.000000000               0.212668168              -0.429289246               0.000000000               0.225112112              -0.452859497               0.000000000               0.237556056              -0.476429749               0.000000000               0.250000000              -0.500000000               0.000000000               0.038607862              -0.127273065               0.000000000               0.047913621              -0.150568498               0.000000000               0.057219379              -0.173863932               0.000000000               0.066525138              -0.197159365               0.000000000               0.075830897              -0.220454798               0.000000000               0.085136655              -0.243750232               0.000000000               0.094442414              -0.267045665               0.000000000               0.103748172              -0.290341099               0.000000000               0.113053931              -0.313636532               0.000000000               0.122359690              -0.336931966               0.000000000               0.131665448              -0.360227399               0.000000000               0.140971207              -0.383522833               0.000000000               0.150276966              -0.406818266               0.000000000               0.159582724              -0.430113700               0.000000000               0.168888483              -0.453409133               0.000000000               0.178194241              -0.476704567               0.000000000               0.187500000              -0.500000000               0.000000000               0.025947013              -0.130444442               0.000000000               0.032137825              -0.153541665               0.000000000               0.038328636              -0.176638887               0.000000000               0.044519448              -0.199736109               0.000000000               0.050710260              -0.222833332               0.000000000               0.056901071              -0.245930554               0.000000000               0.063091883              -0.269027776               0.000000000               0.069282695              -0.292124999               0.000000000               0.075473506              -0.315222221               0.000000000               0.081664318              -0.338319444               0.000000000               0.087855130              -0.361416666               0.000000000               0.094045942              -0.384513888               0.000000000               0.100236753              -0.407611111               0.000000000               0.106427565              -0.430708333               0.000000000               0.112618377              -0.453805555               0.000000000               0.118809188              -0.476902778               0.000000000               0.125000000              -0.500000000               0.000000000               0.013036280              -0.132359569               0.000000000               0.016127762              -0.155337096               0.000000000               0.019219245              -0.178314623               0.000000000               0.022310727              -0.201292150               0.000000000               0.025402210              -0.224269676               0.000000000               0.028493692              -0.247247203               0.000000000               0.031585175              -0.270224730               0.000000000               0.034676657              -0.293202257               0.000000000               0.037768140              -0.316179784               0.000000000               0.040859622              -0.339157311               0.000000000               0.043951105              -0.362134838               0.000000000               0.047042587              -0.385112365               0.000000000               0.050134070              -0.408089892               0.000000000               0.053225552              -0.431067419               0.000000000               0.056317035              -0.454044946               0.000000000               0.059408517              -0.477022473               0.000000000               0.062500000              -0.500000000               0.000000000               0.000000000              -0.133000000               0.000000000               0.000000000              -0.155937500               0.000000000               0.000000000              -0.178875000               0.000000000               0.000000000              -0.201812500               0.000000000               0.000000000              -0.224750000               0.000000000               0.000000000              -0.247687500               0.000000000               0.000000000              -0.270625000               0.000000000               0.000000000              -0.293562500               0.000000000               0.000000000              -0.316500000               0.000000000               0.000000000              -0.339437500               0.000000000               0.000000000              -0.362375000               0.000000000               0.000000000              -0.385312500               0.000000000               0.000000000              -0.408250000               0.000000000               0.000000000              -0.431187500               0.000000000               0.000000000              -0.454125000               0.000000000               0.000000000              -0.477062500               0.000000000               0.000000000              -0.500000000               0.000000000              -0.133000000               0.000000000               0.000000000              -0.155937500               0.000000000               0.000000000              -0.178875000               0.000000000               0.000000000              -0.201812500               0.000000000               0.000000000              -0.224750000               0.000000000               0.000000000              -0.247687500               0.000000000               0.000000000              -0.270625000               0.000000000               0.000000000              -0.293562500               0.000000000               0.000000000              -0.316500000               0.000000000               0.000000000              -0.339437500               0.000000000               0.000000000              -0.362375000               0.000000000               0.000000000              -0.385312500               0.000000000               0.000000000              -0.408250000               0.000000000               0.000000000              -0.431187500               0.000000000               0.000000000              -0.454125000               0.000000000               0.000000000              -0.477062500               0.000000000               0.000000000              -0.500000000               0.000000000               0.000000000              -0.132359569              -0.013036280               0.000000000              -0.155337096              -0.016127762               0.000000000              -0.178314623              -0.019219245               0.000000000              -0.201292150              -0.022310727               0.000000000              -0.224269676              -0.025402210               0.000000000              -0.247247203              -0.028493692               0.000000000              -0.270224730              -0.031585175               0.000000000              -0.293202257              -0.034676657               0.000000000              -0.316179784              -0.037768140               0.000000000              -0.339157311              -0.040859622               0.000000000              -0.362134838              -0.043951105               0.000000000              -0.385112365              -0.047042587               0.000000000              -0.408089892              -0.050134070               0.000000000              -0.431067419              -0.053225552               0.000000000              -0.454044946              -0.056317035               0.000000000              -0.477022473              -0.059408517               0.000000000              -0.500000000              -0.062500000               0.000000000              -0.130444442              -0.025947013               0.000000000              -0.153541665              -0.032137825               0.000000000              -0.176638887              -0.038328636               0.000000000              -0.199736109              -0.044519448               0.000000000              -0.222833332              -0.050710260               0.000000000              -0.245930554              -0.056901071               0.000000000              -0.269027776              -0.063091883               0.000000000              -0.292124999              -0.069282695               0.000000000              -0.315222221              -0.075473506               0.000000000              -0.338319444              -0.081664318               0.000000000              -0.361416666              -0.087855130               0.000000000              -0.384513888              -0.094045942               0.000000000              -0.407611111              -0.100236753               0.000000000              -0.430708333              -0.106427565               0.000000000              -0.453805555              -0.112618377               0.000000000              -0.476902778              -0.118809188               0.000000000              -0.500000000              -0.125000000               0.000000000              -0.127273065              -0.038607862               0.000000000              -0.150568498              -0.047913621               0.000000000              -0.173863932              -0.057219379               0.000000000              -0.197159365              -0.066525138               0.000000000              -0.220454798              -0.075830897               0.000000000              -0.243750232              -0.085136655               0.000000000              -0.267045665              -0.094442414               0.000000000              -0.290341099              -0.103748172               0.000000000              -0.313636532              -0.113053931               0.000000000              -0.336931966              -0.122359690               0.000000000              -0.360227399              -0.131665448               0.000000000              -0.383522833              -0.140971207               0.000000000              -0.406818266              -0.150276966               0.000000000              -0.430113700              -0.159582724               0.000000000              -0.453409133              -0.168888483               0.000000000              -0.476704567              -0.178194241               0.000000000              -0.500000000              -0.187500000               0.000000000              -0.122875978              -0.050896897               0.000000000              -0.146446229              -0.063340840               0.000000000              -0.170016481              -0.075784784               0.000000000              -0.193586732              -0.088228728               0.000000000              -0.217156983              -0.100672672               0.000000000              -0.240727235              -0.113116616               0.000000000              -0.264297486              -0.125560560               0.000000000              -0.287867738              -0.138004504               0.000000000              -0.311437989              -0.150448448               0.000000000              -0.335008240              -0.162892392               0.000000000              -0.358578492              -0.175336336               0.000000000              -0.382148743              -0.187780280               0.000000000              -0.405718994              -0.200224224               0.000000000              -0.429289246              -0.212668168               0.000000000              -0.452859497              -0.225112112               0.000000000              -0.476429749              -0.237556056               0.000000000              -0.500000000              -0.250000000               0.000000000              -0.117295528              -0.062695766               0.000000000              -0.141214558              -0.078308531               0.000000000              -0.165133587              -0.093921295               0.000000000              -0.189052617              -0.109534060               0.000000000              -0.212971646              -0.125146824               0.000000000              -0.236890676              -0.140759589               0.000000000              -0.260809705              -0.156372354               0.000000000              -0.284728735              -0.171985118               0.000000000              -0.308647764              -0.187597883               0.000000000              -0.332566794              -0.203210648               0.000000000              -0.356485823              -0.218823412               0.000000000              -0.380404853              -0.234436177               0.000000000              -0.404323882              -0.250048941               0.000000000              -0.428242912              -0.265661706               0.000000000              -0.452161941              -0.281274471               0.000000000              -0.476080971              -0.296887235               0.000000000              -0.500000000              -0.312500000               0.000000000              -0.110585458              -0.073890841               0.000000000              -0.134923867              -0.092710163               0.000000000              -0.159262276              -0.111529486               0.000000000              -0.183600685              -0.130348808               0.000000000              -0.207939094              -0.149168131               0.000000000              -0.232277503              -0.167987453               0.000000000              -0.256615912              -0.186806776               0.000000000              -0.280954320              -0.205626098               0.000000000              -0.305292729              -0.224445420               0.000000000              -0.329631138              -0.243264743               0.000000000              -0.353969547              -0.262084065               0.000000000              -0.378307956              -0.280903388               0.000000000              -0.402646365              -0.299722710               0.000000000              -0.426984773              -0.318542033               0.000000000              -0.451323182              -0.337361355               0.000000000              -0.475661591              -0.356180678               0.000000000              -0.500000000              -0.375000000               0.000000000              -0.102810390              -0.084374307               0.000000000              -0.127634741              -0.106444663               0.000000000              -0.152459092              -0.128515018               0.000000000              -0.177283442              -0.150585374               0.000000000              -0.202107793              -0.172655730               0.000000000              -0.226932143              -0.194726086               0.000000000              -0.251756494              -0.216796442               0.000000000              -0.276580845              -0.238866798               0.000000000              -0.301405195              -0.260937153               0.000000000              -0.326229546              -0.283007509               0.000000000              -0.351053896              -0.305077865               0.000000000              -0.375878247              -0.327148221               0.000000000              -0.400702598              -0.349218577               0.000000000              -0.425526948              -0.371288933               0.000000000              -0.450351299              -0.393359288               0.000000000              -0.475175649              -0.415429644               0.000000000              -0.500000000              -0.437500000               0.000000000              -0.094045202              -0.094045202               0.000000000              -0.119417377              -0.119417377               0.000000000              -0.144789552              -0.144789552               0.000000000              -0.170161727              -0.170161727               0.000000000              -0.195533901              -0.195533901               0.000000000              -0.220906076              -0.220906076               0.000000000              -0.246278251              -0.246278251               0.000000000              -0.271650426              -0.271650426               0.000000000              -0.297022601              -0.297022601               0.000000000              -0.322394776              -0.322394776               0.000000000              -0.347766951              -0.347766951               0.000000000              -0.373139126              -0.373139126               0.000000000              -0.398511300              -0.398511300               0.000000000              -0.423883475              -0.423883475               0.000000000              -0.449255650              -0.449255650               0.000000000              -0.474627825              -0.474627825               0.000000000              -0.500000000              -0.500000000               0.000000000              -0.084374307              -0.102810390               0.000000000              -0.106444663              -0.127634741               0.000000000              -0.128515018              -0.152459092               0.000000000              -0.150585374              -0.177283442               0.000000000              -0.172655730              -0.202107793               0.000000000              -0.194726086              -0.226932143               0.000000000              -0.216796442              -0.251756494               0.000000000              -0.238866798              -0.276580845               0.000000000              -0.260937153              -0.301405195               0.000000000              -0.283007509              -0.326229546               0.000000000              -0.305077865              -0.351053896               0.000000000              -0.327148221              -0.375878247               0.000000000              -0.349218577              -0.400702598               0.000000000              -0.371288933              -0.425526948               0.000000000              -0.393359288              -0.450351299               0.000000000              -0.415429644              -0.475175649               0.000000000              -0.437500000              -0.500000000               0.000000000              -0.073890841              -0.110585458               0.000000000              -0.092710163              -0.134923867               0.000000000              -0.111529486              -0.159262276               0.000000000              -0.130348808              -0.183600685               0.000000000              -0.149168131              -0.207939094               0.000000000              -0.167987453              -0.232277503               0.000000000              -0.186806776              -0.256615912               0.000000000              -0.205626098              -0.280954320               0.000000000              -0.224445420              -0.305292729               0.000000000              -0.243264743              -0.329631138               0.000000000              -0.262084065              -0.353969547               0.000000000              -0.280903388              -0.378307956               0.000000000              -0.299722710              -0.402646365               0.000000000              -0.318542033              -0.426984773               0.000000000              -0.337361355              -0.451323182               0.000000000              -0.356180678              -0.475661591               0.000000000              -0.375000000              -0.500000000               0.000000000              -0.062695766              -0.117295528               0.000000000              -0.078308531              -0.141214558               0.000000000              -0.093921295              -0.165133587               0.000000000              -0.109534060              -0.189052617               0.000000000              -0.125146824              -0.212971646               0.000000000              -0.140759589              -0.236890676               0.000000000              -0.156372354              -0.260809705               0.000000000              -0.171985118              -0.284728735               0.000000000              -0.187597883              -0.308647764               0.000000000              -0.203210648              -0.332566794               0.000000000              -0.218823412              -0.356485823               0.000000000              -0.234436177              -0.380404853               0.000000000              -0.250048941              -0.404323882               0.000000000              -0.265661706              -0.428242912               0.000000000              -0.281274471              -0.452161941               0.000000000              -0.296887235              -0.476080971               0.000000000              -0.312500000              -0.500000000               0.000000000              -0.050896897              -0.122875978               0.000000000              -0.063340840              -0.146446229               0.000000000              -0.075784784              -0.170016481               0.000000000              -0.088228728              -0.193586732               0.000000000              -0.100672672              -0.217156983               0.000000000              -0.113116616              -0.240727235               0.000000000              -0.125560560              -0.264297486               0.000000000              -0.138004504              -0.287867738               0.000000000              -0.150448448              -0.311437989               0.000000000              -0.162892392              -0.335008240               0.000000000              -0.175336336              -0.358578492               0.000000000              -0.187780280              -0.382148743               0.000000000              -0.200224224              -0.405718994               0.000000000              -0.212668168              -0.429289246               0.000000000              -0.225112112              -0.452859497               0.000000000              -0.237556056              -0.476429749               0.000000000              -0.250000000              -0.500000000               0.000000000              -0.038607862              -0.127273065               0.000000000              -0.047913621              -0.150568498               0.000000000              -0.057219379              -0.173863932               0.000000000              -0.066525138              -0.197159365               0.000000000              -0.075830897              -0.220454798               0.000000000              -0.085136655              -0.243750232               0.000000000              -0.094442414              -0.267045665               0.000000000              -0.103748172              -0.290341099               0.000000000              -0.113053931              -0.313636532               0.000000000              -0.122359690              -0.336931966               0.000000000              -0.131665448              -0.360227399               0.000000000              -0.140971207              -0.383522833               0.000000000              -0.150276966              -0.406818266               0.000000000              -0.159582724              -0.430113700               0.000000000              -0.168888483              -0.453409133               0.000000000              -0.178194241              -0.476704567               0.000000000              -0.187500000              -0.500000000               0.000000000              -0.025947013              -0.130444442               0.000000000              -0.032137825              -0.153541665               0.000000000              -0.038328636              -0.176638887               0.000000000              -0.044519448              -0.199736109               0.000000000              -0.050710260              -0.222833332               0.000000000              -0.056901071              -0.245930554               0.000000000              -0.063091883              -0.269027776               0.000000000              -0.069282695              -0.292124999               0.000000000              -0.075473506              -0.315222221               0.000000000              -0.081664318              -0.338319444               0.000000000              -0.087855130              -0.361416666               0.000000000              -0.094045942              -0.384513888               0.000000000              -0.100236753              -0.407611111               0.000000000              -0.106427565              -0.430708333               0.000000000              -0.112618377              -0.453805555               0.000000000              -0.118809188              -0.476902778               0.000000000              -0.125000000              -0.500000000               0.000000000              -0.013036280              -0.132359569               0.000000000              -0.016127762              -0.155337096               0.000000000              -0.019219245              -0.178314623               0.000000000              -0.022310727              -0.201292150               0.000000000              -0.025402210              -0.224269676               0.000000000              -0.028493692              -0.247247203               0.000000000              -0.031585175              -0.270224730               0.000000000              -0.034676657              -0.293202257               0.000000000              -0.037768140              -0.316179784               0.000000000              -0.040859622              -0.339157311               0.000000000              -0.043951105              -0.362134838               0.000000000              -0.047042587              -0.385112365               0.000000000              -0.050134070              -0.408089892               0.000000000              -0.053225552              -0.431067419               0.000000000              -0.056317035              -0.454044946               0.000000000              -0.059408517              -0.477022473               0.000000000              -0.062500000              -0.500000000               0.000000000               0.000000000              -0.133000000               0.000000000               0.000000000              -0.155937500               0.000000000               0.000000000              -0.178875000               0.000000000               0.000000000              -0.201812500               0.000000000               0.000000000              -0.224750000               0.000000000               0.000000000              -0.247687500               0.000000000               0.000000000              -0.270625000               0.000000000               0.000000000              -0.293562500               0.000000000               0.000000000              -0.316500000               0.000000000               0.000000000              -0.339437500               0.000000000               0.000000000              -0.362375000               0.000000000               0.000000000              -0.385312500               0.000000000               0.000000000              -0.408250000               0.000000000               0.000000000              -0.431187500               0.000000000               0.000000000              -0.454125000               0.000000000               0.000000000              -0.477062500               0.000000000               0.000000000              -0.500000000               0.000000000              -0.133000000               0.000000000               0.000000000              -0.155937500               0.000000000               0.000000000              -0.178875000               0.000000000               0.000000000              -0.201812500               0.000000000               0.000000000              -0.224750000               0.000000000               0.000000000              -0.247687500               0.000000000               0.000000000              -0.270625000               0.000000000               0.000000000              -0.293562500               0.000000000               0.000000000              -0.316500000               0.000000000               0.000000000              -0.339437500               0.000000000               0.000000000              -0.362375000               0.000000000               0.000000000              -0.385312500               0.000000000               0.000000000              -0.408250000               0.000000000               0.000000000              -0.431187500               0.000000000               0.000000000              -0.454125000               0.000000000               0.000000000              -0.477062500               0.000000000               0.000000000              -0.500000000               0.000000000               0.000000000              -0.132359569               0.013036280               0.000000000              -0.155337096               0.016127762               0.000000000              -0.178314623               0.019219245               0.000000000              -0.201292150               0.022310727               0.000000000              -0.224269676               0.025402210               0.000000000              -0.247247203               0.028493692               0.000000000              -0.270224730               0.031585175               0.000000000              -0.293202257               0.034676657               0.000000000              -0.316179784               0.037768140               0.000000000              -0.339157311               0.040859622               0.000000000              -0.362134838               0.043951105               0.000000000              -0.385112365               0.047042587               0.000000000              -0.408089892               0.050134070               0.000000000              -0.431067419               0.053225552               0.000000000              -0.454044946               0.056317035               0.000000000              -0.477022473               0.059408517               0.000000000              -0.500000000               0.062500000               0.000000000              -0.130444442               0.025947013               0.000000000              -0.153541665               0.032137825               0.000000000              -0.176638887               0.038328636               0.000000000              -0.199736109               0.044519448               0.000000000              -0.222833332               0.050710260               0.000000000              -0.245930554               0.056901071               0.000000000              -0.269027776               0.063091883               0.000000000              -0.292124999               0.069282695               0.000000000              -0.315222221               0.075473506               0.000000000              -0.338319444               0.081664318               0.000000000              -0.361416666               0.087855130               0.000000000              -0.384513888               0.094045942               0.000000000              -0.407611111               0.100236753               0.000000000              -0.430708333               0.106427565               0.000000000              -0.453805555               0.112618377               0.000000000              -0.476902778               0.118809188               0.000000000              -0.500000000               0.125000000               0.000000000              -0.127273065               0.038607862               0.000000000              -0.150568498               0.047913621               0.000000000              -0.173863932               0.057219379               0.000000000              -0.197159365               0.066525138               0.000000000              -0.220454798               0.075830897               0.000000000              -0.243750232               0.085136655               0.000000000              -0.267045665               0.094442414               0.000000000              -0.290341099               0.103748172               0.000000000              -0.313636532               0.113053931               0.000000000              -0.336931966               0.122359690               0.000000000              -0.360227399               0.131665448               0.000000000              -0.383522833               0.140971207               0.000000000              -0.406818266               0.150276966               0.000000000              -0.430113700               0.159582724               0.000000000              -0.453409133               0.168888483               0.000000000              -0.476704567               0.178194241               0.000000000              -0.500000000               0.187500000               0.000000000              -0.122875978               0.050896897               0.000000000              -0.146446229               0.063340840               0.000000000              -0.170016481               0.075784784               0.000000000              -0.193586732               0.088228728               0.000000000              -0.217156983               0.100672672               0.000000000              -0.240727235               0.113116616               0.000000000              -0.264297486               0.125560560               0.000000000              -0.287867738               0.138004504               0.000000000              -0.311437989               0.150448448               0.000000000              -0.335008240               0.162892392               0.000000000              -0.358578492               0.175336336               0.000000000              -0.382148743               0.187780280               0.000000000              -0.405718994               0.200224224               0.000000000              -0.429289246               0.212668168               0.000000000              -0.452859497               0.225112112               0.000000000              -0.476429749               0.237556056               0.000000000              -0.500000000               0.250000000               0.000000000              -0.117295528               0.062695766               0.000000000              -0.141214558               0.078308531               0.000000000              -0.165133587               0.093921295               0.000000000              -0.189052617               0.109534060               0.000000000              -0.212971646               0.125146824               0.000000000              -0.236890676               0.140759589               0.000000000              -0.260809705               0.156372354               0.000000000              -0.284728735               0.171985118               0.000000000              -0.308647764               0.187597883               0.000000000              -0.332566794               0.203210648               0.000000000              -0.356485823               0.218823412               0.000000000              -0.380404853               0.234436177               0.000000000              -0.404323882               0.250048941               0.000000000              -0.428242912               0.265661706               0.000000000              -0.452161941               0.281274471               0.000000000              -0.476080971               0.296887235               0.000000000              -0.500000000               0.312500000               0.000000000              -0.110585458               0.073890841               0.000000000              -0.134923867               0.092710163               0.000000000              -0.159262276               0.111529486               0.000000000              -0.183600685               0.130348808               0.000000000              -0.207939094               0.149168131               0.000000000              -0.232277503               0.167987453               0.000000000              -0.256615912               0.186806776               0.000000000              -0.280954320               0.205626098               0.000000000              -0.305292729               0.224445420               0.000000000              -0.329631138               0.243264743               0.000000000              -0.353969547               0.262084065               0.000000000              -0.378307956               0.280903388               0.000000000              -0.402646365               0.299722710               0.000000000              -0.426984773               0.318542033               0.000000000              -0.451323182               0.337361355               0.000000000              -0.475661591               0.356180678               0.000000000              -0.500000000               0.375000000               0.000000000              -0.102810390               0.084374307               0.000000000              -0.127634741               0.106444663               0.000000000              -0.152459092               0.128515018               0.000000000              -0.177283442               0.150585374               0.000000000              -0.202107793               0.172655730               0.000000000              -0.226932143               0.194726086               0.000000000              -0.251756494               0.216796442               0.000000000              -0.276580845               0.238866798               0.000000000              -0.301405195               0.260937153               0.000000000              -0.326229546               0.283007509               0.000000000              -0.351053896               0.305077865               0.000000000              -0.375878247               0.327148221               0.000000000              -0.400702598               0.349218577               0.000000000              -0.425526948               0.371288933               0.000000000              -0.450351299               0.393359288               0.000000000              -0.475175649               0.415429644               0.000000000              -0.500000000               0.437500000               0.000000000              -0.094045202               0.094045202               0.000000000              -0.119417377               0.119417377               0.000000000              -0.144789552               0.144789552               0.000000000              -0.170161727               0.170161727               0.000000000              -0.195533901               0.195533901               0.000000000              -0.220906076               0.220906076               0.000000000              -0.246278251               0.246278251               0.000000000              -0.271650426               0.271650426               0.000000000              -0.297022601               0.297022601               0.000000000              -0.322394776               0.322394776               0.000000000              -0.347766951               0.347766951               0.000000000              -0.373139126               0.373139126               0.000000000              -0.398511300               0.398511300               0.000000000              -0.423883475               0.423883475               0.000000000              -0.449255650               0.449255650               0.000000000              -0.474627825               0.474627825               0.000000000              -0.500000000               0.500000000               0.000000000              -0.084374307               0.102810390               0.000000000              -0.106444663               0.127634741               0.000000000              -0.128515018               0.152459092               0.000000000              -0.150585374               0.177283442               0.000000000              -0.172655730               0.202107793               0.000000000              -0.194726086               0.226932143               0.000000000              -0.216796442               0.251756494               0.000000000              -0.238866798               0.276580845               0.000000000              -0.260937153               0.301405195               0.000000000              -0.283007509               0.326229546               0.000000000              -0.305077865               0.351053896               0.000000000              -0.327148221               0.375878247               0.000000000              -0.349218577               0.400702598               0.000000000              -0.371288933               0.425526948               0.000000000              -0.393359288               0.450351299               0.000000000              -0.415429644               0.475175649               0.000000000              -0.437500000               0.500000000               0.000000000              -0.073890841               0.110585458               0.000000000              -0.092710163               0.134923867               0.000000000              -0.111529486               0.159262276               0.000000000              -0.130348808               0.183600685               0.000000000              -0.149168131               0.207939094               0.000000000              -0.167987453               0.232277503               0.000000000              -0.186806776               0.256615912               0.000000000              -0.205626098               0.280954320               0.000000000              -0.224445420               0.305292729               0.000000000              -0.243264743               0.329631138               0.000000000              -0.262084065               0.353969547               0.000000000              -0.280903388               0.378307956               0.000000000              -0.299722710               0.402646365               0.000000000              -0.318542033               0.426984773               0.000000000              -0.337361355               0.451323182               0.000000000              -0.356180678               0.475661591               0.000000000              -0.375000000               0.500000000               0.000000000              -0.062695766               0.117295528               0.000000000              -0.078308531               0.141214558               0.000000000              -0.093921295               0.165133587               0.000000000              -0.109534060               0.189052617               0.000000000              -0.125146824               0.212971646               0.000000000              -0.140759589               0.236890676               0.000000000              -0.156372354               0.260809705               0.000000000              -0.171985118               0.284728735               0.000000000              -0.187597883               0.308647764               0.000000000              -0.203210648               0.332566794               0.000000000              -0.218823412               0.356485823               0.000000000              -0.234436177               0.380404853               0.000000000              -0.250048941               0.404323882               0.000000000              -0.265661706               0.428242912               0.000000000              -0.281274471               0.452161941               0.000000000              -0.296887235               0.476080971               0.000000000              -0.312500000               0.500000000               0.000000000              -0.050896897               0.122875978               0.000000000              -0.063340840               0.146446229               0.000000000              -0.075784784               0.170016481               0.000000000              -0.088228728               0.193586732               0.000000000              -0.100672672               0.217156983               0.000000000              -0.113116616               0.240727235               0.000000000              -0.125560560               0.264297486               0.000000000              -0.138004504               0.287867738               0.000000000              -0.150448448               0.311437989               0.000000000              -0.162892392               0.335008240               0.000000000              -0.175336336               0.358578492               0.000000000              -0.187780280               0.382148743               0.000000000              -0.200224224               0.405718994               0.000000000              -0.212668168               0.429289246               0.000000000              -0.225112112               0.452859497               0.000000000              -0.237556056               0.476429749               0.000000000              -0.250000000               0.500000000               0.000000000              -0.038607862               0.127273065               0.000000000              -0.047913621               0.150568498               0.000000000              -0.057219379               0.173863932               0.000000000              -0.066525138               0.197159365               0.000000000              -0.075830897               0.220454798               0.000000000              -0.085136655               0.243750232               0.000000000              -0.094442414               0.267045665               0.000000000              -0.103748172               0.290341099               0.000000000              -0.113053931               0.313636532               0.000000000              -0.122359690               0.336931966               0.000000000              -0.131665448               0.360227399               0.000000000              -0.140971207               0.383522833               0.000000000              -0.150276966               0.406818266               0.000000000              -0.159582724               0.430113700               0.000000000              -0.168888483               0.453409133               0.000000000              -0.178194241               0.476704567               0.000000000              -0.187500000               0.500000000               0.000000000              -0.025947013               0.130444442               0.000000000              -0.032137825               0.153541665               0.000000000              -0.038328636               0.176638887               0.000000000              -0.044519448               0.199736109               0.000000000              -0.050710260               0.222833332               0.000000000              -0.056901071               0.245930554               0.000000000              -0.063091883               0.269027776               0.000000000              -0.069282695               0.292124999               0.000000000              -0.075473506               0.315222221               0.000000000              -0.081664318               0.338319444               0.000000000              -0.087855130               0.361416666               0.000000000              -0.094045942               0.384513888               0.000000000              -0.100236753               0.407611111               0.000000000              -0.106427565               0.430708333               0.000000000              -0.112618377               0.453805555               0.000000000              -0.118809188               0.476902778               0.000000000              -0.125000000               0.500000000               0.000000000              -0.013036280               0.132359569               0.000000000              -0.016127762               0.155337096               0.000000000              -0.019219245               0.178314623               0.000000000              -0.022310727               0.201292150               0.000000000              -0.025402210               0.224269676               0.000000000              -0.028493692               0.247247203               0.000000000              -0.031585175               0.270224730               0.000000000              -0.034676657               0.293202257               0.000000000              -0.037768140               0.316179784               0.000000000              -0.040859622               0.339157311               0.000000000              -0.043951105               0.362134838               0.000000000              -0.047042587               0.385112365               0.000000000              -0.050134070               0.408089892               0.000000000              -0.053225552               0.431067419               0.000000000              -0.056317035               0.454044946               0.000000000              -0.059408517               0.477022473               0.000000000              -0.062500000               0.500000000               0.000000000               0.000000000               0.133000000               0.000000000               0.000000000               0.155937500               0.000000000               0.000000000               0.178875000               0.000000000               0.000000000               0.201812500               0.000000000               0.000000000               0.224750000               0.000000000               0.000000000               0.247687500               0.000000000               0.000000000               0.270625000               0.000000000               0.000000000               0.293562500               0.000000000               0.000000000               0.316500000               0.000000000               0.000000000               0.339437500               0.000000000               0.000000000               0.362375000               0.000000000               0.000000000               0.385312500               0.000000000               0.000000000               0.408250000               0.000000000               0.000000000               0.431187500               0.000000000               0.000000000               0.454125000               0.000000000               0.000000000               0.477062500               0.000000000               0.000000000               0.500000000               0.000000000 </DataArray>
</Points>
<Cells>
<DataArray type="Int32"                                    Name="connectivity"                                                      NumberOfComponents=" 1" format="ascii">
         0          1         18         17          1          2         19         18          2          3         20         19          3          4         21         20          4          5         22         21          5          6         23         22          6          7         24         23          7          8         25         24          8          9         26         25          9         10         27         26         10         11         28         27         11         12         29         28         12         13         30         29         13         14         31         30         14         15         32         31         15         16         33         32         17         18         35         34         18         19         36         35         19         20         37         36         20         21         38         37         21         22         39         38         22         23         40         39         23         24         41         40         24         25         42         41         25         26         43         42         26         27         44         43         27         28         45         44         28         29         46         45         29         30         47         46         30         31         48         47         31         32         49         48         32         33         50         49         34         35         52         51         35         36         53         52         36         37         54         53         37         38         55         54         38         39         56         55         39         40         57         56         40         41         58         57         41         42         59         58         42         43         60         59         43         44         61         60         44         45         62         61         45         46         63         62         46         47         64         63         47         48         65         64         48         49         66         65         49         50         67         66         51         52         69         68         52         53         70         69         53         54         71         70         54         55         72         71         55         56         73         72         56         57         74         73         57         58         75         74         58         59         76         75         59         60         77         76         60         61         78         77         61         62         79         78         62         63         80         79         63         64         81         80         64         65         82         81         65         66         83         82         66         67         84         83         68         69         86         85         69         70         87         86         70         71         88         87         71         72         89         88         72         73         90         89         73         74         91         90         74         75         92         91         75         76         93         92         76         77         94         93         77         78         95         94         78         79         96         95         79         80         97         96         80         81         98         97         81         82         99         98         82         83        100         99         83         84        101        100         85         86        103        102         86         87        104        103         87         88        105        104         88         89        106        105         89         90        107        106         90         91        108        107         91         92        109        108         92         93        110        109         93         94        111        110         94         95        112        111         95         96        113        112         96         97        114        113         97         98        115        114         98         99        116        115         99        100        117        116        100        101        118        117        102        103        120        119        103        104        121        120        104        105        122        121        105        106        123        122        106        107        124        123        107        108        125        124        108        109        126        125        109        110        127        126        110        111        128        127        111        112        129        128        112        113        130        129        113        114        131        130        114        115        132        131        115        116        133        132        116        117        134        133        117        118        135        134        119        120        137        136        120        121        138        137        121        122        139        138        122        123        140        139        123        124        141        140        124        125        142        141        125        126        143        142        126        127        144        143        127        128        145        144        128        129        146        145        129        130        147        146        130        131        148        147        131        132        149        148        132        133        150        149        133        134        151        150        134        135        152        151        136        137        154        153        137        138        155        154        138        139        156        155        139        140        157        156        140        141        158        157        141        142        159        158        142        143        160        159        143        144        161        160        144        145        162        161        145        146        163        162        146        147        164        163        147        148        165        164        148        149        166        165        149        150        167        166        150        151        168        167        151        152        169        168        153        154        171        170        154        155        172        171        155        156        173        172        156        157        174        173        157        158        175        174        158        159        176        175        159        160        177        176        160        161        178        177        161        162        179        178        162        163        180        179        163        164        181        180        164        165        182        181        165        166        183        182        166        167        184        183        167        168        185        184        168        169        186        185        170        171        188        187        171        172        189        188        172        173        190        189        173        174        191        190        174        175        192        191        175        176        193        192        176        177        194        193        177        178        195        194        178        179        196        195        179        180        197        196        180        181        198        197        181        182        199        198        182        183        200        199        183        184        201        200        184        185        202        201        185        186        203        202        187        188        205        204        188        189        206        205        189        190        207        206        190        191        208        207        191        192        209        208        192        193        210        209        193        194        211        210        194        195        212        211        195        196        213        212        196        197        214        213        197        198        215        214        198        199        216        215        199        200        217        216        200        201        218        217        201        202        219        218        202        203        220        219        204        205        222        221        205        206        223        222        206        207        224        223        207        208        225        224        208        209        226        225        209        210        227        226        210        211        228        227        211        212        229        228        212        213        230        229        213        214        231        230        214        215        232        231        215        216        233        232        216        217        234        233        217        218        235        234        218        219        236        235        219        220        237        236        221        222        239        238        222        223        240        239        223        224        241        240        224        225        242        241        225        226        243        242        226        227        244        243        227        228        245        244        228        229        246        245        229        230        247        246        230        231        248        247        231        232        249        248        232        233        250        249        233        234        251        250        234        235        252        251        235        236        253        252        236        237        254        253        238        239        256        255        239        240        257        256        240        241        258        257        241        242        259        258        242        243        260        259        243        244        261        260        244        245        262        261        245        246        263        262        246        247        264        263        247        248        265        264        248        249        266        265        249        250        267        266        250        251        268        267        251        252        269        268        252        253        270        269        253        254        271        270        255        256        273        272        256        257        274        273        257        258        275        274        258        259        276        275        259        260        277        276        260        261        278        277        261        262        279        278        262        263        280        279        263        264        281        280        264        265        282        281        265        266        283        282        266        267        284        283        267        268        285        284        268        269        286        285        269        270        287        286        270        271        288        287        306        307          1          0        307        308          2          1        308        309          3          2        309        310          4          3        310        311          5          4        311        312          6          5        312        313          7          6        313        314          8          7        314        315          9          8        315        316         10          9        316        317         11         10        317        318         12         11        318        319         13         12        319        320         14         13        320        321         15         14        321        322         16         15        323        324        307        306        324        325        308        307        325        326        309        308        326        327        310        309        327        328        311        310        328        329        312        311        329        330        313        312        330        331        314        313        331        332        315        314        332        333        316        315        333        334        317        316        334        335        318        317        335        336        319        318        336        337        320        319        337        338        321        320        338        339        322        321        340        341        324        323        341        342        325        324        342        343        326        325        343        344        327        326        344        345        328        327        345        346        329        328        346        347        330        329        347        348        331        330        348        349        332        331        349        350        333        332        350        351        334        333        351        352        335        334        352        353        336        335        353        354        337        336        354        355        338        337        355        356        339        338        357        358        341        340        358        359        342        341        359        360        343        342        360        361        344        343        361        362        345        344        362        363        346        345        363        364        347        346        364        365        348        347        365        366        349        348        366        367        350        349        367        368        351        350        368        369        352        351        369        370        353        352        370        371        354        353        371        372        355        354        372        373        356        355        374        375        358        357        375        376        359        358        376        377        360        359        377        378        361        360        378        379        362        361        379        380        363        362        380        381        364        363        381        382        365        364        382        383        366        365        383        384        367        366        384        385        368        367        385        386        369        368        386        387        370        369        387        388        371        370        388        389        372        371        389        390        373        372        391        392        375        374        392        393        376        375        393        394        377        376        394        395        378        377        395        396        379        378        396        397        380        379        397        398        381        380        398        399        382        381        399        400        383        382        400        401        384        383        401        402        385        384        402        403        386        385        403        404        387        386        404        405        388        387        405        406        389        388        406        407        390        389        408        409        392        391        409        410        393        392        410        411        394        393        411        412        395        394        412        413        396        395        413        414        397        396        414        415        398        397        415        416        399        398        416        417        400        399        417        418        401        400        418        419        402        401        419        420        403        402        420        421        404        403        421        422        405        404        422        423        406        405        423        424        407        406        425        426        409        408        426        427        410        409        427        428        411        410        428        429        412        411        429        430        413        412        430        431        414        413        431        432        415        414        432        433        416        415        433        434        417        416        434        435        418        417        435        436        419        418        436        437        420        419        437        438        421        420        438        439        422        421        439        440        423        422        440        441        424        423        442        443        426        425        443        444        427        426        444        445        428        427        445        446        429        428        446        447        430        429        447        448        431        430        448        449        432        431        449        450        433        432        450        451        434        433        451        452        435        434        452        453        436        435        453        454        437        436        454        455        438        437        455        456        439        438        456        457        440        439        457        458        441        440        459        460        443        442        460        461        444        443        461        462        445        444        462        463        446        445        463        464        447        446        464        465        448        447        465        466        449        448        466        467        450        449        467        468        451        450        468        469        452        451        469        470        453        452        470        471        454        453        471        472        455        454        472        473        456        455        473        474        457        456        474        475        458        457        476        477        460        459        477        478        461        460        478        479        462        461        479        480        463        462        480        481        464        463        481        482        465        464        482        483        466        465        483        484        467        466        484        485        468        467        485        486        469        468        486        487        470        469        487        488        471        470        488        489        472        471        489        490        473        472        490        491        474        473        491        492        475        474        493        494        477        476        494        495        478        477        495        496        479        478        496        497        480        479        497        498        481        480        498        499        482        481        499        500        483        482        500        501        484        483        501        502        485        484        502        503        486        485        503        504        487        486        504        505        488        487        505        506        489        488        506        507        490        489        507        508        491        490        508        509        492        491        510        511        494        493        511        512        495        494        512        513        496        495        513        514        497        496        514        515        498        497        515        516        499        498        516        517        500        499        517        518        501        500        518        519        502        501        519        520        503        502        520        521        504        503        521        522        505        504        522        523        506        505        523        524        507        506        524        525        508        507        525        526        509        508        527        528        511        510        528        529        512        511        529        530        513        512        530        531        514        513        531        532        515        514        532        533        516        515        533        534        517        516        534        535        518        517        535        536        519        518        536        537        520        519        537        538        521        520        538        539        522        521        539        540        523        522        540        541        524        523        541        542        525        524        542        543        526        525        544        545        528        527        545        546        529        528        546        547        530        529        547        548        531        530        548        549        532        531        549        550        533        532        550        551        534        533        551        552        535        534        552        553        536        535        553        554        537        536        554        555        538        537        555        556        539        538        556        557        540        539        557        558        541        540        558        559        542        541        559        560        543        542        561        562        545        544        562        563        546        545        563        564        547        546        564        565        548        547        565        566        549        548        566        567        550        549        567        568        551        550        568        569        552        551        569        570        553        552        570        571        554        553        571        572        555        554        572        573        556        555        573        574        557        556        574        575        558        557        575        576        559        558        576        577        560        559        578        579        596        595        579        580        597        596        580        581        598        597        581        582        599        598        582        583        600        599        583        584        601        600        584        585        602        601        585        586        603        602        586        587        604        603        587        588        605        604        588        589        606        605        589        590        607        606        590        591        608        607        591        592        609        608        592        593        610        609        593        594        611        610        595        596        613        612        596        597        614        613        597        598        615        614        598        599        616        615        599        600        617        616        600        601        618        617        601        602        619        618        602        603        620        619        603        604        621        620        604        605        622        621        605        606        623        622        606        607        624        623        607        608        625        624        608        609        626        625        609        610        627        626        610        611        628        627        612        613        630        629        613        614        631        630        614        615        632        631        615        616        633        632        616        617        634        633        617        618        635        634        618        619        636        635        619        620        637        636        620        621        638        637        621        622        639        638        622        623        640        639        623        624        641        640        624        625        642        641        625        626        643        642        626        627        644        643        627        628        645        644        629        630        647        646        630        631        648        647        631        632        649        648        632        633        650        649        633        634        651        650        634        635        652        651        635        636        653        652        636        637        654        653        637        638        655        654        638        639        656        655        639        640        657        656        640        641        658        657        641        642        659        658        642        643        660        659        643        644        661        660        644        645        662        661        646        647        664        663        647        648        665        664        648        649        666        665        649        650        667        666        650        651        668        667        651        652        669        668        652        653        670        669        653        654        671        670        654        655        672        671        655        656        673        672        656        657        674        673        657        658        675        674        658        659        676        675        659        660        677        676        660        661        678        677        661        662        679        678        663        664        681        680        664        665        682        681        665        666        683        682        666        667        684        683        667        668        685        684        668        669        686        685        669        670        687        686        670        671        688        687        671        672        689        688        672        673        690        689        673        674        691        690        674        675        692        691        675        676        693        692        676        677        694        693        677        678        695        694        678        679        696        695        680        681        698        697        681        682        699        698        682        683        700        699        683        684        701        700        684        685        702        701        685        686        703        702        686        687        704        703        687        688        705        704        688        689        706        705        689        690        707        706        690        691        708        707        691        692        709        708        692        693        710        709        693        694        711        710        694        695        712        711        695        696        713        712        697        698        715        714        698        699        716        715        699        700        717        716        700        701        718        717        701        702        719        718        702        703        720        719        703        704        721        720        704        705        722        721        705        706        723        722        706        707        724        723        707        708        725        724        708        709        726        725        709        710        727        726        710        711        728        727        711        712        729        728        712        713        730        729        714        715        732        731        715        716        733        732        716        717        734        733        717        718        735        734        718        719        736        735        719        720        737        736        720        721        738        737        721        722        739        738        722        723        740        739        723        724        741        740        724        725        742        741        725        726        743        742        726        727        744        743        727        728        745        744        728        729        746        745        729        730        747        746        731        732        749        748        732        733        750        749        733        734        751        750        734        735        752        751        735        736        753        752        736        737        754        753        737        738        755        754        738        739        756        755        739        740        757        756        740        741        758        757        741        742        759        758        742        743        760        759        743        744        761        760        744        745        762        761        745        746        763        762        746        747        764        763        748        749        766        765        749        750        767        766        750        751        768        767        751        752        769        768        752        753        770        769        753        754        771        770        754        755        772        771        755        756        773        772        756        757        774        773        757        758        775        774        758        759        776        775        759        760        777        776        760        761        778        777        761        762        779        778        762        763        780        779        763        764        781        780        765        766        783        782        766        767        784        783        767        768        785        784        768        769        786        785        769        770        787        786        770        771        788        787        771        772        789        788        772        773        790        789        773        774        791        790        774        775        792        791        775        776        793        792        776        777        794        793        777        778        795        794        778        779        796        795        779        780        797        796        780        781        798        797        782        783        800        799        783        784        801        800        784        785        802        801        785        786        803        802        786        787        804        803        787        788        805        804        788        789        806        805        789        790        807        806        790        791        808        807        791        792        809        808        792        793        810        809        793        794        811        810        794        795        812        811        795        796        813        812        796        797        814        813        797        798        815        814        799        800        817        816        800        801        818        817        801        802        819        818        802        803        820        819        803        804        821        820        804        805        822        821        805        806        823        822        806        807        824        823        807        808        825        824        808        809        826        825        809        810        827        826        810        811        828        827        811        812        829        828        812        813        830        829        813        814        831        830        814        815        832        831        816        817        834        833        817        818        835        834        818        819        836        835        819        820        837        836        820        821        838        837        821        822        839        838        822        823        840        839        823        824        841        840        824        825        842        841        825        826        843        842        826        827        844        843        827        828        845        844        828        829        846        845        829        830        847        846        830        831        848        847        831        832        849        848        833        834        562        561        834        835        563        562        835        836        564        563        836        837        565        564        837        838        566        565        838        839        567        566        839        840        568        567        840        841        569        568        841        842        570        569        842        843        571        570        843        844        572        571        844        845        573        572        845        846        574        573        846        847        575        574        847        848        576        575        848        849        577        576        884        885        579        578        885        886        580        579        886        887        581        580        887        888        582        581        888        889        583        582        889        890        584        583        890        891        585        584        891        892        586        585        892        893        587        586        893        894        588        587        894        895        589        588        895        896        590        589        896        897        591        590        897        898        592        591        898        899        593        592        899        900        594        593        901        902        885        884        902        903        886        885        903        904        887        886        904        905        888        887        905        906        889        888        906        907        890        889        907        908        891        890        908        909        892        891        909        910        893        892        910        911        894        893        911        912        895        894        912        913        896        895        913        914        897        896        914        915        898        897        915        916        899        898        916        917        900        899        918        919        902        901        919        920        903        902        920        921        904        903        921        922        905        904        922        923        906        905        923        924        907        906        924        925        908        907        925        926        909        908        926        927        910        909        927        928        911        910        928        929        912        911        929        930        913        912        930        931        914        913        931        932        915        914        932        933        916        915        933        934        917        916        935        936        919        918        936        937        920        919        937        938        921        920        938        939        922        921        939        940        923        922        940        941        924        923        941        942        925        924        942        943        926        925        943        944        927        926        944        945        928        927        945        946        929        928        946        947        930        929        947        948        931        930        948        949        932        931        949        950        933        932        950        951        934        933        952        953        936        935        953        954        937        936        954        955        938        937        955        956        939        938        956        957        940        939        957        958        941        940        958        959        942        941        959        960        943        942        960        961        944        943        961        962        945        944        962        963        946        945        963        964        947        946        964        965        948        947        965        966        949        948        966        967        950        949        967        968        951        950        969        970        953        952        970        971        954        953        971        972        955        954        972        973        956        955        973        974        957        956        974        975        958        957        975        976        959        958        976        977        960        959        977        978        961        960        978        979        962        961        979        980        963        962        980        981        964        963        981        982        965        964        982        983        966        965        983        984        967        966        984        985        968        967        986        987        970        969        987        988        971        970        988        989        972        971        989        990        973        972        990        991        974        973        991        992        975        974        992        993        976        975        993        994        977        976        994        995        978        977        995        996        979        978        996        997        980        979        997        998        981        980        998        999        982        981        999       1000        983        982       1000       1001        984        983       1001       1002        985        984       1003       1004        987        986       1004       1005        988        987       1005       1006        989        988       1006       1007        990        989       1007       1008        991        990       1008       1009        992        991       1009       1010        993        992       1010       1011        994        993       1011       1012        995        994       1012       1013        996        995       1013       1014        997        996       1014       1015        998        997       1015       1016        999        998       1016       1017       1000        999       1017       1018       1001       1000       1018       1019       1002       1001       1020       1021       1004       1003       1021       1022       1005       1004       1022       1023       1006       1005       1023       1024       1007       1006       1024       1025       1008       1007       1025       1026       1009       1008       1026       1027       1010       1009       1027       1028       1011       1010       1028       1029       1012       1011       1029       1030       1013       1012       1030       1031       1014       1013       1031       1032       1015       1014       1032       1033       1016       1015       1033       1034       1017       1016       1034       1035       1018       1017       1035       1036       1019       1018       1037       1038       1021       1020       1038       1039       1022       1021       1039       1040       1023       1022       1040       1041       1024       1023       1041       1042       1025       1024       1042       1043       1026       1025       1043       1044       1027       1026       1044       1045       1028       1027       1045       1046       1029       1028       1046       1047       1030       1029       1047       1048       1031       1030       1048       1049       1032       1031       1049       1050       1033       1032       1050       1051       1034       1033       1051       1052       1035       1034       1052       1053       1036       1035       1054       1055       1038       1037       1055       1056       1039       1038       1056       1057       1040       1039       1057       1058       1041       1040       1058       1059       1042       1041       1059       1060       1043       1042       1060       1061       1044       1043       1061       1062       1045       1044       1062       1063       1046       1045       1063       1064       1047       1046       1064       1065       1048       1047       1065       1066       1049       1048       1066       1067       1050       1049       1067       1068       1051       1050       1068       1069       1052       1051       1069       1070       1053       1052       1071       1072       1055       1054       1072       1073       1056       1055       1073       1074       1057       1056       1074       1075       1058       1057       1075       1076       1059       1058       1076       1077       1060       1059       1077       1078       1061       1060       1078       1079       1062       1061       1079       1080       1063       1062       1080       1081       1064       1063       1081       1082       1065       1064       1082       1083       1066       1065       1083       1084       1067       1066       1084       1085       1068       1067       1085       1086       1069       1068       1086       1087       1070       1069       1088       1089       1072       1071       1089       1090       1073       1072       1090       1091       1074       1073       1091       1092       1075       1074       1092       1093       1076       1075       1093       1094       1077       1076       1094       1095       1078       1077       1095       1096       1079       1078       1096       1097       1080       1079       1097       1098       1081       1080       1098       1099       1082       1081       1099       1100       1083       1082       1100       1101       1084       1083       1101       1102       1085       1084       1102       1103       1086       1085       1103       1104       1087       1086       1105       1106       1089       1088       1106       1107       1090       1089       1107       1108       1091       1090       1108       1109       1092       1091       1109       1110       1093       1092       1110       1111       1094       1093       1111       1112       1095       1094       1112       1113       1096       1095       1113       1114       1097       1096       1114       1115       1098       1097       1115       1116       1099       1098       1116       1117       1100       1099       1117       1118       1101       1100       1118       1119       1102       1101       1119       1120       1103       1102       1120       1121       1104       1103       1122       1123       1106       1105       1123       1124       1107       1106       1124       1125       1108       1107       1125       1126       1109       1108       1126       1127       1110       1109       1127       1128       1111       1110       1128       1129       1112       1111       1129       1130       1113       1112       1130       1131       1114       1113       1131       1132       1115       1114       1132       1133       1116       1115       1133       1134       1117       1116       1134       1135       1118       1117       1135       1136       1119       1118       1136       1137       1120       1119       1137       1138       1121       1120        272        273       1123       1122        273        274       1124       1123        274        275       1125       1124        275        276       1126       1125        276        277       1127       1126        277        278       1128       1127        278        279       1129       1128        279        280       1130       1129        280        281       1131       1130        281        282       1132       1131        282        283       1133       1132        283        284       1134       1133        284        285       1135       1134        285        286       1136       1135        286        287       1137       1136        287        288       1138       1137 </DataArray>
<DataArray type="Int32"                                    Name="offsets"                                                      NumberOfComponents=" 1" format="ascii">
         4          8         12         16         20         24         28         32         36         40         44         48         52         56         60         64         68         72         76         80         84         88         92         96        100        104        108        112        116        120        124        128        132        136        140        144        148        152        156        160        164        168        172        176        180        184        188        192        196        200        204        208        212        216        220        224        228        232        236        240        244        248        252        256        260        264        268        272        276        280        284        288        292        296        300        304        308        312        316        320        324        328        332        336        340        344        348        352        356        360        364        368        372        376        380        384        388        392        396        400        404        408        412        416        420        424        428        432        436        440        444        448        452        456        460        464        468        472        476        480        484        488        492        496        500        504        508        512        516        520        524        528        532        536        540        544        548        552        556        560        564        568        572        576        580        584        588        592        596        600        604        608        612        616        620        624        628        632        636        640        644        648        652        656        660        664        668        672        676        680        684        688        692        696        700        704        708        712        716        720        724        728        732        736        740        744        748        752        756        760        764        768        772        776        780        784        788        792        796        800        804        808        812        816        820        824        828        832        836        840        844        848        852        856        860        864        868        872        876        880        884        888        892        896        900        904        908        912        916        920        924        928        932        936        940        944        948        952        956        960        964        968        972        976        980        984        988        992        996       1000       1004       1008       1012       1016       1020       1024       1028       1032       1036       1040       1044       1048       1052       1056       1060       1064       1068       1072       1076       1080       1084       1088       1092       1096       1100       1104       1108       1112       1116       1120       1124       1128       1132       1136       1140       1144       1148       1152       1156       1160       1164       1168       1172       1176       1180       1184       1188       1192       1196       1200       1204       1208       1212       1216       1220       1224       1228       1232       1236       1240       1244       1248       1252       1256       1260       1264       1268       1272       1276       1280       1284       1288       1292       1296       1300       1304       1308       1312       1316       1320       1324       1328       1332       1336       1340       1344       1348       1352       1356       1360       1364       1368       1372       1376       1380       1384       1388       1392       1396       1400       1404       1408       1412       1416       1420       1424       1428       1432       1436       1440       1444       1448       1452       1456       1460       1464       1468       1472       1476       1480       1484       1488       1492       1496       1500       1504       1508       1512       1516       1520       1524       1528       1532       1536       1540       1544       1548       1552       1556       1560       1564       1568       1572       1576       1580       1584       1588       1592       1596       1600       1604       1608       1612       1616       1620       1624       1628       1632       1636       1640       1644       1648       1652       1656       1660       1664       1668       1672       1676       1680       1684       1688       1692       1696       1700       1704       1708       1712       1716       1720       1724       1728       1732       1736       1740       1744       1748       1752       1756       1760       1764       1768       1772       1776       1780       1784       1788       1792       1796       1800       1804       1808       1812       1816       1820       1824       1828       1832       1836       1840       1844       1848       1852       1856       1860       1864       1868       1872       1876       1880       1884       1888       1892       1896       1900       1904       1908       1912       1916       1920       1924       1928       1932       1936       1940       1944       1948       1952       1956       1960       1964       1968       1972       1976       1980       1984       1988       1992       1996       2000       2004       2008       2012       2016       2020       2024       2028       2032       2036       2040       2044       2048       2052       2056       2060       2064       2068       2072       2076       2080       2084       2088       2092       2096       2100       2104       2108       2112       2116       2120       2124       2128       2132       2136       2140       2144       2148       2152       2156       2160       2164       2168       2172       2176       2180       2184       2188       2192       2196       2200       2204       2208       2212       2216       2220       2224       2228       2232       2236       2240       2244       2248       2252       2256       2260       2264       2268       2272       2276       2280       2284       2288       2292       2296       2300       2304       2308       2312       2316       2320       2324       2328       2332       2336       2340       2344       2348       2352       2356       2360       2364       2368       2372       2376       2380       2384       2388       2392       2396       2400       2404       2408       2412       2416       2420       2424       2428       2432       2436       2440       2444       2448       2452       2456       2460       2464       2468       2472       2476       2480       2484       2488       2492       2496       2500       2504       2508       2512       2516       2520       2524       2528       2532       2536       2540       2544       2548       2552       2556       2560       2564       2568       2572       2576       2580       2584       2588       2592       2596       2600       2604       2608       2612       2616       2620       2624       2628       2632       2636       2640       2644       2648       2652       2656       2660       2664       2668       2672       2676       2680       2684       2688       2692       2696       2700       2704       2708       2712       2716       2720       2724       2728       2732       2736       2740       2744       2748       2752       2756       2760       2764       2768       2772       2776       2780       2784       2788       2792       2796       2800       2804       2808       2812       2816       2820       2824       2828       2832       2836       2840       2844       2848       2852       2856       2860       2864       2868       2872       2876       2880       2884       2888       2892       2896       2900       2904       2908       2912       2916       2920       2924       2928       2932       2936       2940       2944       2948       2952       2956       2960       2964       2968       2972       2976       2980       2984       2988       2992       2996       3000       3004       3008       3012       3016       3020       3024       3028       3032       3036       3040       3044       3048       3052       3056       3060       3064       3068       3072       3076       3080       3084       3088       3092       3096       3100       3104       3108       3112       3116       3120       3124       3128       3132       3136       3140       3144       3148       3152       3156       3160       3164       3168       3172       3176       3180       3184       3188       3192       3196       3200       3204       3208       3212       3216       3220       3224       3228       3232       3236       3240       3244       3248       3252       3256       3260       3264       3268       3272       3276       3280       3284       3288       3292       3296       3300       3304       3308       3312       3316       3320       3324       3328       3332       3336       3340       3344       3348       3352       3356       3360       3364       3368       3372       3376       3380       3384       3388       3392       3396       3400       3404       3408       3412       3416       3420       3424       3428       3432       3436       3440       3444       3448       3452       3456       3460       3464       3468       3472       3476       3480       3484       3488       3492       3496       3500       3504       3508       3512       3516       3520       3524       3528       3532       3536       3540       3544       3548       3552       3556       3560       3564       3568       3572       3576       3580       3584       3588       3592       3596       3600       3604       3608       3612       3616       3620       3624       3628       3632       3636       3640       3644       3648       3652       3656       3660       3664       3668       3672       3676       3680       3684       3688       3692       3696       3700       3704       3708       3712       3716       3720       3724       3728       3732       3736       3740       3744       3748       3752       3756       3760       3764       3768       3772       3776       3780       3784       3788       3792       3796       3800       3804       3808       3812       3816       3820       3824       3828       3832       3836       3840       3844       3848       3852       3856       3860       3864       3868       3872       3876       3880       3884       3888       3892       3896       3900       3904       3908       3912       3916       3920       3924       3928       3932       3936       3940       3944       3948       3952       3956       3960       3964       3968       3972       3976       3980       3984       3988       3992       3996       4000       4004       4008       4012       4016       4020       4024       4028       4032       4036       4040       4044       4048       4052       4056       4060       4064       4068       4072       4076       4080       4084       4088       4092       4096 </DataArray>
<DataArray type="UInt8"                                    Name="types"                                                      NumberOfComponents=" 1" format="ascii">
         9          9          9          9          9          9          9          9          9          9          9          9          9          9          9          9          9          9          9          9          9          9          9          9          9          9          9          9          9          9          9          9          9          9          9          9          9          9          9          9          9          9          9          9          9          9          9          9          9          9          9          9          9          9          9          9          9          9          9          9          9          9          9          9          9          9          9          9          9          9          9          9          9          9          9          9          9          9          9          9          9          9          9          9          9          9          9          9          9          9          9          9          9          9          9          9          9          9          9          9          9          9          9          9          9          9          9          9          9          9          9          9          9          9          9          9          9          9          9          9          9          9          9          9          9          9          9          9          9          9          9          9          9          9          9          9          9          9          9          9          9          9          9          9          9          9          9          9          9          9          9          9          9          9          9          9          9          9          9          9          9          9          9          9          9          9          9          9          9          9          9          9          9          9          9          9          9          9          9          9          9          9          9          9          9          9          9          9          9          9          9          9          9          9          9          9          9          9          9          9          9          9          9          9          9          9          9          9          9          9          9          9          9          9          9          9          9          9          9          9          9          9          9          9          9          9          9          9          9          9          9          9          9          9          9          9          9          9          9          9          9          9          9          9          9          9          9          9          9          9          9          9          9          9          9          9          9          9          9          9          9          9          9          9          9          9          9          9          9          9          9          9          9          9          9          9          9          9          9          9          9          9          9          9          9          9          9          9          9          9          9          9          9          9          9          9          9          9          9          9          9          9          9          9          9          9          9          9          9          9          9          9          9          9          9          9          9          9          9          9          9          9          9          9          9          9          9          9          9          9          9          9          9          9          9          9          9          9          9          9          9          9          9          9          9          9          9          9          9          9          9          9          9          9          9          9          9          9          9          9          9          9          9          9          9          9          9          9          9          9          9          9          9          9          9          9          9          9          9          9          9          9          9          9          9          9          9          9          9          9          9          9          9          9          9          9          9          9          9          9          9          9          9          9          9          9          9          9          9          9          9          9          9          9          9          9          9          9          9          9          9          9          9          9          9          9          9          9          9          9          9          9          9          9          9          9          9          9          9          9          9          9          9          9          9          9          9          9          9          9          9          9          9          9          9          9          9          9          9          9          9          9          9          9          9          9          9          9          9          9          9          9          9          9          9          9          9          9          9          9          9          9          9          9          9          9          9          9          9          9          9          9          9          9          9          9          9          9          9          9          9          9          9          9          9          9          9          9          9          9          9          9          9          9          9          9          9          9          9          9          9          9          9          9          9          9          9          9          9          9          9          9          9          9          9          9          9          9          9          9          9          9          9          9          9          9          9          9          9          9          9          9          9          9          9          9          9          9          9          9          9          9          9          9          9          9          9          9          9          9          9          9          9          9          9          9          9          9          9          9          9          9          9          9          9          9          9          9          9          9          9          9          9          9          9          9          9          9          9          9          9          9          9          9          9          9          9          9          9          9          9          9          9          9          9          9          9          9          9          9          9          9          9          9          9          9          9          9          9          9          9          9          9          9          9          9          9          9          9          9          9          9          9          9          9          9          9          9          9          9          9          9          9          9          9          9          9          9          9          9          9          9          9          9          9          9          9          9          9          9          9          9          9          9          9          9          9          9          9          9          9          9          9          9          9          9          9          9          9          9          9          9          9          9          9          9          9          9          9          9          9          9          9          9          9          9          9          9          9          9          9          9          9          9          9          9          9          9          9          9          9          9          9          9          9          9          9          9          9          9          9          9          9          9          9          9          9          9          9          9          9          9          9          9          9          9          9          9          9          9          9          9          9          9          9          9          9          9          9          9          9          9          9          9          9          9          9          9          9          9          9          9          9          9          9          9          9          9          9          9          9          9          9          9          9          9          9          9          9          9          9          9          9          9          9          9          9          9          9          9          9          9          9          9          9          9          9          9          9          9          9          9          9          9          9          9          9          9          9          9          9          9          9          9          9          9          9          9          9          9          9          9          9          9          9          9          9          9          9          9          9          9          9          9          9          9          9          9          9          9          9          9          9          9          9          9          9          9          9          9          9          9          9          9          9          9          9          9          9          9          9          9          9          9          9          9          9          9          9          9          9          9          9          9          9          9          9          9          9          9          9          9          9          9          9          9          9          9          9          9          9          9          9          9          9          9          9          9          9          9          9          9          9          9          9          9          9          9          9          9          9          9          9          9          9          9          9          9          9          9          9          9          9          9          9          9          9          9          9          9          9          9          9          9          9          9          9          9          9          9          9          9          9          9          9          9          9          9          9          9          9          9          9          9          9          9          9          9          9          9          9          9          9          9          9          9          9          9          9          9          9          9          9          9          9          9          9          9          9          9          9          9          9          9          9          9          9          9          9          9          9          9          9          9          9          9          9          9          9          9          9          9          9          9          9          9          9          9          9          9          9          9          9          9 </DataArray>
</Cells>
<CellData>
<DataArray type="Int32"                                    Name="material"                                                      NumberOfComponents=" 1" format="ascii">
         1          1          1          1          1          1          1          1          1          1          1          1          1          1          1          1          1          1          1          1          1          1          1          1          1          1          1          1          1          1          1          1          1          1          1          1          1          1          1          1          1          1          1          1          1          1          1          1          1          1          1          1          1          1          1          1          1          1          1          1          1          1          1          1          1          1          1          1          1          1          1          1          1          1          1          1          1          1          1          1          1          1          1          1          1          1          1          1          1          1          1          1          1          1          1          1          1          1          1          1          1          1          1          1          1          1          1          1          1          1          1          1          1          1          1          1          1          1          1          1          1          1          1          1          1          1          1          1          1          1          1          1          1          1          1          1          1          1          1          1          1          1          1          1          1          1          1          1          1          1          1          1          1          1          1          1          1          1          1          1          1          1          1          1          1          1          1          1          1          1          1          1          1          1          1          1          1          1          1          1          1          1          1          1          1          1          1          1          1          1          1          1          1          1          1          1          1          1          1          1          1          1          1          1          1          1          1          1          1          1          1          1          1          1          1          1          1          1          1          1          1          1          1          1          1          1          1          1          1          1          1          1          1          1          1          1          1          1          1          1          1          1          1          1          1          1          1          1          1          1          1          1          1          1          1          1          1          1          1          1          1          1          1          1          1          1          1          1          1          1          1          1          1          1          1          1          1          1          1          1          1          1          1          1          1          1          1          1          1          1          1          1          1          1          1          1          1          1          1          1          1          1          1          1          1          1          1          1          1          1          1          1          1          1          1          1          1          1          1          1          1          1          1          1          1          1          1          1          1          1          1          1          1          1          1          1          1          1          1          1          1          1          1          1          1          1          1          1          1          1          1          1          1          1          1          1          1          1          1          1          1          1          1          1          1          1          1          1          1          1          1          1          1          1          1          1          1          1          1          1          1          1          1          1          1          1          1          1          1          1          1          1          1          1          1          1          1          1          1          1          1          1          1          1          1          1          1          1          1          1          1          1          1          1          1          1          1          1          1          1          1          1          1          1          1          1          1          1          1          1          1          1          1          1          1          1          1          1          1          1          1          1          1          1          1          1          1          1          1          1          1          1          1          1          1          1          1          1          1          1          1          1          1          1          1          1          1          1          1          1          1          1          1          1          1          1          1          1          1          1          1          1          1          1          1          1          1          1          1          1          1          1          1          1          1          1          1          1          1          1          1          1          1          1          1          1          1          1          1          1          1          1          1          1          1          1          1          1          1          1          1          1          1          1          1          1          1          1          1          1          1          1          1          1          1          1          1          1          1          1          1          1          1          1          1          1          1          1          1          1          1          1          1          1          1          1          1          1          1          1          1          1          1          1          1          1          1          1          1          1          1          1          1          1          1          1          1          1          1          1          1          1          1          1          1          1          1          1          1          1          1          1          1          1          1          1          1          1          1          1          1          1          1          1          1          1          1          1          1          1          1          1          1          1          1          1          1          1          1          1          1          1          1          1          1          1          1          1          1          1          1          1          1          1          1          1          1          1          1          1          1          1          1          1          1          1          1          1          1          1          1          1          1          1          1          1          1          1          1          1          1          1          1          1          1          1          1          1          1          1          1          1          1          1          1          1          1          1          1          1          1          1          1          1          1          1          1          1          1          1          1          1          1          1          1          1          1          1          1          1          1          1          1          1          1          1          1          1          1          1          1          1          1          1          1          1          1          1          1          1          1          1          1          1          1          1          1          1          1          1          1          1          1          1          1          1          1          1          1          1          1          1          1          1          1          1          1          1          1          1          1          1          1          1          1          1          1          1          1          1          1          1          1          1          1          1          1          1          1          1          1          1          1          1          1          1          1          1          1          1          1          1          1          1          1          1          1          1          1          1          1          1          1          1          1          1          1          1          1          1          1          1          1          1          1          1          1          1          1          1          1          1          1          1          1          1          1          1          1          1          1          1          1          1          1          1          1          1          1          1          1          1          1          1          1          1          1          1          1          1          1          1          1          1          1          1          1          1          1          1          1          1          1          1          1          1          1          1          1          1          1          1          1          1          1          1          1          1          1          1          1          1          1          1          1          1          1          1          1          1          1          1          1          1          1          1          1          1          1          1          1          1          1          1          1          1          1          1          1          1          1          1          1          1          1          1          1          1          1          1          1          1          1          1          1          1          1          1          1          1          1          1          1          1          1          1          1          1          1          1          1          1          1          1          1          1          1          1          1          1          1          1          1          1          1          1          1          1          1          1          1          1          1          1          1          1          1          1          1          1          1          1          1          1          1          1          1          1          1          1          1          1          1          1          1          1          1          1          1          1          1          1          1          1          1          1          1          1          1          1          1          1          1          1          1          1          1          1          1          1          1          1          1          1          1          1          1          1          1          1          1          1          1          1          1          1          1          1          1          1          1          1          1          1 </DataArray>
</CellData>
<PointData>
<DataArray type="Float64"                                    Name="u"                                                      NumberOfComponents=" 3" format="ascii">
             -0.000913632              -0.000000000               0.999999987              -0.000961103              -0.000000000               0.999999987              -0.000980367               0.000000000               0.999999987              -0.000990312               0.000000000               0.999999987              -0.000997900               0.000000000               0.999999987              -0.001005476              -0.000000000               0.999999987              -0.001013898               0.000000000               0.999999987              -0.001023391               0.000000000               0.999999987              -0.001033805              -0.000000000               0.999999987              -0.001044818              -0.000000000               0.999999987              -0.001056024               0.000000000               0.999999987              -0.001066978               0.000000000               0.999999987              -0.001077336              -0.000000000               0.999999987              -0.001086660               0.000000000               0.999999987              -0.001094213              -0.000000000               0.999999987              -0.001099341              -0.000000000               0.999999987              -0.001101136              -0.000000000               0.999999987              -0.000908441               0.000125278               0.999999987              -0.000951708               0.000098510               0.999999987              -0.000968291               0.000086067               0.999999987              -0.000976546               0.000080495               0.999999987              -0.000982955               0.000078281               0.999999987              -0.000989591               0.000077792               0.999999987              -0.000997219               0.000077813               0.999999987              -0.001005860               0.000077595               0.999999987              -0.001015196               0.000076783               0.999999987              -0.001024886               0.000074822               0.999999987              -0.001034468               0.000071415               0.999999987              -0.001043590               0.000066421               0.999999987              -0.001051870               0.000059410               0.999999987              -0.001058833               0.000049886               0.999999987              -0.001063913               0.000037117               0.999999987              -0.001066451               0.000020186               0.999999987              -0.001065721              -0.000002095               0.999999987              -0.000893194               0.000249386               0.999999987              -0.000924239               0.000196744               0.999999987              -0.000933262               0.000173140               0.999999987              -0.000936780               0.000163127               0.999999987              -0.000940005               0.000159604               0.999999987              -0.000944247               0.000159147               0.999999987              -0.000949618               0.000159592               0.999999987              -0.000955675               0.000159402               0.999999987              -0.000961928               0.000157685               0.999999987              -0.000967924               0.000153731               0.999999987              -0.000973185               0.000147023               0.999999987              -0.000977369               0.000137395               0.999999987              -0.000980057               0.000123810               0.999999987              -0.000980784               0.000105458               0.999999987              -0.000979049               0.000081501               0.999999987              -0.000974536               0.000050760               0.999999987              -0.000967116               0.000011772               0.999999987              -0.000868174               0.000371200               0.999999987              -0.000879947               0.000294507               0.999999987              -0.000878075               0.000262131               0.999999987              -0.000875286               0.000249618               0.999999987              -0.000874284               0.000246209               0.999999987              -0.000875251               0.000246690               0.999999987              -0.000877392               0.000247914               0.999999987              -0.000879741               0.000247760               0.999999987              -0.000881522               0.000245076               0.999999987              -0.000882211               0.000239184               0.999999987              -0.000881277               0.000229329               0.999999987              -0.000878258               0.000215217               0.999999987              -0.000872818               0.000195910               0.999999987              -0.000864578               0.000170414               0.999999987              -0.000853415               0.000138018               0.999999987              -0.000839496               0.000098079               0.999999987              -0.000823232               0.000050110               0.999999987              -0.000833734               0.000489650               0.999999987              -0.000821044               0.000391881               0.999999987              -0.000806987               0.000353784               0.999999987              -0.000797754               0.000340978               0.999999987              -0.000792869               0.000338969               0.999999987              -0.000790605               0.000340999               0.999999987              -0.000789054               0.000343165               0.999999987              -0.000787013               0.000343052               0.999999987              -0.000783438               0.000339448               0.999999987              -0.000777689               0.000331535               0.999999987              -0.000769090               0.000318748               0.999999987              -0.000757273               0.000300621               0.999999987              -0.000741963               0.000276606               0.999999987              -0.000723333               0.000245922               0.999999987              -0.000701665               0.000208421               0.999999987              -0.000677559               0.000164479               0.999999987              -0.000652102               0.000114834               0.999999987              -0.000790562               0.000603684               0.999999987              -0.000750518               0.000489127               0.999999987              -0.000725206               0.000448331               0.999999987              -0.000711086               0.000436937               0.999999987              -0.000703474               0.000437112               0.999999987              -0.000698456               0.000440861               0.999999987              -0.000693325               0.000443901               0.999999987              -0.000686487               0.000443771               0.999999987              -0.000676832               0.000439231               0.999999987              -0.000663582               0.000429435               0.999999987              -0.000646228               0.000413763               0.999999987              -0.000624638               0.000392002               0.999999987              -0.000599055               0.000364186               0.999999987              -0.000569935               0.000330343               0.999999987              -0.000538082               0.000290617               0.999999987              -0.000504476               0.000246277               0.999999987              -0.000470166               0.000199147               0.999999987              -0.000739724               0.000712148               0.999999987              -0.000672068               0.000586169               0.999999987              -0.000638214               0.000545300               0.999999987              -0.000621582               0.000536348               0.999999987              -0.000612545               0.000538990               0.999999987              -0.000605395               0.000544291               0.999999987              -0.000596661               0.000547879               0.999999987              -0.000584595               0.000547668               0.999999987              -0.000568162               0.000542043               0.999999987              -0.000546612               0.000530196               0.999999987              -0.000520028               0.000511854               0.999999987              -0.000488439               0.000486977               0.999999987              -0.000452497               0.000456563               0.999999987              -0.000412964               0.000420898               0.999999987              -0.000370933               0.000380995               0.999999987              -0.000327506               0.000338507               0.999999987              -0.000283676               0.000295151               0.999999987              -0.000682299               0.000813922               0.999999987              -0.000589510               0.000682667               0.999999987              -0.000550908               0.000643619               0.999999987              -0.000534411               0.000637233               0.999999987              -0.000525186               0.000642014               0.999999987              -0.000516091               0.000648568               0.999999987              -0.000503452               0.000652687               0.999999987              -0.000485663               0.000652132               0.999999987              -0.000461597               0.000645197               0.999999987              -0.000431039               0.000631390               0.999999987              -0.000394197               0.000610677               0.999999987              -0.000351623               0.000583671               0.999999987              -0.000304333               0.000551632               0.999999987              -0.000253404               0.000515753               0.999999987              -0.000200253               0.000477391               0.999999987              -0.000146218               0.000438233               0.999999987              -0.000092205               0.000399287               0.999999987              -0.000620167               0.000907102               0.999999987              -0.000505592               0.000778549               0.999999987              -0.000467540               0.000741797               0.999999987              -0.000453217               0.000737272               0.999999987              -0.000444465               0.000743684               0.999999987              -0.000433293               0.000751329               0.999999987              -0.000416410               0.000755850               0.999999987              -0.000392027               0.000754602               0.999999987              -0.000359278               0.000746285               0.999999987              -0.000318370               0.000730656               0.999999987              -0.000269858               0.000707953               0.999999987              -0.000214935               0.000679540               0.999999987              -0.000154816               0.000647249               0.999999987              -0.000091327               0.000612948               0.999999987              -0.000026533               0.000578076               0.999999987               0.000038202               0.000543929               0.999999987               0.000102560               0.000510794               0.999999987              -0.000555782               0.000995506               0.999999987              -0.000434977               0.000886562               0.999999987              -0.000394788               0.000846915               0.999999987              -0.000380319               0.000838364               0.999999987              -0.000372826               0.000842650               0.999999987              -0.000364223               0.000850917               0.999999987              -0.000350973               0.000858618               0.999999987              -0.000331065               0.000863051               0.999999987              -0.000303493               0.000862667               0.999999987              -0.000268210               0.000856658               0.999999987              -0.000225424               0.000844738               0.999999987              -0.000175529               0.000827388               0.999999987              -0.000119193               0.000805782               0.999999987              -0.000057732               0.000781427               0.999999987               0.000007005               0.000756064               0.999999987               0.000073170               0.000730941               0.999999987               0.000139219               0.000707021               0.999999987              -0.000485702               0.001076294               0.999999987              -0.000366751               0.000991250               0.999999987              -0.000324652               0.000954812               0.999999987              -0.000309269               0.000944474               0.999999987              -0.000302190               0.000947505               0.999999987              -0.000295404               0.000956379               0.999999987              -0.000285212               0.000966849               0.999999987              -0.000269309               0.000976196               0.999999987              -0.000246490               0.000982772               0.999999987              -0.000216623               0.000985586               0.999999987              -0.000179804               0.000983723               0.999999987              -0.000135829               0.000977139               0.999999987              -0.000084561               0.000966273               0.999999987              -0.000026642               0.000952197               0.999999987               0.000036578               0.000936121               0.999999987               0.000103150               0.000919530               0.999999987               0.000171309               0.000903635               0.999999987              -0.000411387               0.001147311               0.999999987              -0.000300982               0.001089431               0.999999987              -0.000258798               0.001060525               0.999999987              -0.000242367               0.001051535               0.999999987              -0.000235022               0.001054810               0.999999987              -0.000229310               0.001064750               0.999999987              -0.000221404               0.001077840               0.999999987              -0.000208888               0.001091698               0.999999987              -0.000190471               0.001104419               0.999999987              -0.000165815               0.001114955               0.999999987              -0.000134935               0.001122564               0.999999987              -0.000097283               0.001126475               0.999999987              -0.000052429               0.001126536               0.999999987               0.000000099               0.001123228               0.999999987               0.000059788               0.001117347               0.999999987               0.000125314               0.001109981               0.999999987               0.000195112               0.001102323               0.999999987              -0.000333458               0.001207233               0.999999987              -0.000237723               0.001176998               0.999999987              -0.000198171               0.001158729               0.999999987              -0.000181453               0.001153786               0.999999987              -0.000173679               0.001159096               0.999999987              -0.000168431               0.001171076               0.999999987              -0.000162110               0.001187047               0.999999987              -0.000152560               0.001204938               0.999999987              -0.000138162               0.001223272               0.999999987              -0.000118567               0.001240768               0.999999987              -0.000093581               0.001256637               0.999999987              -0.000062678               0.001270141               0.999999987              -0.000025100               0.001280850               0.999999987               0.000020120               0.001288521               0.999999987               0.000073492               0.001293471               0.999999987               0.000134713               0.001296261               0.999999987               0.000203552               0.001297851               0.999999987              -0.000252611               0.001254895               0.999999987              -0.000176631               0.001249777               0.999999987              -0.000142897               0.001243530               0.999999987              -0.000127469               0.001244487               0.999999987              -0.000119891               0.001253123               0.999999987              -0.000115075               0.001267842               0.999999987              -0.000110092               0.001286932               0.999999987              -0.000102926               0.001308912               0.999999987              -0.000092199               0.001332329               0.999999987              -0.000077427               0.001356035               0.999999987              -0.000058479               0.001379100               0.999999987              -0.000034876               0.001400991               0.999999987              -0.000005496               0.001421175               0.999999987               0.000030668               0.001439109               0.999999987               0.000074737               0.001454661               0.999999987               0.000127573               0.001467992               0.999999987               0.000189758               0.001479386               0.999999987              -0.000169623               0.001289395               0.999999987              -0.000117046               0.001304248               0.999999987              -0.000092334               0.001309043               0.999999987              -0.000080368               0.001316267               0.999999987              -0.000074103               0.001328771               0.999999987              -0.000070216               0.001346477               0.999999987              -0.000066438               0.001368488               0.999999987              -0.000061662               0.001393866               0.999999987              -0.000054556               0.001421421               0.999999987              -0.000044697               0.001450150               0.999999987              -0.000031834               0.001479253               0.999999987              -0.000015756               0.001508052               0.999999987               0.000004276               0.001536031               0.999999987               0.000029510               0.001562636               0.999999987               0.000061275               0.001587340               0.999999987               0.000100761               0.001609995               0.999999987               0.000149217               0.001630461               0.999999987              -0.000085188               0.001310249               0.999999987              -0.000058330               0.001337915               0.999999987              -0.000045251               0.001350407               0.999999987              -0.000038720               0.001362381               0.999999987              -0.000035156               0.001378003               0.999999987              -0.000032904               0.001398096               0.999999987              -0.000030838               0.001422292               0.999999987              -0.000028351               0.001449867               0.999999987              -0.000024895               0.001480109               0.999999987              -0.000020027               0.001512146               0.999999987              -0.000013446               0.001545290               0.999999987              -0.000005293               0.001578862               0.999999987               0.000004759               0.001612238               0.999999987               0.000017791               0.001644965               0.999999987               0.000034500               0.001676420               0.999999987               0.000055873               0.001706074               0.999999987               0.000083142               0.001733260               0.999999987               0.000000000               0.001317211               0.999999987               0.000000000               0.001349312               0.999999987               0.000000000               0.001364567               0.999999987               0.000000000               0.001378241               0.999999987               0.000000000               0.001395137               0.999999987               0.000000000               0.001416219               0.999999987               0.000000000               0.001441111               0.999999987               0.000000000               0.001469335               0.999999987               0.000000000               0.001500527               0.999999987              -0.000000000               0.001533830               0.999999987              -0.000000000               0.001568396               0.999999987               0.000000000               0.001603633               0.999999987              -0.000000000               0.001639022               0.999999987              -0.000000000               0.001674161               0.999999987              -0.000000000               0.001708340               0.999999987               0.000000000               0.001740797               0.999999987               0.000000000               0.001770591               0.999999987              -0.000913632              -0.000000000               0.999999987              -0.000961103              -0.000000000               0.999999987              -0.000980367               0.000000000               0.999999987              -0.000990312               0.000000000               0.999999987              -0.000997900               0.000000000               0.999999987              -0.001005476              -0.000000000               0.999999987              -0.001013898               0.000000000               0.999999987              -0.001023391               0.000000000               0.999999987              -0.001033805              -0.000000000               0.999999987              -0.001044818              -0.000000000               0.999999987              -0.001056024               0.000000000               0.999999987              -0.001066978               0.000000000               0.999999987              -0.001077336              -0.000000000               0.999999987              -0.001086660               0.000000000               0.999999987              -0.001094213              -0.000000000               0.999999987              -0.001099341              -0.000000000               0.999999987              -0.001101136              -0.000000000               0.999999987              -0.000908441              -0.000125278               0.999999987              -0.000951708              -0.000098510               0.999999987              -0.000968291              -0.000086067               0.999999987              -0.000976546              -0.000080495               0.999999987              -0.000982955              -0.000078281               0.999999987              -0.000989591              -0.000077792               0.999999987              -0.000997219              -0.000077813               0.999999987              -0.001005860              -0.000077595               0.999999987              -0.001015196              -0.000076783               0.999999987              -0.001024886              -0.000074822               0.999999987              -0.001034468              -0.000071415               0.999999987              -0.001043590              -0.000066421               0.999999987              -0.001051870              -0.000059410               0.999999987              -0.001058833              -0.000049886               0.999999987              -0.001063913              -0.000037117               0.999999987              -0.001066451              -0.000020186               0.999999987              -0.001065721               0.000002095               0.999999987              -0.000893194              -0.000249386               0.999999987              -0.000924239              -0.000196744               0.999999987              -0.000933262              -0.000173140               0.999999987              -0.000936780              -0.000163127               0.999999987              -0.000940005              -0.000159604               0.999999987              -0.000944247              -0.000159147               0.999999987              -0.000949618              -0.000159592               0.999999987              -0.000955675              -0.000159402               0.999999987              -0.000961928              -0.000157685               0.999999987              -0.000967924              -0.000153731               0.999999987              -0.000973185              -0.000147023               0.999999987              -0.000977369              -0.000137395               0.999999987              -0.000980057              -0.000123810               0.999999987              -0.000980784              -0.000105458               0.999999987              -0.000979049              -0.000081501               0.999999987              -0.000974536              -0.000050760               0.999999987              -0.000967116              -0.000011772               0.999999987              -0.000868174              -0.000371200               0.999999987              -0.000879947              -0.000294507               0.999999987              -0.000878075              -0.000262131               0.999999987              -0.000875286              -0.000249618               0.999999987              -0.000874284              -0.000246209               0.999999987              -0.000875251              -0.000246690               0.999999987              -0.000877392              -0.000247914               0.999999987              -0.000879741              -0.000247760               0.999999987              -0.000881522              -0.000245076               0.999999987              -0.000882211              -0.000239184               0.999999987              -0.000881277              -0.000229329               0.999999987              -0.000878258              -0.000215217               0.999999987              -0.000872818              -0.000195910               0.999999987              -0.000864578              -0.000170414               0.999999987              -0.000853415              -0.000138018               0.999999987              -0.000839496              -0.000098079               0.999999987              -0.000823232              -0.000050110               0.999999987              -0.000833734              -0.000489650               0.999999987              -0.000821044              -0.000391881               0.999999987              -0.000806987              -0.000353784               0.999999987              -0.000797754              -0.000340978               0.999999987              -0.000792869              -0.000338969               0.999999987              -0.000790605              -0.000340999               0.999999987              -0.000789054              -0.000343165               0.999999987              -0.000787013              -0.000343052               0.999999987              -0.000783438              -0.000339448               0.999999987              -0.000777689              -0.000331535               0.999999987              -0.000769090              -0.000318748               0.999999987              -0.000757273              -0.000300621               0.999999987              -0.000741963              -0.000276606               0.999999987              -0.000723333              -0.000245922               0.999999987              -0.000701665              -0.000208421               0.999999987              -0.000677559              -0.000164479               0.999999987              -0.000652102              -0.000114834               0.999999987              -0.000790562              -0.000603684               0.999999987              -0.000750518              -0.000489127               0.999999987              -0.000725206              -0.000448331               0.999999987              -0.000711086              -0.000436937               0.999999987              -0.000703474              -0.000437112               0.999999987              -0.000698456              -0.000440861               0.999999987              -0.000693325              -0.000443901               0.999999987              -0.000686487              -0.000443771               0.999999987              -0.000676832              -0.000439231               0.999999987              -0.000663582              -0.000429435               0.999999987              -0.000646228              -0.000413763               0.999999987              -0.000624638              -0.000392002               0.999999987              -0.000599055              -0.000364186               0.999999987              -0.000569935              -0.000330343               0.999999987              -0.000538082              -0.000290617               0.999999987              -0.000504476              -0.000246277               0.999999987              -0.000470166              -0.000199147               0.999999987              -0.000739724              -0.000712148               0.999999987              -0.000672068              -0.000586169               0.999999987              -0.000638214              -0.000545300               0.999999987              -0.000621582              -0.000536348               0.999999987              -0.000612545              -0.000538990               0.999999987              -0.000605395              -0.000544291               0.999999987              -0.000596661              -0.000547879               0.999999987              -0.000584595              -0.000547668               0.999999987              -0.000568162              -0.000542043               0.999999987              -0.000546612              -0.000530196               0.999999987              -0.000520028              -0.000511854               0.999999987              -0.000488439              -0.000486977               0.999999987              -0.000452497              -0.000456563               0.999999987              -0.000412964              -0.000420898               0.999999987              -0.000370933              -0.000380995               0.999999987              -0.000327506              -0.000338507               0.999999987              -0.000283676              -0.000295151               0.999999987              -0.000682299              -0.000813922               0.999999987              -0.000589510              -0.000682667               0.999999987              -0.000550908              -0.000643619               0.999999987              -0.000534411              -0.000637233               0.999999987              -0.000525186              -0.000642014               0.999999987              -0.000516091              -0.000648568               0.999999987              -0.000503452              -0.000652687               0.999999987              -0.000485663              -0.000652132               0.999999987              -0.000461597              -0.000645197               0.999999987              -0.000431039              -0.000631390               0.999999987              -0.000394197              -0.000610677               0.999999987              -0.000351623              -0.000583671               0.999999987              -0.000304333              -0.000551632               0.999999987              -0.000253404              -0.000515753               0.999999987              -0.000200253              -0.000477391               0.999999987              -0.000146218              -0.000438233               0.999999987              -0.000092205              -0.000399287               0.999999987              -0.000620167              -0.000907102               0.999999987              -0.000505592              -0.000778549               0.999999987              -0.000467540              -0.000741797               0.999999987              -0.000453217              -0.000737272               0.999999987              -0.000444465              -0.000743684               0.999999987              -0.000433293              -0.000751329               0.999999987              -0.000416410              -0.000755850               0.999999987              -0.000392027              -0.000754602               0.999999987              -0.000359278              -0.000746285               0.999999987              -0.000318370              -0.000730656               0.999999987              -0.000269858              -0.000707953               0.999999987              -0.000214935              -0.000679540               0.999999987              -0.000154816              -0.000647249               0.999999987              -0.000091327              -0.000612948               0.999999987              -0.000026533              -0.000578076               0.999999987               0.000038202              -0.000543929               0.999999987               0.000102560              -0.000510794               0.999999987              -0.000555782              -0.000995506               0.999999987              -0.000434977              -0.000886562               0.999999987              -0.000394788              -0.000846915               0.999999987              -0.000380319              -0.000838364               0.999999987              -0.000372826              -0.000842650               0.999999987              -0.000364223              -0.000850917               0.999999987              -0.000350973              -0.000858618               0.999999987              -0.000331065              -0.000863051               0.999999987              -0.000303493              -0.000862667               0.999999987              -0.000268210              -0.000856658               0.999999987              -0.000225424              -0.000844738               0.999999987              -0.000175529              -0.000827388               0.999999987              -0.000119193              -0.000805782               0.999999987              -0.000057732              -0.000781427               0.999999987               0.000007005              -0.000756064               0.999999987               0.000073170              -0.000730941               0.999999987               0.000139219              -0.000707021               0.999999987              -0.000485702              -0.001076294               0.999999987              -0.000366751              -0.000991250               0.999999987              -0.000324652              -0.000954812               0.999999987              -0.000309269              -0.000944474               0.999999987              -0.000302190              -0.000947505               0.999999987              -0.000295404              -0.000956379               0.999999987              -0.000285212              -0.000966849               0.999999987              -0.000269309              -0.000976196               0.999999987              -0.000246490              -0.000982772               0.999999987              -0.000216623              -0.000985586               0.999999987              -0.000179804              -0.000983723               0.999999987              -0.000135829              -0.000977139               0.999999987              -0.000084561              -0.000966273               0.999999987              -0.000026642              -0.000952197               0.999999987               0.000036578              -0.000936121               0.999999987               0.000103150              -0.000919530               0.999999987               0.000171309              -0.000903635               0.999999987              -0.000411387              -0.001147311               0.999999987              -0.000300982              -0.001089431               0.999999987              -0.000258798              -0.001060525               0.999999987              -0.000242367              -0.001051535               0.999999987              -0.000235022              -0.001054810               0.999999987              -0.000229310              -0.001064750               0.999999987              -0.000221404              -0.001077840               0.999999987              -0.000208888              -0.001091698               0.999999987              -0.000190471              -0.001104419               0.999999987              -0.000165815              -0.001114955               0.999999987              -0.000134935              -0.001122564               0.999999987              -0.000097283              -0.001126475               0.999999987              -0.000052429              -0.001126536               0.999999987               0.000000099              -0.001123228               0.999999987               0.000059788              -0.001117347               0.999999987               0.000125314              -0.001109981               0.999999987               0.000195112              -0.001102323               0.999999987              -0.000333458              -0.001207233               0.999999987              -0.000237723              -0.001176998               0.999999987              -0.000198171              -0.001158729               0.999999987              -0.000181453              -0.001153786               0.999999987              -0.000173679              -0.001159096               0.999999987              -0.000168431              -0.001171076               0.999999987              -0.000162110              -0.001187047               0.999999987              -0.000152560              -0.001204938               0.999999987              -0.000138162              -0.001223272               0.999999987              -0.000118567              -0.001240768               0.999999987              -0.000093581              -0.001256637               0.999999987              -0.000062678              -0.001270141               0.999999987              -0.000025100              -0.001280850               0.999999987               0.000020120              -0.001288521               0.999999987               0.000073492              -0.001293471               0.999999987               0.000134713              -0.001296261               0.999999987               0.000203552              -0.001297851               0.999999987              -0.000252611              -0.001254895               0.999999987              -0.000176631              -0.001249777               0.999999987              -0.000142897              -0.001243530               0.999999987              -0.000127469              -0.001244487               0.999999987              -0.000119891              -0.001253123               0.999999987              -0.000115075              -0.001267842               0.999999987              -0.000110092              -0.001286932               0.999999987              -0.000102926              -0.001308912               0.999999987              -0.000092199              -0.001332329               0.999999987              -0.000077427              -0.001356035               0.999999987              -0.000058479              -0.001379100               0.999999987              -0.000034876              -0.001400991               0.999999987              -0.000005496              -0.001421175               0.999999987               0.000030668              -0.001439109               0.999999987               0.000074737              -0.001454661               0.999999987               0.000127573              -0.001467992               0.999999987               0.000189758              -0.001479386               0.999999987              -0.000169623              -0.001289395               0.999999987              -0.000117046              -0.001304248               0.999999987              -0.000092334              -0.001309043               0.999999987              -0.000080368              -0.001316267               0.999999987              -0.000074103              -0.001328771               0.999999987              -0.000070216              -0.001346477               0.999999987              -0.000066438              -0.001368488               0.999999987              -0.000061662              -0.001393866               0.999999987              -0.000054556              -0.001421421               0.999999987              -0.000044697              -0.001450150               0.999999987              -0.000031834              -0.001479253               0.999999987              -0.000015756              -0.001508052               0.999999987               0.000004276              -0.001536031               0.999999987               0.000029510              -0.001562636               0.999999987               0.000061275              -0.001587340               0.999999987               0.000100761              -0.001609995               0.999999987               0.000149217              -0.001630461               0.999999987              -0.000085188              -0.001310249               0.999999987              -0.000058330              -0.001337915               0.999999987              -0.000045251              -0.001350407               0.999999987              -0.000038720              -0.001362381               0.999999987              -0.000035156              -0.001378003               0.999999987              -0.000032904              -0.001398096               0.999999987              -0.000030838              -0.001422292               0.999999987              -0.000028351              -0.001449867               0.999999987              -0.000024895              -0.001480109               0.999999987              -0.000020027              -0.001512146               0.999999987              -0.000013446              -0.001545290               0.999999987              -0.000005293              -0.001578862               0.999999987               0.000004759              -0.001612238               0.999999987               0.000017791              -0.001644965               0.999999987               0.000034500              -0.001676420               0.999999987               0.000055873              -0.001706074               0.999999987               0.000083142              -0.001733260               0.999999987              -0.000000000              -0.001317211               0.999999987               0.000000000              -0.001349312               0.999999987               0.000000000              -0.001364567               0.999999987               0.000000000              -0.001378241               0.999999987              -0.000000000              -0.001395137               0.999999987               0.000000000              -0.001416219               0.999999987               0.000000000              -0.001441111               0.999999987               0.000000000              -0.001469335               0.999999987              -0.000000000              -0.001500527               0.999999987               0.000000000              -0.001533830               0.999999987              -0.000000000              -0.001568396               0.999999987               0.000000000              -0.001603633               0.999999987              -0.000000000              -0.001639022               0.999999987              -0.000000000              -0.001674161               0.999999987               0.000000000              -0.001708340               0.999999987               0.000000000              -0.001740797               0.999999987               0.000000000              -0.001770591               0.999999987               0.000913632               0.000000000               0.999999987               0.000961103              -0.000000000               0.999999987               0.000980367               0.000000000               0.999999987               0.000990312               0.000000000               0.999999987               0.000997900               0.000000000               0.999999987               0.001005476               0.000000000               0.999999987               0.001013898               0.000000000               0.999999987               0.001023391               0.000000000               0.999999987               0.001033805               0.000000000               0.999999987               0.001044818               0.000000000               0.999999987               0.001056024              -0.000000000               0.999999987               0.001066978              -0.000000000               0.999999987               0.001077336              -0.000000000               0.999999987               0.001086660               0.000000000               0.999999987               0.001094213               0.000000000               0.999999987               0.001099341              -0.000000000               0.999999987               0.001101136              -0.000000000               0.999999987               0.000908441              -0.000125278               0.999999987               0.000951708              -0.000098510               0.999999987               0.000968291              -0.000086067               0.999999987               0.000976546              -0.000080495               0.999999987               0.000982955              -0.000078281               0.999999987               0.000989591              -0.000077792               0.999999987               0.000997219              -0.000077813               0.999999987               0.001005860              -0.000077595               0.999999987               0.001015196              -0.000076783               0.999999987               0.001024886              -0.000074822               0.999999987               0.001034468              -0.000071415               0.999999987               0.001043590              -0.000066421               0.999999987               0.001051870              -0.000059410               0.999999987               0.001058833              -0.000049886               0.999999987               0.001063913              -0.000037117               0.999999987               0.001066451              -0.000020186               0.999999987               0.001065721               0.000002095               0.999999987               0.000893194              -0.000249386               0.999999987               0.000924239              -0.000196744               0.999999987               0.000933262              -0.000173140               0.999999987               0.000936780              -0.000163127               0.999999987               0.000940005              -0.000159604               0.999999987               0.000944247              -0.000159147               0.999999987               0.000949618              -0.000159592               0.999999987               0.000955675              -0.000159402               0.999999987               0.000961928              -0.000157685               0.999999987               0.000967924              -0.000153731               0.999999987               0.000973185              -0.000147023               0.999999987               0.000977369              -0.000137395               0.999999987               0.000980057              -0.000123810               0.999999987               0.000980784              -0.000105458               0.999999987               0.000979049              -0.000081501               0.999999987               0.000974536              -0.000050760               0.999999987               0.000967116              -0.000011772               0.999999987               0.000868174              -0.000371200               0.999999987               0.000879947              -0.000294507               0.999999987               0.000878075              -0.000262131               0.999999987               0.000875286              -0.000249618               0.999999987               0.000874284              -0.000246209               0.999999987               0.000875251              -0.000246690               0.999999987               0.000877392              -0.000247914               0.999999987               0.000879741              -0.000247760               0.999999987               0.000881522              -0.000245076               0.999999987               0.000882211              -0.000239184               0.999999987               0.000881277              -0.000229329               0.999999987               0.000878258              -0.000215217               0.999999987               0.000872818              -0.000195910               0.999999987               0.000864578              -0.000170414               0.999999987               0.000853415              -0.000138018               0.999999987               0.000839496              -0.000098079               0.999999987               0.000823232              -0.000050110               0.999999987               0.000833734              -0.000489650               0.999999987               0.000821044              -0.000391881               0.999999987               0.000806987              -0.000353784               0.999999987               0.000797754              -0.000340978               0.999999987               0.000792869              -0.000338969               0.999999987               0.000790605              -0.000340999               0.999999987               0.000789054              -0.000343165               0.999999987               0.000787013              -0.000343052               0.999999987               0.000783438              -0.000339448               0.999999987               0.000777689              -0.000331535               0.999999987               0.000769090              -0.000318748               0.999999987               0.000757273              -0.000300621               0.999999987               0.000741963              -0.000276606               0.999999987               0.000723333              -0.000245922               0.999999987               0.000701665              -0.000208421               0.999999987               0.000677559              -0.000164479               0.999999987               0.000652102              -0.000114834               0.999999987               0.000790562              -0.000603684               0.999999987               0.000750518              -0.000489127               0.999999987               0.000725206              -0.000448331               0.999999987               0.000711086              -0.000436937               0.999999987               0.000703474              -0.000437112               0.999999987               0.000698456              -0.000440861               0.999999987               0.000693325              -0.000443901               0.999999987               0.000686487              -0.000443771               0.999999987               0.000676832              -0.000439231               0.999999987               0.000663582              -0.000429435               0.999999987               0.000646228              -0.000413763               0.999999987               0.000624638              -0.000392002               0.999999987               0.000599055              -0.000364186               0.999999987               0.000569935              -0.000330343               0.999999987               0.000538082              -0.000290617               0.999999987               0.000504476              -0.000246277               0.999999987               0.000470166              -0.000199147               0.999999987               0.000739724              -0.000712148               0.999999987               0.000672068              -0.000586169               0.999999987               0.000638214              -0.000545300               0.999999987               0.000621582              -0.000536348               0.999999987               0.000612545              -0.000538990               0.999999987               0.000605395              -0.000544291               0.999999987               0.000596661              -0.000547879               0.999999987               0.000584595              -0.000547668               0.999999987               0.000568162              -0.000542043               0.999999987               0.000546612              -0.000530196               0.999999987               0.000520028              -0.000511854               0.999999987               0.000488439              -0.000486977               0.999999987               0.000452497              -0.000456563               0.999999987               0.000412964              -0.000420898               0.999999987               0.000370933              -0.000380995               0.999999987               0.000327506              -0.000338507               0.999999987               0.000283676              -0.000295151               0.999999987               0.000682299              -0.000813922               0.999999987               0.000589510              -0.000682667               0.999999987               0.000550908              -0.000643619               0.999999987               0.000534411              -0.000637233               0.999999987               0.000525186              -0.000642014               0.999999987               0.000516091              -0.000648568               0.999999987               0.000503452              -0.000652687               0.999999987               0.000485663              -0.000652132               0.999999987               0.000461597              -0.000645197               0.999999987               0.000431039              -0.000631390               0.999999987               0.000394197              -0.000610677               0.999999987               0.000351623              -0.000583671               0.999999987               0.000304333              -0.000551632               0.999999987               0.000253404              -0.000515753               0.999999987               0.000200253              -0.000477391               0.999999987               0.000146218              -0.000438233               0.999999987               0.000092205              -0.000399287               0.999999987               0.000620167              -0.000907102               0.999999987               0.000505592              -0.000778549               0.999999987               0.000467540              -0.000741797               0.999999987               0.000453217              -0.000737272               0.999999987               0.000444465              -0.000743684               0.999999987               0.000433293              -0.000751329               0.999999987               0.000416410              -0.000755850               0.999999987               0.000392027              -0.000754602               0.999999987               0.000359278              -0.000746285               0.999999987               0.000318370              -0.000730656               0.999999987               0.000269858              -0.000707953               0.999999987               0.000214935              -0.000679540               0.999999987               0.000154816              -0.000647249               0.999999987               0.000091327              -0.000612948               0.999999987               0.000026533              -0.000578076               0.999999987              -0.000038202              -0.000543929               0.999999987              -0.000102560              -0.000510794               0.999999987               0.000555782              -0.000995506               0.999999987               0.000434977              -0.000886562               0.999999987               0.000394788              -0.000846915               0.999999987               0.000380319              -0.000838364               0.999999987               0.000372826              -0.000842650               0.999999987               0.000364223              -0.000850917               0.999999987               0.000350973              -0.000858618               0.999999987               0.000331065              -0.000863051               0.999999987               0.000303493              -0.000862667               0.999999987               0.000268210              -0.000856658               0.999999987               0.000225424              -0.000844738               0.999999987               0.000175529              -0.000827388               0.999999987               0.000119193              -0.000805782               0.999999987               0.000057732              -0.000781427               0.999999987              -0.000007005              -0.000756064               0.999999987              -0.000073170              -0.000730941               0.999999987              -0.000139219              -0.000707021               0.999999987               0.000485702              -0.001076294               0.999999987               0.000366751              -0.000991250               0.999999987               0.000324652              -0.000954812               0.999999987               0.000309269              -0.000944474               0.999999987               0.000302190              -0.000947505               0.999999987               0.000295404              -0.000956379               0.999999987               0.000285212              -0.000966849               0.999999987               0.000269309              -0.000976196               0.999999987               0.000246490              -0.000982772               0.999999987               0.000216623              -0.000985586               0.999999987               0.000179804              -0.000983723               0.999999987               0.000135829              -0.000977139               0.999999987               0.000084561              -0.000966273               0.999999987               0.000026642              -0.000952197               0.999999987              -0.000036578              -0.000936121               0.999999987              -0.000103150              -0.000919530               0.999999987              -0.000171309              -0.000903635               0.999999987               0.000411387              -0.001147311               0.999999987               0.000300982              -0.001089431               0.999999987               0.000258798              -0.001060525               0.999999987               0.000242367              -0.001051535               0.999999987               0.000235022              -0.001054810               0.999999987               0.000229310              -0.001064750               0.999999987               0.000221404              -0.001077840               0.999999987               0.000208888              -0.001091698               0.999999987               0.000190471              -0.001104419               0.999999987               0.000165815              -0.001114955               0.999999987               0.000134935              -0.001122564               0.999999987               0.000097283              -0.001126475               0.999999987               0.000052429              -0.001126536               0.999999987              -0.000000099              -0.001123228               0.999999987              -0.000059788              -0.001117347               0.999999987              -0.000125314              -0.001109981               0.999999987              -0.000195112              -0.001102323               0.999999987               0.000333458              -0.001207233               0.999999987               0.000237723              -0.001176998               0.999999987               0.000198171              -0.001158729               0.999999987               0.000181453              -0.001153786               0.999999987               0.000173679              -0.001159096               0.999999987               0.000168431              -0.001171076               0.999999987               0.000162110              -0.001187047               0.999999987               0.000152560              -0.001204938               0.999999987               0.000138162              -0.001223272               0.999999987               0.000118567              -0.001240768               0.999999987               0.000093581              -0.001256637               0.999999987               0.000062678              -0.001270141               0.999999987               0.000025100              -0.001280850               0.999999987              -0.000020120              -0.001288521               0.999999987              -0.000073492              -0.001293471               0.999999987              -0.000134713              -0.001296261               0.999999987              -0.000203552              -0.001297851               0.999999987               0.000252611              -0.001254895               0.999999987               0.000176631              -0.001249777               0.999999987               0.000142897              -0.001243530               0.999999987               0.000127469              -0.001244487               0.999999987               0.000119891              -0.001253123               0.999999987               0.000115075              -0.001267842               0.999999987               0.000110092              -0.001286932               0.999999987               0.000102926              -0.001308912               0.999999987               0.000092199              -0.001332329               0.999999987               0.000077427              -0.001356035               0.999999987               0.000058479              -0.001379100               0.999999987               0.000034876              -0.001400991               0.999999987               0.000005496              -0.001421175               0.999999987              -0.000030668              -0.001439109               0.999999987              -0.000074737              -0.001454661               0.999999987              -0.000127573              -0.001467992               0.999999987              -0.000189758              -0.001479386               0.999999987               0.000169623              -0.001289395               0.999999987               0.000117046              -0.001304248               0.999999987               0.000092334              -0.001309043               0.999999987               0.000080368              -0.001316267               0.999999987               0.000074103              -0.001328771               0.999999987               0.000070216              -0.001346477               0.999999987               0.000066438              -0.001368488               0.999999987               0.000061662              -0.001393866               0.999999987               0.000054556              -0.001421421               0.999999987               0.000044697              -0.001450150               0.999999987               0.000031834              -0.001479253               0.999999987               0.000015756              -0.001508052               0.999999987              -0.000004276              -0.001536031               0.999999987              -0.000029510              -0.001562636               0.999999987              -0.000061275              -0.001587340               0.999999987              -0.000100761              -0.001609995               0.999999987              -0.000149217              -0.001630461               0.999999987               0.000085188              -0.001310249               0.999999987               0.000058330              -0.001337915               0.999999987               0.000045251              -0.001350407               0.999999987               0.000038720              -0.001362381               0.999999987               0.000035156              -0.001378003               0.999999987               0.000032904              -0.001398096               0.999999987               0.000030838              -0.001422292               0.999999987               0.000028351              -0.001449867               0.999999987               0.000024895              -0.001480109               0.999999987               0.000020027              -0.001512146               0.999999987               0.000013446              -0.001545290               0.999999987               0.000005293              -0.001578862               0.999999987              -0.000004759              -0.001612238               0.999999987              -0.000017791              -0.001644965               0.999999987              -0.000034500              -0.001676420               0.999999987              -0.000055873              -0.001706074               0.999999987              -0.000083142              -0.001733260               0.999999987              -0.000000000              -0.001317211               0.999999987               0.000000000              -0.001349312               0.999999987               0.000000000              -0.001364567               0.999999987               0.000000000              -0.001378241               0.999999987              -0.000000000              -0.001395137               0.999999987               0.000000000              -0.001416219               0.999999987               0.000000000              -0.001441111               0.999999987               0.000000000              -0.001469335               0.999999987              -0.000000000              -0.001500527               0.999999987               0.000000000              -0.001533830               0.999999987              -0.000000000              -0.001568396               0.999999987               0.000000000              -0.001603633               0.999999987              -0.000000000              -0.001639022               0.999999987              -0.000000000              -0.001674161               0.999999987               0.000000000              -0.001708340               0.999999987               0.000000000              -0.001740797               0.999999987               0.000000000              -0.001770591               0.999999987               0.000913632               0.000000000               0.999999987               0.000961103              -0.000000000               0.999999987               0.000980367               0.000000000               0.999999987               0.000990312               0.000000000               0.999999987               0.000997900               0.000000000               0.999999987               0.001005476               0.000000000               0.999999987               0.001013898               0.000000000               0.999999987               0.001023391               0.000000000               0.999999987               0.001033805               0.000000000               0.999999987               0.001044818               0.000000000               0.999999987               0.001056024              -0.000000000               0.999999987               0.001066978              -0.000000000               0.999999987               0.001077336              -0.000000000               0.999999987               0.001086660               0.000000000               0.999999987               0.001094213               0.000000000               0.999999987               0.001099341              -0.000000000               0.999999987               0.001101136              -0.000000000               0.999999987               0.000908441               0.000125278               0.999999987               0.000951708               0.000098510               0.999999987               0.000968291               0.000086067               0.999999987               0.000976546               0.000080495               0.999999987               0.000982955               0.000078281               0.999999987               0.000989591               0.000077792               0.999999987               0.000997219               0.000077813               0.999999987               0.001005860               0.000077595               0.999999987               0.001015196               0.000076783               0.999999987               0.001024886               0.000074822               0.999999987               0.001034468               0.000071415               0.999999987               0.001043590               0.000066421               0.999999987               0.001051870               0.000059410               0.999999987               0.001058833               0.000049886               0.999999987               0.001063913               0.000037117               0.999999987               0.001066451               0.000020186               0.999999987               0.001065721              -0.000002095               0.999999987               0.000893194               0.000249386               0.999999987               0.000924239               0.000196744               0.999999987               0.000933262               0.000173140               0.999999987               0.000936780               0.000163127               0.999999987               0.000940005               0.000159604               0.999999987               0.000944247               0.000159147               0.999999987               0.000949618               0.000159592               0.999999987               0.000955675               0.000159402               0.999999987               0.000961928               0.000157685               0.999999987               0.000967924               0.000153731               0.999999987               0.000973185               0.000147023               0.999999987               0.000977369               0.000137395               0.999999987               0.000980057               0.000123810               0.999999987               0.000980784               0.000105458               0.999999987               0.000979049               0.000081501               0.999999987               0.000974536               0.000050760               0.999999987               0.000967116               0.000011772               0.999999987               0.000868174               0.000371200               0.999999987               0.000879947               0.000294507               0.999999987               0.000878075               0.000262131               0.999999987               0.000875286               0.000249618               0.999999987               0.000874284               0.000246209               0.999999987               0.000875251               0.000246690               0.999999987               0.000877392               0.000247914               0.999999987               0.000879741               0.000247760               0.999999987               0.000881522               0.000245076               0.999999987               0.000882211               0.000239184               0.999999987               0.000881277               0.000229329               0.999999987               0.000878258               0.000215217               0.999999987               0.000872818               0.000195910               0.999999987               0.000864578               0.000170414               0.999999987               0.000853415               0.000138018               0.999999987               0.000839496               0.000098079               0.999999987               0.000823232               0.000050110               0.999999987               0.000833734               0.000489650               0.999999987               0.000821044               0.000391881               0.999999987               0.000806987               0.000353784               0.999999987               0.000797754               0.000340978               0.999999987               0.000792869               0.000338969               0.999999987               0.000790605               0.000340999               0.999999987               0.000789054               0.000343165               0.999999987               0.000787013               0.000343052               0.999999987               0.000783438               0.000339448               0.999999987               0.000777689               0.000331535               0.999999987               0.000769090               0.000318748               0.999999987               0.000757273               0.000300621               0.999999987               0.000741963               0.000276606               0.999999987               0.000723333               0.000245922               0.999999987               0.000701665               0.000208421               0.999999987               0.000677559               0.000164479               0.999999987               0.000652102               0.000114834               0.999999987               0.000790562               0.000603684               0.999999987               0.000750518               0.000489127               0.999999987               0.000725206               0.000448331               0.999999987               0.000711086               0.000436937               0.999999987               0.000703474               0.000437112               0.999999987               0.000698456               0.000440861               0.999999987               0.000693325               0.000443901               0.999999987               0.000686487               0.000443771               0.999999987               0.000676832               0.000439231               0.999999987               0.000663582               0.000429435               0.999999987               0.000646228               0.000413763               0.999999987               0.000624638               0.000392002               0.999999987               0.000599055               0.000364186               0.999999987               0.000569935               0.000330343               0.999999987               0.000538082               0.000290617               0.999999987               0.000504476               0.000246277               0.999999987               0.000470166               0.000199147               0.999999987               0.000739724               0.000712148               0.999999987               0.000672068               0.000586169               0.999999987               0.000638214               0.000545300               0.999999987               0.000621582               0.000536348               0.999999987               0.000612545               0.000538990               0.999999987               0.000605395               0.000544291               0.999999987               0.000596661               0.000547879               0.999999987               0.000584595               0.000547668               0.999999987               0.000568162               0.000542043               0.999999987               0.000546612               0.000530196               0.999999987               0.000520028               0.000511854               0.999999987               0.000488439               0.000486977               0.999999987               0.000452497               0.000456563               0.999999987               0.000412964               0.000420898               0.999999987               0.000370933               0.000380995               0.999999987               0.000327506               0.000338507               0.999999987               0.000283676               0.000295151               0.999999987               0.000682299               0.000813922               0.999999987               0.000589510               0.000682667               0.999999987               0.000550908               0.000643619               0.999999987               0.000534411               0.000637233               0.999999987               0.000525186               0.000642014               0.999999987               0.000516091               0.000648568               0.999999987               0.000503452               0.000652687               0.999999987               0.000485663               0.000652132               0.999999987               0.000461597               0.000645197               0.999999987               0.000431039               0.000631390               0.999999987               0.000394197               0.000610677               0.999999987               0.000351623               0.000583671               0.999999987               0.000304333               0.000551632               0.999999987               0.000253404               0.000515753               0.999999987               0.000200253               0.000477391               0.999999987               0.000146218               0.000438233               0.999999987               0.000092205               0.000399287               0.999999987               0.000620167               0.000907102               0.999999987               0.000505592               0.000778549               0.999999987               0.000467540               0.000741797               0.999999987               0.000453217               0.000737272               0.999999987               0.000444465               0.000743684               0.999999987               0.000433293               0.000751329               0.999999987               0.000416410               0.000755850               0.999999987               0.000392027               0.000754602               0.999999987               0.000359278               0.000746285               0.999999987               0.000318370               0.000730656               0.999999987               0.000269858               0.000707953               0.999999987               0.000214935               0.000679540               0.999999987               0.000154816               0.000647249               0.999999987               0.000091327               0.000612948               0.999999987               0.000026533               0.000578076               0.999999987              -0.000038202               0.000543929               0.999999987              -0.000102560               0.000510794               0.999999987               0.000555782               0.000995506               0.999999987               0.000434977               0.000886562               0.999999987               0.000394788               0.000846915               0.999999987               0.000380319               0.000838364               0.999999987               0.000372826               0.000842650               0.999999987               0.000364223               0.000850917               0.999999987               0.000350973               0.000858618               0.999999987               0.000331065               0.000863051               0.999999987               0.000303493               0.000862667               0.999999987               0.000268210               0.000856658               0.999999987               0.000225424               0.000844738               0.999999987               0.000175529               0.000827388               0.999999987               0.000119193               0.000805782               0.999999987               0.000057732               0.000781427               0.999999987              -0.000007005               0.000756064               0.999999987              -0.000073170               0.000730941               0.999999987              -0.000139219               0.000707021               0.999999987               0.000485702               0.001076294               0.999999987               0.000366751               0.000991250               0.999999987               0.000324652               0.000954812               0.999999987               0.000309269               0.000944474               0.999999987               0.000302190               0.000947505               0.999999987               0.000295404               0.000956379               0.999999987               0.000285212               0.000966849               0.999999987               0.000269309               0.000976196               0.999999987               0.000246490               0.000982772               0.999999987               0.000216623               0.000985586               0.999999987               0.000179804               0.000983723               0.999999987               0.000135829               0.000977139               0.999999987               0.000084561               0.000966273               0.999999987               0.000026642               0.000952197               0.999999987              -0.000036578               0.000936121               0.999999987              -0.000103150               0.000919530               0.999999987              -0.000171309               0.000903635               0.999999987               0.000411387               0.001147311               0.999999987               0.000300982               0.001089431               0.999999987               0.000258798               0.001060525               0.999999987               0.000242367               0.001051535               0.999999987               0.000235022               0.001054810               0.999999987               0.000229310               0.001064750               0.999999987               0.000221404               0.001077840               0.999999987               0.000208888               0.001091698               0.999999987               0.000190471               0.001104419               0.999999987               0.000165815               0.001114955               0.999999987               0.000134935               0.001122564               0.999999987               0.000097283               0.001126475               0.999999987               0.000052429               0.001126536               0.999999987              -0.000000099               0.001123228               0.999999987              -0.000059788               0.001117347               0.999999987              -0.000125314               0.001109981               0.999999987              -0.000195112               0.001102323               0.999999987               0.000333458               0.001207233               0.999999987               0.000237723               0.001176998               0.999999987               0.000198171               0.001158729               0.999999987               0.000181453               0.001153786               0.999999987               0.000173679               0.001159096               0.999999987               0.000168431               0.001171076               0.999999987               0.000162110               0.001187047               0.999999987               0.000152560               0.001204938               0.999999987               0.000138162               0.001223272               0.999999987               0.000118567               0.001240768               0.999999987               0.000093581               0.001256637               0.999999987               0.000062678               0.001270141               0.999999987               0.000025100               0.001280850               0.999999987              -0.000020120               0.001288521               0.999999987              -0.000073492               0.001293471               0.999999987              -0.000134713               0.001296261               0.999999987              -0.000203552               0.001297851               0.999999987               0.000252611               0.001254895               0.999999987               0.000176631               0.001249777               0.999999987               0.000142897               0.001243530               0.999999987               0.000127469               0.001244487               0.999999987               0.000119891               0.001253123               0.999999987               0.000115075               0.001267842               0.999999987               0.000110092               0.001286932               0.999999987               0.000102926               0.001308912               0.999999987               0.000092199               0.001332329               0.999999987               0.000077427               0.001356035               0.999999987               0.000058479               0.001379100               0.999999987               0.000034876               0.001400991               0.999999987               0.000005496               0.001421175               0.999999987              -0.000030668               0.001439109               0.999999987              -0.000074737               0.001454661               0.999999987              -0.000127573               0.001467992               0.999999987              -0.000189758               0.001479386               0.999999987               0.000169623               0.001289395               0.999999987               0.000117046               0.001304248               0.999999987               0.000092334               0.001309043               0.999999987               0.000080368               0.001316267               0.999999987               0.000074103               0.001328771               0.999999987               0.000070216               0.001346477               0.999999987               0.000066438               0.001368488               0.999999987               0.000061662               0.001393866               0.999999987               0.000054556               0.001421421               0.999999987               0.000044697               0.001450150               0.999999987               0.000031834               0.001479253               0.999999987               0.000015756               0.001508052               0.999999987              -0.000004276               0.001536031               0.999999987              -0.000029510               0.001562636               0.999999987              -0.000061275               0.001587340               0.999999987              -0.000100761               0.001609995               0.999999987              -0.000149217               0.001630461               0.999999987               0.000085188               0.001310249               0.999999987               0.000058330               0.001337915               0.999999987               0.000045251               0.001350407               0.999999987               0.000038720               0.001362381               0.999999987               0.000035156               0.001378003               0.999999987               0.000032904               0.001398096               0.999999987               0.000030838               0.001422292               0.999999987               0.000028351               0.001449867               0.999999987               0.000024895               0.001480109               0.999999987               0.000020027               0.001512146               0.999999987               0.000013446               0.001545290               0.999999987               0.000005293               0.001578862               0.999999987              -0.000004759               0.001612238               0.999999987              -0.000017791               0.001644965               0.999999987              -0.000034500               0.001676420               0.999999987              -0.000055873               0.001706074               0.999999987              -0.000083142               0.001733260               0.999999987               0.000000000               0.001317211               0.999999987               0.000000000               0.001349312               0.999999987               0.000000000               0.001364567               0.999999987               0.000000000               0.001378241               0.999999987               0.000000000               0.001395137               0.999999987               0.000000000               0.001416219               0.999999987               0.000000000               0.001441111               0.999999987               0.000000000               0.001469335               0.999999987               0.000000000               0.001500527               0.999999987              -0.000000000               0.001533830               0.999999987              -0.000000000               0.001568396               0.999999987               0.000000000               0.001603633               0.999999987              -0.000000000               0.001639022               0.999999987              -0.000000000               0.001674161               0.999999987              -0.000000000               0.001708340               0.999999987               0.000000000               0.001740797               0.999999987               0.000000000               0.001770591               0.999999987 </DataArray>
<DataArray type="Float64"                                    Name="defo"                                                      NumberOfComponents=" 3" format="ascii">
             -0.000913632              -0.000000000               0.999999987              -0.000961103              -0.000000000               0.999999987              -0.000980367               0.000000000               0.999999987              -0.000990312               0.000000000               0.999999987              -0.000997900               0.000000000               0.999999987              -0.001005476              -0.000000000               0.999999987              -0.001013898               0.000000000               0.999999987              -0.001023391               0.000000000               0.999999987              -0.001033805              -0.000000000               0.999999987              -0.001044818              -0.000000000               0.999999987              -0.001056024               0.000000000               0.999999987              -0.001066978               0.000000000               0.999999987              -0.001077336              -0.000000000               0.999999987              -0.001086660               0.000000000               0.999999987              -0.001094213              -0.000000000               0.999999987              -0.001099341              -0.000000000               0.999999987              -0.001101136              -0.000000000               0.999999987              -0.000908441               0.000125278               0.999999987              -0.000951708               0.000098510               0.999999987              -0.000968291               0.000086067               0.999999987              -0.000976546               0.000080495               0.999999987              -0.000982955               0.000078281               0.999999987              -0.000989591               0.000077792               0.999999987              -0.000997219               0.000077813               0.999999987              -0.001005860               0.000077595               0.999999987              -0.001015196               0.000076783               0.999999987              -0.001024886               0.000074822               0.999999987              -0.001034468               0.000071415               0.999999987              -0.001043590               0.000066421               0.999999987              -0.001051870               0.000059410               0.999999987              -0.001058833               0.000049886               0.999999987              -0.001063913               0.000037117               0.999999987              -0.001066451               0.000020186               0.999999987              -0.001065721              -0.000002095               0.999999987              -0.000893194               0.000249386               0.999999987              -0.000924239               0.000196744               0.999999987              -0.000933262               0.000173140               0.999999987              -0.000936780               0.000163127               0.999999987              -0.000940005               0.000159604               0.999999987              -0.000944247               0.000159147               0.999999987              -0.000949618               0.000159592               0.999999987              -0.000955675               0.000159402               0.999999987              -0.000961928               0.000157685               0.999999987              -0.000967924               0.000153731               0.999999987              -0.000973185               0.000147023               0.999999987              -0.000977369               0.000137395               0.999999987              -0.000980057               0.000123810               0.999999987              -0.000980784               0.000105458               0.999999987              -0.000979049               0.000081501               0.999999987              -0.000974536               0.000050760               0.999999987              -0.000967116               0.000011772               0.999999987              -0.000868174               0.000371200               0.999999987              -0.000879947               0.000294507               0.999999987              -0.000878075               0.000262131               0.999999987              -0.000875286               0.000249618               0.999999987              -0.000874284               0.000246209               0.999999987              -0.000875251               0.000246690               0.999999987              -0.000877392               0.000247914               0.999999987              -0.000879741               0.000247760               0.999999987              -0.000881522               0.000245076               0.999999987              -0.000882211               0.000239184               0.999999987              -0.000881277               0.000229329               0.999999987              -0.000878258               0.000215217               0.999999987              -0.000872818               0.000195910               0.999999987              -0.000864578               0.000170414               0.999999987              -0.000853415               0.000138018               0.999999987              -0.000839496               0.000098079               0.999999987              -0.000823232               0.000050110               0.999999987              -0.000833734               0.000489650               0.999999987              -0.000821044               0.000391881               0.999999987              -0.000806987               0.000353784               0.999999987              -0.000797754               0.000340978               0.999999987              -0.000792869               0.000338969               0.999999987              -0.000790605               0.000340999               0.999999987              -0.000789054               0.000343165               0.999999987              -0.000787013               0.000343052               0.999999987              -0.000783438               0.000339448               0.999999987              -0.000777689               0.000331535               0.999999987              -0.000769090               0.000318748               0.999999987              -0.000757273               0.000300621               0.999999987              -0.000741963               0.000276606               0.999999987              -0.000723333               0.000245922               0.999999987              -0.000701665               0.000208421               0.999999987              -0.000677559               0.000164479               0.999999987              -0.000652102               0.000114834               0.999999987              -0.000790562               0.000603684               0.999999987              -0.000750518               0.000489127               0.999999987              -0.000725206               0.000448331               0.999999987              -0.000711086               0.000436937               0.999999987              -0.000703474               0.000437112               0.999999987              -0.000698456               0.000440861               0.999999987              -0.000693325               0.000443901               0.999999987              -0.000686487               0.000443771               0.999999987              -0.000676832               0.000439231               0.999999987              -0.000663582               0.000429435               0.999999987              -0.000646228               0.000413763               0.999999987              -0.000624638               0.000392002               0.999999987              -0.000599055               0.000364186               0.999999987              -0.000569935               0.000330343               0.999999987              -0.000538082               0.000290617               0.999999987              -0.000504476               0.000246277               0.999999987              -0.000470166               0.000199147               0.999999987              -0.000739724               0.000712148               0.999999987              -0.000672068               0.000586169               0.999999987              -0.000638214               0.000545300               0.999999987              -0.000621582               0.000536348               0.999999987              -0.000612545               0.000538990               0.999999987              -0.000605395               0.000544291               0.999999987              -0.000596661               0.000547879               0.999999987              -0.000584595               0.000547668               0.999999987              -0.000568162               0.000542043               0.999999987              -0.000546612               0.000530196               0.999999987              -0.000520028               0.000511854               0.999999987              -0.000488439               0.000486977               0.999999987              -0.000452497               0.000456563               0.999999987              -0.000412964               0.000420898               0.999999987              -0.000370933               0.000380995               0.999999987              -0.000327506               0.000338507               0.999999987              -0.000283676               0.000295151               0.999999987              -0.000682299               0.000813922               0.999999987              -0.000589510               0.000682667               0.999999987              -0.000550908               0.000643619               0.999999987              -0.000534411               0.000637233               0.999999987              -0.000525186               0.000642014               0.999999987              -0.000516091               0.000648568               0.999999987              -0.000503452               0.000652687               0.999999987              -0.000485663               0.000652132               0.999999987              -0.000461597               0.000645197               0.999999987              -0.000431039               0.000631390               0.999999987              -0.000394197               0.000610677               0.999999987              -0.000351623               0.000583671               0.999999987              -0.000304333               0.000551632               0.999999987              -0.000253404               0.000515753               0.999999987              -0.000200253               0.000477391               0.999999987              -0.000146218               0.000438233               0.999999987              -0.000092205               0.000399287               0.999999987              -0.000620167               0.000907102               0.999999987              -0.000505592               0.000778549               0.999999987              -0.000467540               0.000741797               0.999999987              -0.000453217               0.000737272               0.999999987              -0.000444465               0.000743684               0.999999987              -0.000433293               0.000751329               0.999999987              -0.000416410               0.000755850               0.999999987              -0.000392027               0.000754602               0.999999987              -0.000359278               0.000746285               0.999999987              -0.000318370               0.000730656               0.999999987              -0.000269858               0.000707953               0.999999987              -0.000214935               0.000679540               0.999999987              -0.000154816               0.000647249               0.999999987              -0.000091327               0.000612948               0.999999987              -0.000026533               0.000578076               0.999999987               0.000038202               0.000543929               0.999999987               0.000102560               0.000510794               0.999999987              -0.000555782               0.000995506               0.999999987              -0.000434977               0.000886562               0.999999987              -0.000394788               0.000846915               0.999999987              -0.000380319               0.000838364               0.999999987              -0.000372826               0.000842650               0.999999987              -0.000364223               0.000850917               0.999999987              -0.000350973               0.000858618               0.999999987              -0.000331065               0.000863051               0.999999987              -0.000303493               0.000862667               0.999999987              -0.000268210               0.000856658               0.999999987              -0.000225424               0.000844738               0.999999987              -0.000175529               0.000827388               0.999999987              -0.000119193               0.000805782               0.999999987              -0.000057732               0.000781427               0.999999987               0.000007005               0.000756064               0.999999987               0.000073170               0.000730941               0.999999987               0.000139219               0.000707021               0.999999987              -0.000485702               0.001076294               0.999999987              -0.000366751               0.000991250               0.999999987              -0.000324652               0.000954812               0.999999987              -0.000309269               0.000944474               0.999999987              -0.000302190               0.000947505               0.999999987              -0.000295404               0.000956379               0.999999987              -0.000285212               0.000966849               0.999999987              -0.000269309               0.000976196               0.999999987              -0.000246490               0.000982772               0.999999987              -0.000216623               0.000985586               0.999999987              -0.000179804               0.000983723               0.999999987              -0.000135829               0.000977139               0.999999987              -0.000084561               0.000966273               0.999999987              -0.000026642               0.000952197               0.999999987               0.000036578               0.000936121               0.999999987               0.000103150               0.000919530               0.999999987               0.000171309               0.000903635               0.999999987              -0.000411387               0.001147311               0.999999987              -0.000300982               0.001089431               0.999999987              -0.000258798               0.001060525               0.999999987              -0.000242367               0.001051535               0.999999987              -0.000235022               0.001054810               0.999999987              -0.000229310               0.001064750               0.999999987              -0.000221404               0.001077840               0.999999987              -0.000208888               0.001091698               0.999999987              -0.000190471               0.001104419               0.999999987              -0.000165815               0.001114955               0.999999987              -0.000134935               0.001122564               0.999999987              -0.000097283               0.001126475               0.999999987              -0.000052429               0.001126536               0.999999987               0.000000099               0.001123228               0.999999987               0.000059788               0.001117347               0.999999987               0.000125314               0.001109981               0.999999987               0.000195112               0.001102323               0.999999987              -0.000333458               0.001207233               0.999999987              -0.000237723               0.001176998               0.999999987              -0.000198171               0.001158729               0.999999987              -0.000181453               0.001153786               0.999999987              -0.000173679               0.001159096               0.999999987              -0.000168431               0.001171076               0.999999987              -0.000162110               0.001187047               0.999999987              -0.000152560               0.001204938               0.999999987              -0.000138162               0.001223272               0.999999987              -0.000118567               0.001240768               0.999999987              -0.000093581               0.001256637               0.999999987              -0.000062678               0.001270141               0.999999987              -0.000025100               0.001280850               0.999999987               0.000020120               0.001288521               0.999999987               0.000073492               0.001293471               0.999999987               0.000134713               0.001296261               0.999999987               0.000203552               0.001297851               0.999999987              -0.000252611               0.001254895               0.999999987              -0.000176631               0.001249777               0.999999987              -0.000142897               0.001243530               0.999999987              -0.000127469               0.001244487               0.999999987              -0.000119891               0.001253123               0.999999987              -0.000115075               0.001267842               0.999999987              -0.000110092               0.001286932               0.999999987              -0.000102926               0.001308912               0.999999987              -0.000092199               0.001332329               0.999999987              -0.000077427               0.001356035               0.999999987              -0.000058479               0.001379100               0.999999987              -0.000034876               0.001400991               0.999999987              -0.000005496               0.001421175               0.999999987               0.000030668               0.001439109               0.999999987               0.000074737               0.001454661               0.999999987               0.000127573               0.001467992               0.999999987               0.000189758               0.001479386               0.999999987              -0.000169623               0.001289395               0.999999987              -0.000117046               0.001304248               0.999999987              -0.000092334               0.001309043               0.999999987              -0.000080368               0.001316267               0.999999987              -0.000074103               0.001328771               0.999999987              -0.000070216               0.001346477               0.999999987              -0.000066438               0.001368488               0.999999987              -0.000061662               0.001393866               0.999999987              -0.000054556               0.001421421               0.999999987              -0.000044697               0.001450150               0.999999987              -0.000031834               0.001479253               0.999999987              -0.000015756               0.001508052               0.999999987               0.000004276               0.001536031               0.999999987               0.000029510               0.001562636               0.999999987               0.000061275               0.001587340               0.999999987               0.000100761               0.001609995               0.999999987               0.000149217               0.001630461               0.999999987              -0.000085188               0.001310249               0.999999987              -0.000058330               0.001337915               0.999999987              -0.000045251               0.001350407               0.999999987              -0.000038720               0.001362381               0.999999987              -0.000035156               0.001378003               0.999999987              -0.000032904               0.001398096               0.999999987              -0.000030838               0.001422292               0.999999987              -0.000028351               0.001449867               0.999999987              -0.000024895               0.001480109               0.999999987              -0.000020027               0.001512146               0.999999987              -0.000013446               0.001545290               0.999999987              -0.000005293               0.001578862               0.999999987               0.000004759               0.001612238               0.999999987               0.000017791               0.001644965               0.999999987               0.000034500               0.001676420               0.999999987               0.000055873               0.001706074               0.999999987               0.000083142               0.001733260               0.999999987               0.000000000               0.001317211               0.999999987               0.000000000               0.001349312               0.999999987               0.000000000               0.001364567               0.999999987               0.000000000               0.001378241               0.999999987               0.000000000               0.001395137               0.999999987               0.000000000               0.001416219               0.999999987               0.000000000               0.001441111               0.999999987               0.000000000               0.001469335               0.999999987               0.000000000               0.001500527               0.999999987              -0.000000000               0.001533830               0.999999987              -0.000000000               0.001568396               0.999999987               0.000000000               0.001603633               0.999999987              -0.000000000               0.001639022               0.999999987              -0.000000000               0.001674161               0.999999987              -0.000000000               0.001708340               0.999999987               0.000000000               0.001740797               0.999999987               0.000000000               0.001770591               0.999999987              -0.000913632              -0.000000000               0.999999987              -0.000961103              -0.000000000               0.999999987              -0.000980367               0.000000000               0.999999987              -0.000990312               0.000000000               0.999999987              -0.000997900               0.000000000               0.999999987              -0.001005476              -0.000000000               0.999999987              -0.001013898               0.000000000               0.999999987              -0.001023391               0.000000000               0.999999987              -0.001033805              -0.000000000               0.999999987              -0.001044818              -0.000000000               0.999999987              -0.001056024               0.000000000               0.999999987              -0.001066978               0.000000000               0.999999987              -0.001077336              -0.000000000               0.999999987              -0.001086660               0.000000000               0.999999987              -0.001094213              -0.000000000               0.999999987              -0.001099341              -0.000000000               0.999999987              -0.001101136              -0.000000000               0.999999987              -0.000908441              -0.000125278               0.999999987              -0.000951708              -0.000098510               0.999999987              -0.000968291              -0.000086067               0.999999987              -0.000976546              -0.000080495               0.999999987              -0.000982955              -0.000078281               0.999999987              -0.000989591              -0.000077792               0.999999987              -0.000997219              -0.000077813               0.999999987              -0.001005860              -0.000077595               0.999999987              -0.001015196              -0.000076783               0.999999987              -0.001024886              -0.000074822               0.999999987              -0.001034468              -0.000071415               0.999999987              -0.001043590              -0.000066421               0.999999987              -0.001051870              -0.000059410               0.999999987              -0.001058833              -0.000049886               0.999999987              -0.001063913              -0.000037117               0.999999987              -0.001066451              -0.000020186               0.999999987              -0.001065721               0.000002095               0.999999987              -0.000893194              -0.000249386               0.999999987              -0.000924239              -0.000196744               0.999999987              -0.000933262              -0.000173140               0.999999987              -0.000936780              -0.000163127               0.999999987              -0.000940005              -0.000159604               0.999999987              -0.000944247              -0.000159147               0.999999987              -0.000949618              -0.000159592               0.999999987              -0.000955675              -0.000159402               0.999999987              -0.000961928              -0.000157685               0.999999987              -0.000967924              -0.000153731               0.999999987              -0.000973185              -0.000147023               0.999999987              -0.000977369              -0.000137395               0.999999987              -0.000980057              -0.000123810               0.999999987              -0.000980784              -0.000105458               0.999999987              -0.000979049              -0.000081501               0.999999987              -0.000974536              -0.000050760               0.999999987              -0.000967116              -0.000011772               0.999999987              -0.000868174              -0.000371200               0.999999987              -0.000879947              -0.000294507               0.999999987              -0.000878075              -0.000262131               0.999999987              -0.000875286              -0.000249618               0.999999987              -0.000874284              -0.000246209               0.999999987              -0.000875251              -0.000246690               0.999999987              -0.000877392              -0.000247914               0.999999987              -0.000879741              -0.000247760               0.999999987              -0.000881522              -0.000245076               0.999999987              -0.000882211              -0.000239184               0.999999987              -0.000881277              -0.000229329               0.999999987              -0.000878258              -0.000215217               0.999999987              -0.000872818              -0.000195910               0.999999987              -0.000864578              -0.000170414               0.999999987              -0.000853415              -0.000138018               0.999999987              -0.000839496              -0.000098079               0.999999987              -0.000823232              -0.000050110               0.999999987              -0.000833734              -0.000489650               0.999999987              -0.000821044              -0.000391881               0.999999987              -0.000806987              -0.000353784               0.999999987              -0.000797754              -0.000340978               0.999999987              -0.000792869              -0.000338969               0.999999987              -0.000790605              -0.000340999               0.999999987              -0.000789054              -0.000343165               0.999999987              -0.000787013              -0.000343052               0.999999987              -0.000783438              -0.000339448               0.999999987              -0.000777689              -0.000331535               0.999999987              -0.000769090              -0.000318748               0.999999987              -0.000757273              -0.000300621               0.999999987              -0.000741963              -0.000276606               0.999999987              -0.000723333              -0.000245922               0.999999987              -0.000701665              -0.000208421               0.999999987              -0.000677559              -0.000164479               0.999999987              -0.000652102              -0.000114834               0.999999987              -0.000790562              -0.000603684               0.999999987              -0.000750518              -0.000489127               0.999999987              -0.000725206              -0.000448331               0.999999987              -0.000711086              -0.000436937               0.999999987              -0.000703474              -0.000437112               0.999999987              -0.000698456              -0.000440861               0.999999987              -0.000693325              -0.000443901               0.999999987              -0.000686487              -0.000443771               0.999999987              -0.000676832              -0.000439231               0.999999987              -0.000663582              -0.000429435               0.999999987              -0.000646228              -0.000413763               0.999999987              -0.000624638              -0.000392002               0.999999987              -0.000599055              -0.000364186               0.999999987              -0.000569935              -0.000330343               0.999999987              -0.000538082              -0.000290617               0.999999987              -0.000504476              -0.000246277               0.999999987              -0.000470166              -0.000199147               0.999999987              -0.000739724              -0.000712148               0.999999987              -0.000672068              -0.000586169               0.999999987              -0.000638214              -0.000545300               0.999999987              -0.000621582              -0.000536348               0.999999987              -0.000612545              -0.000538990               0.999999987              -0.000605395              -0.000544291               0.999999987              -0.000596661              -0.000547879               0.999999987              -0.000584595              -0.000547668               0.999999987              -0.000568162              -0.000542043               0.999999987              -0.000546612              -0.000530196               0.999999987              -0.000520028              -0.000511854               0.999999987              -0.000488439              -0.000486977               0.999999987              -0.000452497              -0.000456563               0.999999987              -0.000412964              -0.000420898               0.999999987              -0.000370933              -0.000380995               0.999999987              -0.000327506              -0.000338507               0.999999987              -0.000283676              -0.000295151               0.999999987              -0.000682299              -0.000813922               0.999999987              -0.000589510              -0.000682667               0.999999987              -0.000550908              -0.000643619               0.999999987              -0.000534411              -0.000637233               0.999999987              -0.000525186              -0.000642014               0.999999987              -0.000516091              -0.000648568               0.999999987              -0.000503452              -0.000652687               0.999999987              -0.000485663              -0.000652132               0.999999987              -0.000461597              -0.000645197               0.999999987              -0.000431039              -0.000631390               0.999999987              -0.000394197              -0.000610677               0.999999987              -0.000351623              -0.000583671               0.999999987              -0.000304333              -0.000551632               0.999999987              -0.000253404              -0.000515753               0.999999987              -0.000200253              -0.000477391               0.999999987              -0.000146218              -0.000438233               0.999999987              -0.000092205              -0.000399287               0.999999987              -0.000620167              -0.000907102               0.999999987              -0.000505592              -0.000778549               0.999999987              -0.000467540              -0.000741797               0.999999987              -0.000453217              -0.000737272               0.999999987              -0.000444465              -0.000743684               0.999999987              -0.000433293              -0.000751329               0.999999987              -0.000416410              -0.000755850               0.999999987              -0.000392027              -0.000754602               0.999999987              -0.000359278              -0.000746285               0.999999987              -0.000318370              -0.000730656               0.999999987              -0.000269858              -0.000707953               0.999999987              -0.000214935              -0.000679540               0.999999987              -0.000154816              -0.000647249               0.999999987              -0.000091327              -0.000612948               0.999999987              -0.000026533              -0.000578076               0.999999987               0.000038202              -0.000543929               0.999999987               0.000102560              -0.000510794               0.999999987              -0.000555782              -0.000995506               0.999999987              -0.000434977              -0.000886562               0.999999987              -0.000394788              -0.000846915               0.999999987              -0.000380319              -0.000838364               0.999999987              -0.000372826              -0.000842650               0.999999987              -0.000364223              -0.000850917               0.999999987              -0.000350973              -0.000858618               0.999999987              -0.000331065              -0.000863051               0.999999987              -0.000303493              -0.000862667               0.999999987              -0.000268210              -0.000856658               0.999999987              -0.000225424              -0.000844738               0.999999987              -0.000175529              -0.000827388               0.999999987              -0.000119193              -0.000805782               0.999999987              -0.000057732              -0.000781427               0.999999987               0.000007005              -0.000756064               0.999999987               0.000073170              -0.000730941               0.999999987               0.000139219              -0.000707021               0.999999987              -0.000485702              -0.001076294               0.999999987              -0.000366751              -0.000991250               0.999999987              -0.000324652              -0.000954812               0.999999987              -0.000309269              -0.000944474               0.999999987              -0.000302190              -0.000947505               0.999999987              -0.000295404              -0.000956379               0.999999987              -0.000285212              -0.000966849               0.999999987              -0.000269309              -0.000976196               0.999999987              -0.000246490              -0.000982772               0.999999987              -0.000216623              -0.000985586               0.999999987              -0.000179804              -0.000983723               0.999999987              -0.000135829              -0.000977139               0.999999987              -0.000084561              -0.000966273               0.999999987              -0.000026642              -0.000952197               0.999999987               0.000036578              -0.000936121               0.999999987               0.000103150              -0.000919530               0.999999987               0.000171309              -0.000903635               0.999999987              -0.000411387              -0.001147311               0.999999987              -0.000300982              -0.001089431               0.999999987              -0.000258798              -0.001060525               0.999999987              -0.000242367              -0.001051535               0.999999987              -0.000235022              -0.001054810               0.999999987              -0.000229310              -0.001064750               0.999999987              -0.000221404              -0.001077840               0.999999987              -0.000208888              -0.001091698               0.999999987              -0.000190471              -0.001104419               0.999999987              -0.000165815              -0.001114955               0.999999987              -0.000134935              -0.001122564               0.999999987              -0.000097283              -0.001126475               0.999999987              -0.000052429              -0.001126536               0.999999987               0.000000099              -0.001123228               0.999999987               0.000059788              -0.001117347               0.999999987               0.000125314              -0.001109981               0.999999987               0.000195112              -0.001102323               0.999999987              -0.000333458              -0.001207233               0.999999987              -0.000237723              -0.001176998               0.999999987              -0.000198171              -0.001158729               0.999999987              -0.000181453              -0.001153786               0.999999987              -0.000173679              -0.001159096               0.999999987              -0.000168431              -0.001171076               0.999999987              -0.000162110              -0.001187047               0.999999987              -0.000152560              -0.001204938               0.999999987              -0.000138162              -0.001223272               0.999999987              -0.000118567              -0.001240768               0.999999987              -0.000093581              -0.001256637               0.999999987              -0.000062678              -0.001270141               0.999999987              -0.000025100              -0.001280850               0.999999987               0.000020120              -0.001288521               0.999999987               0.000073492              -0.001293471               0.999999987               0.000134713              -0.001296261               0.999999987               0.000203552              -0.001297851               0.999999987              -0.000252611              -0.001254895               0.999999987              -0.000176631              -0.001249777               0.999999987              -0.000142897              -0.001243530               0.999999987              -0.000127469              -0.001244487               0.999999987              -0.000119891              -0.001253123               0.999999987              -0.000115075              -0.001267842               0.999999987              -0.000110092              -0.001286932               0.999999987              -0.000102926              -0.001308912               0.999999987              -0.000092199              -0.001332329               0.999999987              -0.000077427              -0.001356035               0.999999987              -0.000058479              -0.001379100               0.999999987              -0.000034876              -0.001400991               0.999999987              -0.000005496              -0.001421175               0.999999987               0.000030668              -0.001439109               0.999999987               0.000074737              -0.001454661               0.999999987               0.000127573              -0.001467992               0.999999987               0.000189758              -0.001479386               0.999999987              -0.000169623              -0.001289395               0.999999987              -0.000117046              -0.001304248               0.999999987              -0.000092334              -0.001309043               0.999999987              -0.000080368              -0.001316267               0.999999987              -0.000074103              -0.001328771               0.999999987              -0.000070216              -0.001346477               0.999999987              -0.000066438              -0.001368488               0.999999987              -0.000061662              -0.001393866               0.999999987              -0.000054556              -0.001421421               0.999999987              -0.000044697              -0.001450150               0.999999987              -0.000031834              -0.001479253               0.999999987              -0.000015756              -0.001508052               0.999999987               0.000004276              -0.001536031               0.999999987               0.000029510              -0.001562636               0.999999987               0.000061275              -0.001587340               0.999999987               0.000100761              -0.001609995               0.999999987               0.000149217              -0.001630461               0.999999987              -0.000085188              -0.001310249               0.999999987              -0.000058330              -0.001337915               0.999999987              -0.000045251              -0.001350407               0.999999987              -0.000038720              -0.001362381               0.999999987              -0.000035156              -0.001378003               0.999999987              -0.000032904              -0.001398096               0.999999987              -0.000030838              -0.001422292               0.999999987              -0.000028351              -0.001449867               0.999999987              -0.000024895              -0.001480109               0.999999987              -0.000020027              -0.001512146               0.999999987              -0.000013446              -0.001545290               0.999999987              -0.000005293              -0.001578862               0.999999987               0.000004759              -0.001612238               0.999999987               0.000017791              -0.001644965               0.999999987               0.000034500              -0.001676420               0.999999987               0.000055873              -0.001706074               0.999999987               0.000083142              -0.001733260               0.999999987              -0.000000000              -0.001317211               0.999999987               0.000000000              -0.001349312               0.999999987               0.000000000              -0.001364567               0.999999987               0.000000000              -0.001378241               0.999999987              -0.000000000              -0.001395137               0.999999987               0.000000000              -0.001416219               0.999999987               0.000000000              -0.001441111               0.999999987               0.000000000              -0.001469335               0.999999987              -0.000000000              -0.001500527               0.999999987               0.000000000              -0.001533830               0.999999987              -0.000000000              -0.001568396               0.999999987               0.000000000              -0.001603633               0.999999987              -0.000000000              -0.001639022               0.999999987              -0.000000000              -0.001674161               0.999999987               0.000000000              -0.001708340               0.999999987               0.000000000              -0.001740797               0.999999987               0.000000000              -0.001770591               0.999999987               0.000913632               0.000000000               0.999999987               0.000961103              -0.000000000               0.999999987               0.000980367               0.000000000               0.999999987               0.000990312               0.000000000               0.999999987               0.000997900               0.000000000               0.999999987               0.001005476               0.000000000               0.999999987               0.001013898               0.000000000               0.999999987               0.001023391               0.000000000               0.999999987               0.001033805               0.000000000               0.999999987               0.001044818               0.000000000               0.999999987               0.001056024              -0.000000000               0.999999987               0.001066978              -0.000000000               0.999999987               0.001077336              -0.000000000               0.999999987               0.001086660               0.000000000               0.999999987               0.001094213               0.000000000               0.999999987               0.001099341              -0.000000000               0.999999987               0.001101136              -0.000000000               0.999999987               0.000908441              -0.000125278               0.999999987               0.000951708              -0.000098510               0.999999987               0.000968291              -0.000086067               0.999999987               0.000976546              -0.000080495               0.999999987               0.000982955              -0.000078281               0.999999987               0.000989591              -0.000077792               0.999999987               0.000997219              -0.000077813               0.999999987               0.001005860              -0.000077595               0.999999987               0.001015196              -0.000076783               0.999999987               0.001024886              -0.000074822               0.999999987               0.001034468              -0.000071415               0.999999987               0.001043590              -0.000066421               0.999999987               0.001051870              -0.000059410               0.999999987               0.001058833              -0.000049886               0.999999987               0.001063913              -0.000037117               0.999999987               0.001066451              -0.000020186               0.999999987               0.001065721               0.000002095               0.999999987               0.000893194              -0.000249386               0.999999987               0.000924239              -0.000196744               0.999999987               0.000933262              -0.000173140               0.999999987               0.000936780              -0.000163127               0.999999987               0.000940005              -0.000159604               0.999999987               0.000944247              -0.000159147               0.999999987               0.000949618              -0.000159592               0.999999987               0.000955675              -0.000159402               0.999999987               0.000961928              -0.000157685               0.999999987               0.000967924              -0.000153731               0.999999987               0.000973185              -0.000147023               0.999999987               0.000977369              -0.000137395               0.999999987               0.000980057              -0.000123810               0.999999987               0.000980784              -0.000105458               0.999999987               0.000979049              -0.000081501               0.999999987               0.000974536              -0.000050760               0.999999987               0.000967116              -0.000011772               0.999999987               0.000868174              -0.000371200               0.999999987               0.000879947              -0.000294507               0.999999987               0.000878075              -0.000262131               0.999999987               0.000875286              -0.000249618               0.999999987               0.000874284              -0.000246209               0.999999987               0.000875251              -0.000246690               0.999999987               0.000877392              -0.000247914               0.999999987               0.000879741              -0.000247760               0.999999987               0.000881522              -0.000245076               0.999999987               0.000882211              -0.000239184               0.999999987               0.000881277              -0.000229329               0.999999987               0.000878258              -0.000215217               0.999999987               0.000872818              -0.000195910               0.999999987               0.000864578              -0.000170414               0.999999987               0.000853415              -0.000138018               0.999999987               0.000839496              -0.000098079               0.999999987               0.000823232              -0.000050110               0.999999987               0.000833734              -0.000489650               0.999999987               0.000821044              -0.000391881               0.999999987               0.000806987              -0.000353784               0.999999987               0.000797754              -0.000340978               0.999999987               0.000792869              -0.000338969               0.999999987               0.000790605              -0.000340999               0.999999987               0.000789054              -0.000343165               0.999999987               0.000787013              -0.000343052               0.999999987               0.000783438              -0.000339448               0.999999987               0.000777689              -0.000331535               0.999999987               0.000769090              -0.000318748               0.999999987               0.000757273              -0.000300621               0.999999987               0.000741963              -0.000276606               0.999999987               0.000723333              -0.000245922               0.999999987               0.000701665              -0.000208421               0.999999987               0.000677559              -0.000164479               0.999999987               0.000652102              -0.000114834               0.999999987               0.000790562              -0.000603684               0.999999987               0.000750518              -0.000489127               0.999999987               0.000725206              -0.000448331               0.999999987               0.000711086              -0.000436937               0.999999987               0.000703474              -0.000437112               0.999999987               0.000698456              -0.000440861               0.999999987               0.000693325              -0.000443901               0.999999987               0.000686487              -0.000443771               0.999999987               0.000676832              -0.000439231               0.999999987               0.000663582              -0.000429435               0.999999987               0.000646228              -0.000413763               0.999999987               0.000624638              -0.000392002               0.999999987               0.000599055              -0.000364186               0.999999987               0.000569935              -0.000330343               0.999999987               0.000538082              -0.000290617               0.999999987               0.000504476              -0.000246277               0.999999987               0.000470166              -0.000199147               0.999999987               0.000739724              -0.000712148               0.999999987               0.000672068              -0.000586169               0.999999987               0.000638214              -0.000545300               0.999999987               0.000621582              -0.000536348               0.999999987               0.000612545              -0.000538990               0.999999987               0.000605395              -0.000544291               0.999999987               0.000596661              -0.000547879               0.999999987               0.000584595              -0.000547668               0.999999987               0.000568162              -0.000542043               0.999999987               0.000546612              -0.000530196               0.999999987               0.000520028              -0.000511854               0.999999987               0.000488439              -0.000486977               0.999999987               0.000452497              -0.000456563               0.999999987               0.000412964              -0.000420898               0.999999987               0.000370933              -0.000380995               0.999999987               0.000327506              -0.000338507               0.999999987               0.000283676              -0.000295151               0.999999987               0.000682299              -0.000813922               0.999999987               0.000589510              -0.000682667               0.999999987               0.000550908              -0.000643619               0.999999987               0.000534411              -0.000637233               0.999999987               0.000525186              -0.000642014               0.999999987               0.000516091              -0.000648568               0.999999987               0.000503452              -0.000652687               0.999999987               0.000485663              -0.000652132               0.999999987               0.000461597              -0.000645197               0.999999987               0.000431039              -0.000631390               0.999999987               0.000394197              -0.000610677               0.999999987               0.000351623              -0.000583671               0.999999987               0.000304333              -0.000551632               0.999999987               0.000253404              -0.000515753               0.999999987               0.000200253              -0.000477391               0.999999987               0.000146218              -0.000438233               0.999999987               0.000092205              -0.000399287               0.999999987               0.000620167              -0.000907102               0.999999987               0.000505592              -0.000778549               0.999999987               0.000467540              -0.000741797               0.999999987               0.000453217              -0.000737272               0.999999987               0.000444465              -0.000743684               0.999999987               0.000433293              -0.000751329               0.999999987               0.000416410              -0.000755850               0.999999987               0.000392027              -0.000754602               0.999999987               0.000359278              -0.000746285               0.999999987               0.000318370              -0.000730656               0.999999987               0.000269858              -0.000707953               0.999999987               0.000214935              -0.000679540               0.999999987               0.000154816              -0.000647249               0.999999987               0.000091327              -0.000612948               0.999999987               0.000026533              -0.000578076               0.999999987              -0.000038202              -0.000543929               0.999999987              -0.000102560              -0.000510794               0.999999987               0.000555782              -0.000995506               0.999999987               0.000434977              -0.000886562               0.999999987               0.000394788              -0.000846915               0.999999987               0.000380319              -0.000838364               0.999999987               0.000372826              -0.000842650               0.999999987               0.000364223              -0.000850917               0.999999987               0.000350973              -0.000858618               0.999999987               0.000331065              -0.000863051               0.999999987               0.000303493              -0.000862667               0.999999987               0.000268210              -0.000856658               0.999999987               0.000225424              -0.000844738               0.999999987               0.000175529              -0.000827388               0.999999987               0.000119193              -0.000805782               0.999999987               0.000057732              -0.000781427               0.999999987              -0.000007005              -0.000756064               0.999999987              -0.000073170              -0.000730941               0.999999987              -0.000139219              -0.000707021               0.999999987               0.000485702              -0.001076294               0.999999987               0.000366751              -0.000991250               0.999999987               0.000324652              -0.000954812               0.999999987               0.000309269              -0.000944474               0.999999987               0.000302190              -0.000947505               0.999999987               0.000295404              -0.000956379               0.999999987               0.000285212              -0.000966849               0.999999987               0.000269309              -0.000976196               0.999999987               0.000246490              -0.000982772               0.999999987               0.000216623              -0.000985586               0.999999987               0.000179804              -0.000983723               0.999999987               0.000135829              -0.000977139               0.999999987               0.000084561              -0.000966273               0.999999987               0.000026642              -0.000952197               0.999999987              -0.000036578              -0.000936121               0.999999987              -0.000103150              -0.000919530               0.999999987              -0.000171309              -0.000903635               0.999999987               0.000411387              -0.001147311               0.999999987               0.000300982              -0.001089431               0.999999987               0.000258798              -0.001060525               0.999999987               0.000242367              -0.001051535               0.999999987               0.000235022              -0.001054810               0.999999987               0.000229310              -0.001064750               0.999999987               0.000221404              -0.001077840               0.999999987               0.000208888              -0.001091698               0.999999987               0.000190471              -0.001104419               0.999999987               0.000165815              -0.001114955               0.999999987               0.000134935              -0.001122564               0.999999987               0.000097283              -0.001126475               0.999999987               0.000052429              -0.001126536               0.999999987              -0.000000099              -0.001123228               0.999999987              -0.000059788              -0.001117347               0.999999987              -0.000125314              -0.001109981               0.999999987              -0.000195112              -0.001102323               0.999999987               0.000333458              -0.001207233               0.999999987               0.000237723              -0.001176998               0.999999987               0.000198171              -0.001158729               0.999999987               0.000181453              -0.001153786               0.999999987               0.000173679              -0.001159096               0.999999987               0.000168431              -0.001171076               0.999999987               0.000162110              -0.001187047               0.999999987               0.000152560              -0.001204938               0.999999987               0.000138162              -0.001223272               0.999999987               0.000118567              -0.001240768               0.999999987               0.000093581              -0.001256637               0.999999987               0.000062678              -0.001270141               0.999999987               0.000025100              -0.001280850               0.999999987              -0.000020120              -0.001288521               0.999999987              -0.000073492              -0.001293471               0.999999987              -0.000134713              -0.001296261               0.999999987              -0.000203552              -0.001297851               0.999999987               0.000252611              -0.001254895               0.999999987               0.000176631              -0.001249777               0.999999987               0.000142897              -0.001243530               0.999999987               0.000127469              -0.001244487               0.999999987               0.000119891              -0.001253123               0.999999987               0.000115075              -0.001267842               0.999999987               0.000110092              -0.001286932               0.999999987               0.000102926              -0.001308912               0.999999987               0.000092199              -0.001332329               0.999999987               0.000077427              -0.001356035               0.999999987               0.000058479              -0.001379100               0.999999987               0.000034876              -0.001400991               0.999999987               0.000005496              -0.001421175               0.999999987              -0.000030668              -0.001439109               0.999999987              -0.000074737              -0.001454661               0.999999987              -0.000127573              -0.001467992               0.999999987              -0.000189758              -0.001479386               0.999999987               0.000169623              -0.001289395               0.999999987               0.000117046              -0.001304248               0.999999987               0.000092334              -0.001309043               0.999999987               0.000080368              -0.001316267               0.999999987               0.000074103              -0.001328771               0.999999987               0.000070216              -0.001346477               0.999999987               0.000066438              -0.001368488               0.999999987               0.000061662              -0.001393866               0.999999987               0.000054556              -0.001421421               0.999999987               0.000044697              -0.001450150               0.999999987               0.000031834              -0.001479253               0.999999987               0.000015756              -0.001508052               0.999999987              -0.000004276              -0.001536031               0.999999987              -0.000029510              -0.001562636               0.999999987              -0.000061275              -0.001587340               0.999999987              -0.000100761              -0.001609995               0.999999987              -0.000149217              -0.001630461               0.999999987               0.000085188              -0.001310249               0.999999987               0.000058330              -0.001337915               0.999999987               0.000045251              -0.001350407               0.999999987               0.000038720              -0.001362381               0.999999987               0.000035156              -0.001378003               0.999999987               0.000032904              -0.001398096               0.999999987               0.000030838              -0.001422292               0.999999987               0.000028351              -0.001449867               0.999999987               0.000024895              -0.001480109               0.999999987               0.000020027              -0.001512146               0.999999987               0.000013446              -0.001545290               0.999999987               0.000005293              -0.001578862               0.999999987              -0.000004759              -0.001612238               0.999999987              -0.000017791              -0.001644965               0.999999987              -0.000034500              -0.001676420               0.999999987              -0.000055873              -0.001706074               0.999999987              -0.000083142              -0.001733260               0.999999987              -0.000000000              -0.001317211               0.999999987               0.000000000              -0.001349312               0.999999987               0.000000000              -0.001364567               0.999999987               0.000000000              -0.001378241               0.999999987              -0.000000000              -0.001395137               0.999999987               0.000000000              -0.001416219               0.999999987               0.000000000              -0.001441111               0.999999987               0.000000000              -0.001469335               0.999999987              -0.000000000              -0.001500527               0.999999987               0.000000000              -0.001533830               0.999999987              -0.000000000              -0.001568396               0.999999987               0.000000000              -0.001603633               0.999999987              -0.000000000              -0.001639022               0.999999987              -0.000000000              -0.001674161               0.999999987               0.000000000              -0.001708340               0.999999987               0.000000000              -0.001740797               0.999999987               0.000000000              -0.001770591               0.999999987               0.000913632               0.000000000               0.999999987               0.000961103              -0.000000000               0.999999987               0.000980367               0.000000000               0.999999987               0.000990312               0.000000000               0.999999987               0.000997900               0.000000000               0.999999987               0.001005476               0.000000000               0.999999987               0.001013898               0.000000000               0.999999987               0.001023391               0.000000000               0.999999987               0.001033805               0.000000000               0.999999987               0.001044818               0.000000000               0.999999987               0.001056024              -0.000000000               0.999999987               0.001066978              -0.000000000               0.999999987               0.001077336              -0.000000000               0.999999987               0.001086660               0.000000000               0.999999987               0.001094213               0.000000000               0.999999987               0.001099341              -0.000000000               0.999999987               0.001101136              -0.000000000               0.999999987               0.000908441               0.000125278               0.999999987               0.000951708               0.000098510               0.999999987               0.000968291               0.000086067               0.999999987               0.000976546               0.000080495               0.999999987               0.000982955               0.000078281               0.999999987               0.000989591               0.000077792               0.999999987               0.000997219               0.000077813               0.999999987               0.001005860               0.000077595               0.999999987               0.001015196               0.000076783               0.999999987               0.001024886               0.000074822               0.999999987               0.001034468               0.000071415               0.999999987               0.001043590               0.000066421               0.999999987               0.001051870               0.000059410               0.999999987               0.001058833               0.000049886               0.999999987               0.001063913               0.000037117               0.999999987               0.001066451               0.000020186               0.999999987               0.001065721              -0.000002095               0.999999987               0.000893194               0.000249386               0.999999987               0.000924239               0.000196744               0.999999987               0.000933262               0.000173140               0.999999987               0.000936780               0.000163127               0.999999987               0.000940005               0.000159604               0.999999987               0.000944247               0.000159147               0.999999987               0.000949618               0.000159592               0.999999987               0.000955675               0.000159402               0.999999987               0.000961928               0.000157685               0.999999987               0.000967924               0.000153731               0.999999987               0.000973185               0.000147023               0.999999987               0.000977369               0.000137395               0.999999987               0.000980057               0.000123810               0.999999987               0.000980784               0.000105458               0.999999987               0.000979049               0.000081501               0.999999987               0.000974536               0.000050760               0.999999987               0.000967116               0.000011772               0.999999987               0.000868174               0.000371200               0.999999987               0.000879947               0.000294507               0.999999987               0.000878075               0.000262131               0.999999987               0.000875286               0.000249618               0.999999987               0.000874284               0.000246209               0.999999987               0.000875251               0.000246690               0.999999987               0.000877392               0.000247914               0.999999987               0.000879741               0.000247760               0.999999987               0.000881522               0.000245076               0.999999987               0.000882211               0.000239184               0.999999987               0.000881277               0.000229329               0.999999987               0.000878258               0.000215217               0.999999987               0.000872818               0.000195910               0.999999987               0.000864578               0.000170414               0.999999987               0.000853415               0.000138018               0.999999987               0.000839496               0.000098079               0.999999987               0.000823232               0.000050110               0.999999987               0.000833734               0.000489650               0.999999987               0.000821044               0.000391881               0.999999987               0.000806987               0.000353784               0.999999987               0.000797754               0.000340978               0.999999987               0.000792869               0.000338969               0.999999987               0.000790605               0.000340999               0.999999987               0.000789054               0.000343165               0.999999987               0.000787013               0.000343052               0.999999987               0.000783438               0.000339448               0.999999987               0.000777689               0.000331535               0.999999987               0.000769090               0.000318748               0.999999987               0.000757273               0.000300621               0.999999987               0.000741963               0.000276606               0.999999987               0.000723333               0.000245922               0.999999987               0.000701665               0.000208421               0.999999987               0.000677559               0.000164479               0.999999987               0.000652102               0.000114834               0.999999987               0.000790562               0.000603684               0.999999987               0.000750518               0.000489127               0.999999987               0.000725206               0.000448331               0.999999987               0.000711086               0.000436937               0.999999987               0.000703474               0.000437112               0.999999987               0.000698456               0.000440861               0.999999987               0.000693325               0.000443901               0.999999987               0.000686487               0.000443771               0.999999987               0.000676832               0.000439231               0.999999987               0.000663582               0.000429435               0.999999987               0.000646228               0.000413763               0.999999987               0.000624638               0.000392002               0.999999987               0.000599055               0.000364186               0.999999987               0.000569935               0.000330343               0.999999987               0.000538082               0.000290617               0.999999987               0.000504476               0.000246277               0.999999987               0.000470166               0.000199147               0.999999987               0.000739724               0.000712148               0.999999987               0.000672068               0.000586169               0.999999987               0.000638214               0.000545300               0.999999987               0.000621582               0.000536348               0.999999987               0.000612545               0.000538990               0.999999987               0.000605395               0.000544291               0.999999987               0.000596661               0.000547879               0.999999987               0.000584595               0.000547668               0.999999987               0.000568162               0.000542043               0.999999987               0.000546612               0.000530196               0.999999987               0.000520028               0.000511854               0.999999987               0.000488439               0.000486977               0.999999987               0.000452497               0.000456563               0.999999987               0.000412964               0.000420898               0.999999987               0.000370933               0.000380995               0.999999987               0.000327506               0.000338507               0.999999987               0.000283676               0.000295151               0.999999987               0.000682299               0.000813922               0.999999987               0.000589510               0.000682667               0.999999987               0.000550908               0.000643619               0.999999987               0.000534411               0.000637233               0.999999987               0.000525186               0.000642014               0.999999987               0.000516091               0.000648568               0.999999987               0.000503452               0.000652687               0.999999987               0.000485663               0.000652132               0.999999987               0.000461597               0.000645197               0.999999987               0.000431039               0.000631390               0.999999987               0.000394197               0.000610677               0.999999987               0.000351623               0.000583671               0.999999987               0.000304333               0.000551632               0.999999987               0.000253404               0.000515753               0.999999987               0.000200253               0.000477391               0.999999987               0.000146218               0.000438233               0.999999987               0.000092205               0.000399287               0.999999987               0.000620167               0.000907102               0.999999987               0.000505592               0.000778549               0.999999987               0.000467540               0.000741797               0.999999987               0.000453217               0.000737272               0.999999987               0.000444465               0.000743684               0.999999987               0.000433293               0.000751329               0.999999987               0.000416410               0.000755850               0.999999987               0.000392027               0.000754602               0.999999987               0.000359278               0.000746285               0.999999987               0.000318370               0.000730656               0.999999987               0.000269858               0.000707953               0.999999987               0.000214935               0.000679540               0.999999987               0.000154816               0.000647249               0.999999987               0.000091327               0.000612948               0.999999987               0.000026533               0.000578076               0.999999987              -0.000038202               0.000543929               0.999999987              -0.000102560               0.000510794               0.999999987               0.000555782               0.000995506               0.999999987               0.000434977               0.000886562               0.999999987               0.000394788               0.000846915               0.999999987               0.000380319               0.000838364               0.999999987               0.000372826               0.000842650               0.999999987               0.000364223               0.000850917               0.999999987               0.000350973               0.000858618               0.999999987               0.000331065               0.000863051               0.999999987               0.000303493               0.000862667               0.999999987               0.000268210               0.000856658               0.999999987               0.000225424               0.000844738               0.999999987               0.000175529               0.000827388               0.999999987               0.000119193               0.000805782               0.999999987               0.000057732               0.000781427               0.999999987              -0.000007005               0.000756064               0.999999987              -0.000073170               0.000730941               0.999999987              -0.000139219               0.000707021               0.999999987               0.000485702               0.001076294               0.999999987               0.000366751               0.000991250               0.999999987               0.000324652               0.000954812               0.999999987               0.000309269               0.000944474               0.999999987               0.000302190               0.000947505               0.999999987               0.000295404               0.000956379               0.999999987               0.000285212               0.000966849               0.999999987               0.000269309               0.000976196               0.999999987               0.000246490               0.000982772               0.999999987               0.000216623               0.000985586               0.999999987               0.000179804               0.000983723               0.999999987               0.000135829               0.000977139               0.999999987               0.000084561               0.000966273               0.999999987               0.000026642               0.000952197               0.999999987              -0.000036578               0.000936121               0.999999987              -0.000103150               0.000919530               0.999999987              -0.000171309               0.000903635               0.999999987               0.000411387               0.001147311               0.999999987               0.000300982               0.001089431               0.999999987               0.000258798               0.001060525               0.999999987               0.000242367               0.001051535               0.999999987               0.000235022               0.001054810               0.999999987               0.000229310               0.001064750               0.999999987               0.000221404               0.001077840               0.999999987               0.000208888               0.001091698               0.999999987               0.000190471               0.001104419               0.999999987               0.000165815               0.001114955               0.999999987               0.000134935               0.001122564               0.999999987               0.000097283               0.001126475               0.999999987               0.000052429               0.001126536               0.999999987              -0.000000099               0.001123228               0.999999987              -0.000059788               0.001117347               0.999999987              -0.000125314               0.001109981               0.999999987              -0.000195112               0.001102323               0.999999987               0.000333458               0.001207233               0.999999987               0.000237723               0.001176998               0.999999987               0.000198171               0.001158729               0.999999987               0.000181453               0.001153786               0.999999987               0.000173679               0.001159096               0.999999987               0.000168431               0.001171076               0.999999987               0.000162110               0.001187047               0.999999987               0.000152560               0.001204938               0.999999987               0.000138162               0.001223272               0.999999987               0.000118567               0.001240768               0.999999987               0.000093581               0.001256637               0.999999987               0.000062678               0.001270141               0.999999987               0.000025100               0.001280850               0.999999987              -0.000020120               0.001288521               0.999999987              -0.000073492               0.001293471               0.999999987              -0.000134713               0.001296261               0.999999987              -0.000203552               0.001297851               0.999999987               0.000252611               0.001254895               0.999999987               0.000176631               0.001249777               0.999999987               0.000142897               0.001243530               0.999999987               0.000127469               0.001244487               0.999999987               0.000119891               0.001253123               0.999999987               0.000115075               0.001267842               0.999999987               0.000110092               0.001286932               0.999999987               0.000102926               0.001308912               0.999999987               0.000092199               0.001332329               0.999999987               0.000077427               0.001356035               0.999999987               0.000058479               0.001379100               0.999999987               0.000034876               0.001400991               0.999999987               0.000005496               0.001421175               0.999999987              -0.000030668               0.001439109               0.999999987              -0.000074737               0.001454661               0.999999987              -0.000127573               0.001467992               0.999999987              -0.000189758               0.001479386               0.999999987               0.000169623               0.001289395               0.999999987               0.000117046               0.001304248               0.999999987               0.000092334               0.001309043               0.999999987               0.000080368               0.001316267               0.999999987               0.000074103               0.001328771               0.999999987               0.000070216               0.001346477               0.999999987               0.000066438               0.001368488               0.999999987               0.000061662               0.001393866               0.999999987               0.000054556               0.001421421               0.999999987               0.000044697               0.001450150               0.999999987               0.000031834               0.001479253               0.999999987               0.000015756               0.001508052               0.999999987              -0.000004276               0.001536031               0.999999987              -0.000029510               0.001562636               0.999999987              -0.000061275               0.001587340               0.999999987              -0.000100761               0.001609995               0.999999987              -0.000149217               0.001630461               0.999999987               0.000085188               0.001310249               0.999999987               0.000058330               0.001337915               0.999999987               0.000045251               0.001350407               0.999999987               0.000038720               0.001362381               0.999999987               0.000035156               0.001378003               0.999999987               0.000032904               0.001398096               0.999999987               0.000030838               0.001422292               0.999999987               0.000028351               0.001449867               0.999999987               0.000024895               0.001480109               0.999999987               0.000020027               0.001512146               0.999999987               0.000013446               0.001545290               0.999999987               0.000005293               0.001578862               0.999999987              -0.000004759               0.001612238               0.999999987              -0.000017791               0.001644965               0.999999987              -0.000034500               0.001676420               0.999999987              -0.000055873               0.001706074               0.999999987              -0.000083142               0.001733260               0.999999987               0.000000000               0.001317211               0.999999987               0.000000000               0.001349312               0.999999987               0.000000000               0.001364567               0.999999987               0.000000000               0.001378241               0.999999987               0.000000000               0.001395137               0.999999987               0.000000000               0.001416219               0.999999987               0.000000000               0.001441111               0.999999987               0.000000000               0.001469335               0.999999987               0.000000000               0.001500527               0.999999987              -0.000000000               0.001533830               0.999999987              -0.000000000               0.001568396               0.999999987               0.000000000               0.001603633               0.999999987              -0.000000000               0.001639022               0.999999987              -0.000000000               0.001674161               0.999999987              -0.000000000               0.001708340               0.999999987               0.000000000               0.001740797               0.999999987               0.000000000               0.001770591               0.999999987 </DataArray>
<DataArray type="Float64"                                    Name="stress"                                                      NumberOfComponents="10" format="ascii">
              0.002164993               0.022689376              -0.000000000              -0.002024295               0.008237815               0.006213520               0.000000000               0.000000000               0.000000000               0.000000000               0.002069749               0.017316795              -0.000000000              -0.001388440               0.006235020               0.004846581               0.000000000               0.000000000               0.000000000               0.000000000               0.002664659               0.012962960               0.000000000              -0.000621121               0.004527984               0.003906862               0.000000000               0.000000000               0.000000000               0.000000000               0.002469715               0.010497622               0.000000000              -0.000386059               0.003627858               0.003241800               0.000000000               0.000000000               0.000000000               0.000000000               0.002066764               0.008928946               0.000000000              -0.000341081               0.003089979               0.002748898               0.000000000               0.000000000               0.000000000               0.000000000               0.001647062               0.007832269               0.000000000              -0.000361385               0.002731192               0.002369807               0.000000000               0.000000000               0.000000000               0.000000000               0.001253229               0.006980273               0.000000000              -0.000402572               0.002460925               0.002058353               0.000000000               0.000000000               0.000000000               0.000000000               0.000905416               0.006258401              -0.000000000              -0.000442768               0.002233702               0.001790934               0.000000000               0.000000000               0.000000000               0.000000000               0.000611992               0.005609396              -0.000000000              -0.000471676               0.002027006               0.001555329               0.000000000               0.000000000               0.000000000               0.000000000               0.000370942               0.004988961               0.000000000              -0.000484516               0.001824476               0.001339960               0.000000000               0.000000000               0.000000000               0.000000000               0.000179785               0.004374973               0.000000000              -0.000479451               0.001618127               0.001138676               0.000000000               0.000000000               0.000000000               0.000000000               0.000030634               0.003754650              -0.000000000              -0.000457843               0.001404152               0.000946309               0.000000000               0.000000000               0.000000000               0.000000000              -0.000080386               0.003109561              -0.000000000              -0.000418839               0.001176123               0.000757284               0.000000000               0.000000000               0.000000000               0.000000000              -0.000139146               0.002424686              -0.000000000              -0.000355265               0.000926642               0.000571377               0.000000000               0.000000000               0.000000000               0.000000000              -0.000141556               0.001676599              -0.000000000              -0.000262658               0.000646413               0.000383755               0.000000000               0.000000000               0.000000000               0.000000000              -0.000087254               0.000836454              -0.000000000              -0.000137277               0.000324574               0.000187297               0.000000000               0.000000000               0.000000000               0.000000000              -0.000113735               0.000193193              -0.000000000              -0.000066800               0.000086663               0.000019863               0.000000000               0.000000000               0.000000000               0.000000000               0.002217858               0.022189140              -0.001479412              -0.001941941               0.008043620               0.006101678               0.000000000               0.000000000               0.000000000               0.000000000               0.001995759               0.017003942              -0.000635081              -0.001377080               0.006126951               0.004749871               0.000000000               0.000000000               0.000000000               0.000000000               0.002452289               0.012841483               0.000191570              -0.000685575               0.004508977               0.003823401               0.000000000               0.000000000               0.000000000               0.000000000               0.002206371               0.010476890               0.000521632              -0.000482221               0.003653002               0.003170781               0.000000000               0.000000000               0.000000000               0.000000000               0.001796572               0.008963139               0.000645905              -0.000446677               0.003136575               0.002689898               0.000000000               0.000000000               0.000000000               0.000000000               0.001387687               0.007891709               0.000677843              -0.000466080               0.002785903               0.002319823               0.000000000               0.000000000               0.000000000               0.000000000               0.001017372               0.007053541               0.000664453              -0.000500177               0.002517882               0.002017705               0.000000000               0.000000000               0.000000000               0.000000000               0.000702078               0.006338573               0.000636112              -0.000529041               0.002289184               0.001760142               0.000000000               0.000000000               0.000000000               0.000000000               0.000440676               0.005687493               0.000602464              -0.000545682               0.002077706               0.001532024               0.000000000               0.000000000               0.000000000               0.000000000               0.000230616               0.005066424               0.000565606              -0.000546821               0.001871065               0.001324244               0.000000000               0.000000000               0.000000000               0.000000000               0.000066967               0.004456690               0.000531805              -0.000531972               0.001662872               0.001130900               0.000000000               0.000000000               0.000000000               0.000000000              -0.000057169               0.003846380               0.000494614              -0.000502235               0.001449525               0.000947290               0.000000000               0.000000000               0.000000000               0.000000000              -0.000142117               0.003215281               0.000446446              -0.000455203               0.001223484               0.000768281               0.000000000               0.000000000               0.000000000               0.000000000              -0.000179629               0.002550907               0.000382838              -0.000386223               0.000979035               0.000592811               0.000000000               0.000000000               0.000000000               0.000000000              -0.000164611               0.001842201               0.000293841              -0.000292004               0.000711395               0.000419392               0.000000000               0.000000000               0.000000000               0.000000000              -0.000096496               0.001073092               0.000167293              -0.000170322               0.000414468               0.000244146               0.000000000               0.000000000               0.000000000               0.000000000              -0.000110633               0.000499458               0.000104823              -0.000103920               0.000201124               0.000097204               0.000000000               0.000000000               0.000000000               0.000000000               0.002333947               0.020760858              -0.002729755              -0.001719874               0.007493508               0.005773634               0.000000000               0.000000000               0.000000000               0.000000000               0.001762501               0.016115615              -0.001165646              -0.001353511               0.005822988               0.004469477               0.000000000               0.000000000               0.000000000               0.000000000               0.001845814               0.012502533               0.000350105              -0.000870634               0.004457681               0.003587046               0.000000000               0.000000000               0.000000000               0.000000000               0.001475474               0.010418839               0.000933269              -0.000749051               0.003722595               0.002973544               0.000000000               0.000000000               0.000000000               0.000000000               0.001053466               0.009051289               0.001141367              -0.000736360               0.003262519               0.002526159               0.000000000               0.000000000               0.000000000               0.000000000               0.000685723               0.008048853               0.001187622              -0.000748959               0.002932577               0.002183618               0.000000000               0.000000000               0.000000000               0.000000000               0.000390425               0.007240005               0.001158742              -0.000758590               0.002666174               0.001907584               0.000000000               0.000000000               0.000000000               0.000000000               0.000162489               0.006532492               0.001101300              -0.000755627               0.002429351               0.001673724               0.000000000               0.000000000               0.000000000               0.000000000              -0.000013998               0.005878018               0.001036005              -0.000740000               0.002205986               0.001465986               0.000000000               0.000000000               0.000000000               0.000000000              -0.000143004               0.005259408               0.000967233              -0.000711051               0.001990135               0.001279084               0.000000000               0.000000000               0.000000000               0.000000000              -0.000231501               0.004660902               0.000902866              -0.000669424               0.001776760               0.001107335               0.000000000               0.000000000               0.000000000               0.000000000              -0.000285301               0.004071948               0.000831274              -0.000615980               0.001562629               0.000946649               0.000000000               0.000000000               0.000000000               0.000000000              -0.000299955               0.003482671               0.000737239              -0.000547816               0.001343484               0.000795668               0.000000000               0.000000000               0.000000000               0.000000000              -0.000271609               0.002887337               0.000620100              -0.000462770               0.001116693               0.000653923               0.000000000               0.000000000               0.000000000               0.000000000              -0.000204550               0.002288019               0.000468053              -0.000362708               0.000883568               0.000520860               0.000000000               0.000000000               0.000000000               0.000000000              -0.000108791               0.001691623               0.000262460              -0.000252249               0.000647952               0.000395703               0.000000000               0.000000000               0.000000000               0.000000000              -0.000097645               0.001282615               0.000159820              -0.000196943               0.000493182               0.000296238               0.000000000               0.000000000               0.000000000               0.000000000               0.002399389               0.018603377              -0.003565439              -0.001425650               0.006676280               0.005250630               0.000000000               0.000000000               0.000000000               0.000000000               0.001342879               0.014794895              -0.001512323              -0.001345780               0.005380175               0.004034396               0.000000000               0.000000000               0.000000000               0.000000000               0.000912743               0.012008761               0.000446693              -0.001158814               0.004389151               0.003230338               0.000000000               0.000000000               0.000000000               0.000000000               0.000410642               0.010324112               0.001154943              -0.001136521               0.003820177               0.002683656               0.000000000               0.000000000               0.000000000               0.000000000               0.000014126               0.009148633               0.001384417              -0.001138280               0.003428940               0.002290661               0.000000000               0.000000000               0.000000000               0.000000000              -0.000265818               0.008230140               0.001419931              -0.001128447               0.003119501               0.001991054               0.000000000               0.000000000               0.000000000               0.000000000              -0.000445649               0.007448539               0.001371400              -0.001098184               0.002848883               0.001750699               0.000000000               0.000000000               0.000000000               0.000000000              -0.000549010               0.006747215               0.001289970              -0.001049278               0.002598809               0.001549530               0.000000000               0.000000000               0.000000000               0.000000000              -0.000602196               0.006098626               0.001202721              -0.000988150               0.002362238               0.001374088               0.000000000               0.000000000               0.000000000               0.000000000              -0.000615426               0.005490029               0.001113988              -0.000917036               0.002135670               0.001218634               0.000000000               0.000000000               0.000000000               0.000000000              -0.000591801               0.004913897               0.001028290              -0.000836161               0.001916669               0.001080509               0.000000000               0.000000000               0.000000000               0.000000000              -0.000540250               0.004360506               0.000936347              -0.000747656               0.001702706               0.000955050               0.000000000               0.000000000               0.000000000               0.000000000              -0.000459196               0.003835612               0.000817977              -0.000651649               0.001495741               0.000844092               0.000000000               0.000000000               0.000000000               0.000000000              -0.000351315               0.003342136               0.000669668              -0.000549509               0.001297204               0.000747695               0.000000000               0.000000000               0.000000000               0.000000000              -0.000230672               0.002890246               0.000488548              -0.000447782               0.001112666               0.000664884               0.000000000               0.000000000               0.000000000               0.000000000              -0.000112547               0.002504030               0.000266500              -0.000355208               0.000953071               0.000597863               0.000000000               0.000000000               0.000000000               0.000000000              -0.000075629               0.002281482               0.000154595              -0.000313545               0.000865002               0.000551456               0.000000000               0.000000000               0.000000000               0.000000000               0.002265464               0.015986619              -0.003910613              -0.001148778               0.005711745               0.004562967               0.000000000               0.000000000               0.000000000               0.000000000               0.000720620               0.013232627              -0.001666138              -0.001383843               0.004872112               0.003488269               0.000000000               0.000000000               0.000000000               0.000000000              -0.000225859               0.011427731               0.000439161              -0.001513160               0.004313592               0.002800432               0.000000000               0.000000000               0.000000000               0.000000000              -0.000803795               0.010169268               0.001139254              -0.001572578               0.003913915               0.002341337               0.000000000               0.000000000               0.000000000               0.000000000              -0.001113049               0.009179626               0.001336751              -0.001564843               0.003581459               0.002016616               0.000000000               0.000000000               0.000000000               0.000000000              -0.001243957               0.008338655               0.001349090              -0.001508812               0.003282461               0.001773649               0.000000000               0.000000000               0.000000000               0.000000000              -0.001266533               0.007587522               0.001286666              -0.001423387               0.003003611               0.001580224               0.000000000               0.000000000               0.000000000               0.000000000              -0.001222275               0.006903957               0.001197521              -0.001321345               0.002741744               0.001420399               0.000000000               0.000000000               0.000000000               0.000000000              -0.001133186               0.006275946               0.001104805              -0.001209435               0.002495106               0.001285671               0.000000000               0.000000000               0.000000000               0.000000000              -0.001012021               0.005691526               0.001013938              -0.001090946               0.002260805               0.001169859               0.000000000               0.000000000               0.000000000               0.000000000              -0.000864526               0.005147069               0.000925034              -0.000967579               0.002038199               0.001070620               0.000000000               0.000000000               0.000000000               0.000000000              -0.000701023               0.004641311               0.000829674              -0.000843046               0.001828103               0.000985058               0.000000000               0.000000000               0.000000000               0.000000000              -0.000529853               0.004188104               0.000708687              -0.000722206               0.001636756               0.000914550               0.000000000               0.000000000               0.000000000               0.000000000              -0.000361319               0.003801629               0.000556207              -0.000610697               0.001470762               0.000860065               0.000000000               0.000000000               0.000000000               0.000000000              -0.000206550               0.003493864               0.000383222              -0.000514188               0.001336006               0.000821817               0.000000000               0.000000000               0.000000000               0.000000000              -0.000089196               0.003284838               0.000198056              -0.000444052               0.001242952               0.000798900               0.000000000               0.000000000               0.000000000               0.000000000              -0.000045177               0.003202223               0.000104952              -0.000417218               0.001206470               0.000789251               0.000000000               0.000000000               0.000000000               0.000000000               0.001825281               0.013182692              -0.003790136              -0.000963357               0.004715305               0.003751948               0.000000000               0.000000000               0.000000000               0.000000000              -0.000086361               0.011591150              -0.001667584              -0.001481277               0.004357437               0.002876160               0.000000000               0.000000000               0.000000000               0.000000000              -0.001434750               0.010790966               0.000292357              -0.001886897               0.004225918               0.002339021               0.000000000               0.000000000               0.000000000               0.000000000              -0.001977251               0.009924823               0.000887293              -0.001982067               0.003968930               0.001986863               0.000000000               0.000000000               0.000000000               0.000000000              -0.002125101               0.009097322               0.001034766              -0.001934074               0.003677102               0.001743028               0.000000000               0.000000000               0.000000000               0.000000000              -0.002065389               0.008324519               0.001033030              -0.001815081               0.003379839               0.001564758               0.000000000               0.000000000               0.000000000               0.000000000              -0.001906970               0.007609299               0.000976729              -0.001666272               0.003091832               0.001425559               0.000000000               0.000000000               0.000000000               0.000000000              -0.001701738               0.006958732               0.000901081              -0.001507990               0.002822217               0.001314228               0.000000000               0.000000000               0.000000000               0.000000000              -0.001467411               0.006361549               0.000822226              -0.001345470               0.002568985               0.001223515               0.000000000               0.000000000               0.000000000               0.000000000              -0.001219090               0.005809199               0.000742971              -0.001183306               0.002330816               0.001147510               0.000000000               0.000000000               0.000000000               0.000000000              -0.000963397               0.005303299               0.000659933              -0.001024184               0.002109143               0.001084959               0.000000000               0.000000000               0.000000000               0.000000000              -0.000716634               0.004849287               0.000573201              -0.000874897               0.001908045               0.001033149               0.000000000               0.000000000               0.000000000               0.000000000              -0.000487331               0.004468964               0.000469683              -0.000741368               0.001736762               0.000995394               0.000000000               0.000000000               0.000000000               0.000000000              -0.000290585               0.004173087               0.000342160              -0.000630604               0.001601216               0.000970613               0.000000000               0.000000000               0.000000000               0.000000000              -0.000141067               0.003970019               0.000208288              -0.000549151               0.001506377               0.000957226               0.000000000               0.000000000               0.000000000               0.000000000              -0.000049382               0.003866148               0.000092821              -0.000501785               0.001455965               0.000954179               0.000000000               0.000000000               0.000000000               0.000000000              -0.000016074               0.003847630               0.000040295              -0.000486980               0.001444857               0.000957877               0.000000000               0.000000000               0.000000000               0.000000000               0.001026082               0.010425673              -0.003296112              -0.000918429               0.003781332               0.002862903               0.000000000               0.000000000               0.000000000               0.000000000              -0.001026249               0.009991994              -0.001574906              -0.001633840               0.003875244               0.002241405               0.000000000               0.000000000               0.000000000               0.000000000              -0.002575193               0.010112082               0.000006078              -0.002229702               0.004113894               0.001884192               0.000000000               0.000000000               0.000000000               0.000000000              -0.002954932               0.009571171               0.000456412              -0.002304490               0.003958522               0.001654032               0.000000000               0.000000000               0.000000000               0.000000000              -0.002882827               0.008876301               0.000567859              -0.002190592               0.003688935               0.001498343               0.000000000               0.000000000               0.000000000               0.000000000              -0.002618638               0.008171693               0.000575123              -0.002003446               0.003391686               0.001388240               0.000000000               0.000000000               0.000000000               0.000000000              -0.002280671               0.007510010               0.000548956              -0.001793999               0.003101311               0.001307313               0.000000000               0.000000000               0.000000000               0.000000000              -0.001924384               0.006901704               0.000505123              -0.001584353               0.002828663               0.001244310               0.000000000               0.000000000               0.000000000               0.000000000              -0.001565617               0.006338118               0.000452736              -0.001379368               0.002572474               0.001193106               0.000000000               0.000000000               0.000000000               0.000000000              -0.001222639               0.005821734               0.000396080              -0.001186203               0.002335960               0.001149756               0.000000000               0.000000000               0.000000000               0.000000000              -0.000901720               0.005362144               0.000332954              -0.001008411               0.002123500               0.001115090               0.000000000               0.000000000               0.000000000               0.000000000              -0.000611270               0.004972046               0.000272141              -0.000850730               0.001940909               0.001090179               0.000000000               0.000000000               0.000000000               0.000000000              -0.000366867               0.004662268               0.000207465              -0.000720357               0.001794193               0.001073836               0.000000000               0.000000000               0.000000000               0.000000000              -0.000180272               0.004440998               0.000131511              -0.000622725               0.001687893               0.001065168               0.000000000               0.000000000               0.000000000               0.000000000              -0.000062734               0.004312501               0.000063586              -0.000562586               0.001625015               0.001062428               0.000000000               0.000000000               0.000000000               0.000000000              -0.000011515               0.004265770               0.000021106              -0.000537538               0.001601088               0.001063550               0.000000000               0.000000000               0.000000000               0.000000000              -0.000000999               0.004266279               0.000006305              -0.000533658               0.001599965               0.001066307               0.000000000               0.000000000               0.000000000               0.000000000              -0.000098228               0.007893816              -0.002541917              -0.001023562               0.002972432               0.001948870               0.000000000               0.000000000               0.000000000               0.000000000              -0.002047775               0.008537531              -0.001438188              -0.001835103               0.003457516               0.001622413               0.000000000               0.000000000               0.000000000               0.000000000              -0.003539748               0.009397666              -0.000397446              -0.002502107               0.003966560               0.001464452               0.000000000               0.000000000               0.000000000               0.000000000              -0.003650431               0.009094631              -0.000075823              -0.002505734               0.003866758               0.001361024               0.000000000               0.000000000               0.000000000               0.000000000              -0.003327088               0.008515730               0.000037412              -0.002312119               0.003609254               0.001297136               0.000000000               0.000000000               0.000000000               0.000000000              -0.002864520               0.007894734               0.000081824              -0.002061032               0.003318562               0.001257531               0.000000000               0.000000000               0.000000000               0.000000000              -0.002370168               0.007300538               0.000097858              -0.001801376               0.003033947               0.001232571               0.000000000               0.000000000               0.000000000               0.000000000              -0.001890872               0.006735163               0.000096134              -0.001550968               0.002762022               0.001211053               0.000000000               0.000000000               0.000000000               0.000000000              -0.001442959               0.006211088               0.000082880              -0.001317492               0.002509506               0.001192014               0.000000000               0.000000000               0.000000000               0.000000000              -0.001041394               0.005740630               0.000062582              -0.001108099               0.002282891               0.001174792               0.000000000               0.000000000               0.000000000               0.000000000              -0.000694284               0.005332939               0.000040817              -0.000926971               0.002086619               0.001159648               0.000000000               0.000000000               0.000000000               0.000000000              -0.000405698               0.005007306               0.000025220              -0.000778048               0.001928435               0.001150387               0.000000000               0.000000000               0.000000000               0.000000000              -0.000188482               0.004768241               0.000016074              -0.000666709               0.001811634               0.001144925               0.000000000               0.000000000               0.000000000               0.000000000              -0.000049135               0.004623620               0.000003299              -0.000596377               0.001739983               0.001143607               0.000000000               0.000000000               0.000000000               0.000000000               0.000011742               0.004563507              -0.000004790              -0.000566034               0.001709832               0.001143798               0.000000000               0.000000000               0.000000000               0.000000000               0.000016678               0.004566576              -0.000002808              -0.000564566               0.001710365               0.001145799               0.000000000               0.000000000               0.000000000               0.000000000               0.000009530               0.004589382              -0.000002186              -0.000570097               0.001719811               0.001149714               0.000000000               0.000000000               0.000000000               0.000000000              -0.001412618               0.005780678              -0.001644964              -0.001252314               0.002344311               0.001091997               0.000000000               0.000000000               0.000000000               0.000000000              -0.003048955               0.007243857              -0.001293501              -0.002048835               0.003097540               0.001048704               0.000000000               0.000000000               0.000000000               0.000000000              -0.004301805               0.008663685              -0.000878509              -0.002696131               0.003786576               0.001090445               0.000000000               0.000000000               0.000000000               0.000000000              -0.004129012               0.008607426              -0.000637617              -0.002624301               0.003743880               0.001119579               0.000000000               0.000000000               0.000000000               0.000000000              -0.003589846               0.008173623              -0.000488463              -0.002367889               0.003513810               0.001145921               0.000000000               0.000000000               0.000000000               0.000000000              -0.002964759               0.007655166              -0.000391670              -0.002068675               0.003241255               0.001172579               0.000000000               0.000000000               0.000000000               0.000000000              -0.002348345               0.007131511              -0.000326771              -0.001772064               0.002967834               0.001195771               0.000000000               0.000000000               0.000000000               0.000000000              -0.001777227               0.006617423              -0.000278448              -0.001493634               0.002703664               0.001210029               0.000000000               0.000000000               0.000000000               0.000000000              -0.001265405               0.006139456              -0.000243493              -0.001241956               0.002460450               0.001218495               0.000000000               0.000000000               0.000000000               0.000000000              -0.000824638               0.005705709              -0.000217930              -0.001022450               0.002242701               0.001220250               0.000000000               0.000000000               0.000000000               0.000000000              -0.000460398               0.005333655              -0.000192357              -0.000839354               0.002057652               0.001218298               0.000000000               0.000000000               0.000000000               0.000000000              -0.000177229               0.005049435              -0.000154850              -0.000697639               0.001915674               0.001218036               0.000000000               0.000000000               0.000000000               0.000000000               0.000013649               0.004859616              -0.000105659              -0.000602332               0.001820633               0.001218301               0.000000000               0.000000000               0.000000000               0.000000000               0.000103840               0.004760173              -0.000061317              -0.000556080               0.001772069               0.001215989               0.000000000               0.000000000               0.000000000               0.000000000               0.000112922               0.004745443              -0.000028528              -0.000550833               0.001765410               0.001214576               0.000000000               0.000000000               0.000000000               0.000000000               0.000083779               0.004791720              -0.000005328              -0.000567546               0.001786406               0.001218860               0.000000000               0.000000000               0.000000000               0.000000000               0.000062110               0.004831149               0.000002808              -0.000580601               0.001803900               0.001223300               0.000000000               0.000000000               0.000000000               0.000000000              -0.002926550               0.003844068              -0.000718367              -0.001577961               0.001807330               0.000229368               0.000000000               0.000000000               0.000000000               0.000000000              -0.003905480               0.005741144              -0.001140051              -0.002182193               0.002641093               0.000458900               0.000000000               0.000000000               0.000000000               0.000000000              -0.004777280               0.007556025              -0.001377092              -0.002735977               0.003430642               0.000694665               0.000000000               0.000000000               0.000000000               0.000000000              -0.004449231               0.007882270              -0.001225835              -0.002653739               0.003511977               0.000858238               0.000000000               0.000000000               0.000000000               0.000000000              -0.003823544               0.007718479              -0.001044184              -0.002398633               0.003372345               0.000973712               0.000000000               0.000000000               0.000000000               0.000000000              -0.003135685               0.007398863              -0.000891459              -0.002100735               0.003166508               0.001065773               0.000000000               0.000000000               0.000000000               0.000000000              -0.002470867               0.007027113              -0.000767636              -0.001804960               0.002944001               0.001139041               0.000000000               0.000000000               0.000000000               0.000000000              -0.001862891               0.006636607              -0.000660887              -0.001528156               0.002721566               0.001193409               0.000000000               0.000000000               0.000000000               0.000000000              -0.001322816               0.006251160              -0.000573123              -0.001277448               0.002509515               0.001232067               0.000000000               0.000000000               0.000000000               0.000000000              -0.000854595               0.005875086              -0.000502557              -0.001054856               0.002309961               0.001255105               0.000000000               0.000000000               0.000000000               0.000000000              -0.000457017               0.005526420              -0.000434679              -0.000862182               0.002129515               0.001267334               0.000000000               0.000000000               0.000000000               0.000000000              -0.000139548               0.005236766              -0.000352155              -0.000706924               0.001981212               0.001274288               0.000000000               0.000000000               0.000000000               0.000000000               0.000085782               0.005024557              -0.000254513              -0.000595900               0.001873469               0.001277569               0.000000000               0.000000000               0.000000000               0.000000000               0.000215060               0.004903069              -0.000158816              -0.000532235               0.001811752               0.001279517               0.000000000               0.000000000               0.000000000               0.000000000               0.000256777               0.004869982              -0.000080327              -0.000512455               0.001794129               0.001281674               0.000000000               0.000000000               0.000000000               0.000000000               0.000239268               0.004910576              -0.000027483              -0.000524095               0.001811541               0.001287445               0.000000000               0.000000000               0.000000000               0.000000000               0.000203396               0.004937422              -0.000001981              -0.000540903               0.001826092               0.001285189               0.000000000               0.000000000               0.000000000               0.000000000              -0.004826432               0.002100513               0.000163255              -0.002072473               0.001390986              -0.000681487               0.000000000               0.000000000               0.000000000               0.000000000              -0.004870952               0.004222069              -0.000933593              -0.002354360               0.002192128              -0.000162232               0.000000000               0.000000000               0.000000000               0.000000000              -0.005182548               0.006233873              -0.001778395              -0.002722683               0.002985498               0.000262814               0.000000000               0.000000000               0.000000000               0.000000000              -0.004713896               0.006919123              -0.001782735              -0.002632595               0.003183883               0.000551287               0.000000000               0.000000000               0.000000000               0.000000000              -0.004042998               0.007064592              -0.001605522              -0.002399193               0.003154571               0.000755378               0.000000000               0.000000000               0.000000000               0.000000000              -0.003334679               0.006982382              -0.001412548              -0.002123297               0.003035203               0.000911906               0.000000000               0.000000000               0.000000000               0.000000000              -0.002649526               0.006800332              -0.001235509              -0.001843609               0.002881291               0.001037682               0.000000000               0.000000000               0.000000000               0.000000000              -0.002015254               0.006564731              -0.001074542              -0.001576308               0.002713658               0.001137350               0.000000000               0.000000000               0.000000000               0.000000000              -0.001443728               0.006301110              -0.000937005              -0.001329034               0.002543360               0.001214327               0.000000000               0.000000000               0.000000000               0.000000000              -0.000938741               0.006014420              -0.000827203              -0.001103828               0.002372729               0.001268901               0.000000000               0.000000000               0.000000000               0.000000000              -0.000493799               0.005720435              -0.000727997              -0.000900227               0.002206868               0.001306641               0.000000000               0.000000000               0.000000000               0.000000000              -0.000112198               0.005447495              -0.000614026              -0.000723009               0.002056817               0.001333807               0.000000000               0.000000000               0.000000000               0.000000000               0.000194308               0.005222800              -0.000479650              -0.000579983               0.001934244               0.001354260               0.000000000               0.000000000               0.000000000               0.000000000               0.000405402               0.005063265              -0.000336347              -0.000480881               0.001848032               0.001367151               0.000000000               0.000000000               0.000000000               0.000000000               0.000512583               0.004975606              -0.000202694              -0.000429731               0.001801762               0.001372031               0.000000000               0.000000000               0.000000000               0.000000000               0.000526783               0.004963996              -0.000091537              -0.000422955               0.001795634               0.001372679               0.000000000               0.000000000               0.000000000               0.000000000               0.000485858               0.004957740              -0.000032345              -0.000437520               0.001798403               0.001360884               0.000000000               0.000000000               0.000000000               0.000000000              -0.006980826               0.000695617               0.000914879              -0.002704759               0.001133451              -0.001571308               0.000000000               0.000000000               0.000000000               0.000000000              -0.005974768               0.002792747              -0.000667520              -0.002589627               0.001794112              -0.000795515               0.000000000               0.000000000               0.000000000               0.000000000              -0.005525910               0.004723377              -0.001983723              -0.002662633               0.002461986              -0.000200647               0.000000000               0.000000000               0.000000000               0.000000000              -0.004840224               0.005655113              -0.002175425              -0.002521967               0.002725674               0.000203706               0.000000000               0.000000000               0.000000000               0.000000000              -0.004113379               0.006083581              -0.002052995              -0.002302960               0.002795493               0.000492533               0.000000000               0.000000000               0.000000000               0.000000000              -0.003396833               0.006250561              -0.001857762              -0.002055128               0.002768542               0.000713414               0.000000000               0.000000000               0.000000000               0.000000000              -0.002709299               0.006282359              -0.001653276              -0.001801278               0.002694524               0.000893246               0.000000000               0.000000000               0.000000000               0.000000000              -0.002061807               0.006224533              -0.001458140              -0.001551241               0.002591903               0.001040663               0.000000000               0.000000000               0.000000000               0.000000000              -0.001467580               0.006105297              -0.001287033              -0.001313502               0.002472912               0.001159410               0.000000000               0.000000000               0.000000000               0.000000000              -0.000927781               0.005947498              -0.001146462              -0.001091353               0.002346264               0.001254911               0.000000000               0.000000000               0.000000000               0.000000000              -0.000441379               0.005755162              -0.001020550              -0.000884911               0.002213338               0.001328428               0.000000000               0.000000000               0.000000000               0.000000000              -0.000005853               0.005542261              -0.000886006              -0.000694976               0.002079060               0.001384084               0.000000000               0.000000000               0.000000000               0.000000000               0.000377923               0.005345523              -0.000728283              -0.000526468               0.001957312               0.001430844               0.000000000               0.000000000               0.000000000               0.000000000               0.000687138               0.005185008              -0.000547106              -0.000390449               0.001858468               0.001468020               0.000000000               0.000000000               0.000000000               0.000000000               0.000896374               0.005073100              -0.000361747              -0.000297997               0.001790349               0.001492352               0.000000000               0.000000000               0.000000000               0.000000000               0.000989828               0.005017795              -0.000182057              -0.000256038               0.001757928               0.001501889               0.000000000               0.000000000               0.000000000               0.000000000               0.000984540               0.004992066              -0.000087682              -0.000254805               0.001748940               0.001494135               0.000000000               0.000000000               0.000000000               0.000000000              -0.009246701              -0.000296904               0.001420735              -0.003430397               0.001044490              -0.002385907               0.000000000               0.000000000               0.000000000               0.000000000              -0.007156878               0.001528650              -0.000385987              -0.002874907               0.001467842              -0.001407065               0.000000000               0.000000000               0.000000000               0.000000000              -0.005832394               0.003155641              -0.001961267              -0.002581599               0.001912400              -0.000669199               0.000000000               0.000000000               0.000000000               0.000000000              -0.004850620               0.004201120              -0.002313825              -0.002344118               0.002181730              -0.000162388               0.000000000               0.000000000               0.000000000               0.000000000              -0.004031747               0.004851003              -0.002272124              -0.002118276               0.002323076               0.000204800               0.000000000               0.000000000               0.000000000               0.000000000              -0.003300058               0.005246627              -0.002110296              -0.001893346               0.002379973               0.000486627               0.000000000               0.000000000               0.000000000               0.000000000              -0.002618082               0.005486442              -0.001915940              -0.001667582               0.002384656               0.000717074               0.000000000               0.000000000               0.000000000               0.000000000              -0.001973031               0.005618468              -0.001717374              -0.001442192               0.002353534               0.000911342               0.000000000               0.000000000               0.000000000               0.000000000              -0.001369140               0.005665761              -0.001535981              -0.001221645               0.002295783               0.001074138               0.000000000               0.000000000               0.000000000               0.000000000              -0.000808239               0.005647640              -0.001383442              -0.001009043               0.002218875               0.001209832               0.000000000               0.000000000               0.000000000               0.000000000              -0.000285058               0.005578008              -0.001244907              -0.000804146               0.002127366               0.001323220               0.000000000               0.000000000               0.000000000               0.000000000               0.000207408               0.005472987              -0.001101365              -0.000606344               0.002026426               0.001420081               0.000000000               0.000000000               0.000000000               0.000000000               0.000662360               0.005347218              -0.000933573              -0.000420017               0.001922393               0.001502377               0.000000000               0.000000000               0.000000000               0.000000000               0.001071654               0.005222269              -0.000733684              -0.000250913               0.001824377               0.001573463               0.000000000               0.000000000               0.000000000               0.000000000               0.001411285               0.005119342              -0.000510986              -0.000110686               0.001743326               0.001632640               0.000000000               0.000000000               0.000000000               0.000000000               0.001649580               0.005050097              -0.000267431              -0.000012670               0.001687572               0.001674902               0.000000000               0.000000000               0.000000000               0.000000000               0.001748512               0.005029196              -0.000142638               0.000027042               0.001667368               0.001694410               0.000000000               0.000000000               0.000000000               0.000000000              -0.011404319              -0.000901763               0.001578563              -0.004163896               0.001087370              -0.003076526               0.000000000               0.000000000               0.000000000               0.000000000              -0.008318516               0.000506802              -0.000144941              -0.003182791               0.001229855              -0.001952935               0.000000000               0.000000000               0.000000000               0.000000000              -0.006112711               0.001695648              -0.001703563              -0.002504219               0.001399946              -0.001104274               0.000000000               0.000000000               0.000000000               0.000000000              -0.004782579               0.002729012              -0.002140887              -0.002134590               0.001621189              -0.000513401               0.000000000               0.000000000               0.000000000               0.000000000              -0.003834801               0.003514954              -0.002175018              -0.001877416               0.001797444              -0.000079972               0.000000000               0.000000000               0.000000000               0.000000000              -0.003068171               0.004091881              -0.002066052              -0.001662046               0.001917961               0.000255915               0.000000000               0.000000000               0.000000000               0.000000000              -0.002389710               0.004519462              -0.001907097              -0.001461071               0.001993495               0.000532424               0.000000000               0.000000000               0.000000000               0.000000000              -0.001753470               0.004829166              -0.001733880              -0.001261195               0.002030104               0.000768909               0.000000000               0.000000000               0.000000000               0.000000000              -0.001149947               0.005033309              -0.001568745              -0.001060392               0.002031216               0.000970824               0.000000000               0.000000000               0.000000000               0.000000000              -0.000578001               0.005152436              -0.001428119              -0.000860804               0.002004396               0.001143592               0.000000000               0.000000000               0.000000000               0.000000000              -0.000029054               0.005211863              -0.001303611              -0.000662377               0.001958062               0.001295685               0.000000000               0.000000000               0.000000000               0.000000000               0.000510184               0.005230605              -0.001171987              -0.000462506               0.001897686               0.001435180               0.000000000               0.000000000               0.000000000               0.000000000               0.001038561               0.005207421              -0.001014785              -0.000261467               0.001822945               0.001561478               0.000000000               0.000000000               0.000000000               0.000000000               0.001550421               0.005155604              -0.000822464              -0.000063043               0.001739532               0.001676489               0.000000000               0.000000000               0.000000000               0.000000000               0.002033721               0.005100249              -0.000590211               0.000125113               0.001658362               0.001783475               0.000000000               0.000000000               0.000000000               0.000000000               0.002463521               0.005050715              -0.000317134               0.000292478               0.001586062               0.001878540               0.000000000               0.000000000               0.000000000               0.000000000               0.002722041               0.005051784              -0.000183227               0.000389288               0.001554148               0.001943437               0.000000000               0.000000000               0.000000000               0.000000000              -0.013199496              -0.001196133               0.001347644              -0.004800291               0.001201377              -0.003598914               0.000000000               0.000000000               0.000000000               0.000000000              -0.009317515              -0.000220896               0.000002940              -0.003466453               0.001081845              -0.002384608               0.000000000               0.000000000               0.000000000               0.000000000              -0.006352824               0.000514097              -0.001246364              -0.002446569               0.000986881              -0.001459687               0.000000000               0.000000000               0.000000000               0.000000000              -0.004683464               0.001455739              -0.001647533              -0.001938264               0.001131326              -0.000806938               0.000000000               0.000000000               0.000000000               0.000000000              -0.003591370               0.002300362              -0.001720374              -0.001634306               0.001311546              -0.000322760               0.000000000               0.000000000               0.000000000               0.000000000              -0.002775810               0.002995038              -0.001663449              -0.001415306               0.001470104               0.000054798               0.000000000               0.000000000               0.000000000               0.000000000              -0.002093094               0.003557102              -0.001556278              -0.001229546               0.001595537               0.000365991               0.000000000               0.000000000               0.000000000               0.000000000              -0.001467390               0.004002056              -0.001430025              -0.001050526               0.001684180               0.000633654               0.000000000               0.000000000               0.000000000               0.000000000              -0.000866434               0.004339973              -0.001303670              -0.000867408               0.001735779               0.000868371               0.000000000               0.000000000               0.000000000               0.000000000              -0.000284657               0.004589694              -0.001193544              -0.000680457               0.001756701               0.001076245               0.000000000               0.000000000               0.000000000               0.000000000               0.000280830               0.004768669              -0.001099671              -0.000490772               0.001753131               0.001262359               0.000000000               0.000000000               0.000000000               0.000000000               0.000849166               0.004894058              -0.001006345              -0.000293320               0.001729109               0.001435790               0.000000000               0.000000000               0.000000000               0.000000000               0.001436069               0.004974464              -0.000889215              -0.000083283               0.001685899               0.001602616               0.000000000               0.000000000               0.000000000               0.000000000               0.002038919               0.005010215              -0.000735140               0.000138316               0.001623950               0.001762266               0.000000000               0.000000000               0.000000000               0.000000000               0.002663875               0.005020855              -0.000539684               0.000371343               0.001549821               0.001921163               0.000000000               0.000000000               0.000000000               0.000000000               0.003306266               0.005017940              -0.000296094               0.000612601               0.001468430               0.002081031               0.000000000               0.000000000               0.000000000               0.000000000               0.003749063               0.005056576              -0.000178238               0.000773819               0.001427569               0.002201388               0.000000000               0.000000000               0.000000000               0.000000000              -0.014395297              -0.001297855               0.000774806              -0.005236001               0.001312706              -0.003923295               0.000000000               0.000000000               0.000000000               0.000000000              -0.009998235              -0.000646098               0.000038853              -0.003668573               0.001007485              -0.002661088               0.000000000               0.000000000               0.000000000               0.000000000              -0.006521389              -0.000252472              -0.000655573              -0.002413960               0.000720491              -0.001693469               0.000000000               0.000000000               0.000000000               0.000000000              -0.004608747               0.000589292              -0.000894484              -0.001801940               0.000797072              -0.001004868               0.000000000               0.000000000               0.000000000               0.000000000              -0.003398560               0.001446530              -0.000951312              -0.001455274               0.000967261              -0.000488013               0.000000000               0.000000000               0.000000000               0.000000000              -0.002534201               0.002199483              -0.000931690              -0.001225258               0.001141573              -0.000083686               0.000000000               0.000000000               0.000000000               0.000000000              -0.001838599               0.002832288              -0.000878273              -0.001043508               0.001291922               0.000248414               0.000000000               0.000000000               0.000000000               0.000000000              -0.001222465               0.003360781              -0.000811605              -0.000878520               0.001413089               0.000534569               0.000000000               0.000000000               0.000000000               0.000000000              -0.000632242               0.003794284              -0.000744162              -0.000711375               0.001501874               0.000790499               0.000000000               0.000000000               0.000000000               0.000000000              -0.000050315               0.004138442              -0.000682099              -0.000536172               0.001558191               0.001022019               0.000000000               0.000000000               0.000000000               0.000000000               0.000531325               0.004407472              -0.000630925              -0.000351687               0.001586371               0.001234685               0.000000000               0.000000000               0.000000000               0.000000000               0.001119681               0.004611045              -0.000586141              -0.000156500               0.001589166               0.001432666               0.000000000               0.000000000               0.000000000               0.000000000               0.001735206               0.004766779              -0.000525095               0.000054854               0.001570626               0.001625480               0.000000000               0.000000000               0.000000000               0.000000000               0.002401332               0.004879807              -0.000440422               0.000290521               0.001529746               0.001820267               0.000000000               0.000000000               0.000000000               0.000000000               0.003138639               0.004953466              -0.000331167               0.000557801               0.001465205               0.002023006               0.000000000               0.000000000               0.000000000               0.000000000               0.003961776               0.004989966              -0.000184660               0.000861912               0.001376001               0.002237913               0.000000000               0.000000000               0.000000000               0.000000000               0.004574191               0.005060524              -0.000112811               0.001082745               0.001325909               0.002408655               0.000000000               0.000000000               0.000000000               0.000000000              -0.014815595              -0.001315887               0.000000000              -0.005391359               0.001358482              -0.004032877               0.000000000               0.000000000               0.000000000               0.000000000              -0.010240011              -0.000783864              -0.000000000              -0.003742019               0.000986045              -0.002755974               0.000000000               0.000000000               0.000000000               0.000000000              -0.006583565              -0.000519191               0.000000000              -0.002403936               0.000628244              -0.001775692               0.000000000               0.000000000               0.000000000               0.000000000              -0.004583492               0.000282395               0.000000000              -0.001754107               0.000678829              -0.001075278               0.000000000               0.000000000               0.000000000               0.000000000              -0.003327571               0.001142040               0.000000000              -0.001390592               0.000844205              -0.000546387               0.000000000               0.000000000               0.000000000               0.000000000              -0.002443515               0.001906041               0.000000000              -0.001154571               0.001020197              -0.000134374               0.000000000               0.000000000               0.000000000               0.000000000              -0.001743585               0.002554455               0.000000000              -0.000973149               0.001175859               0.000202710               0.000000000               0.000000000               0.000000000               0.000000000              -0.001126985               0.003115878              -0.000000000              -0.000812102               0.001309316               0.000497214               0.000000000               0.000000000               0.000000000               0.000000000              -0.000542517               0.003589780              -0.000000000              -0.000652165               0.001413970               0.000761805               0.000000000               0.000000000               0.000000000               0.000000000               0.000035830               0.003966983               0.000000000              -0.000482436               0.001483126               0.001000691               0.000000000               0.000000000               0.000000000               0.000000000               0.000623949               0.004266340               0.000000000              -0.000299311               0.001521869               0.001222559               0.000000000               0.000000000               0.000000000               0.000000000               0.001219741               0.004500871               0.000000000              -0.000105206               0.001535344               0.001430138               0.000000000               0.000000000               0.000000000               0.000000000               0.001844071               0.004689415              -0.000000000               0.000105349               0.001528007               0.001633355               0.000000000               0.000000000               0.000000000               0.000000000               0.002535578               0.004837019              -0.000000000               0.000346211               0.001496920               0.001843131               0.000000000               0.000000000               0.000000000               0.000000000               0.003316535               0.004935547               0.000000000               0.000626751               0.001436249               0.002063000               0.000000000               0.000000000               0.000000000               0.000000000               0.004213833               0.004983556               0.000000000               0.000957233               0.001342091               0.002299324               0.000000000               0.000000000               0.000000000               0.000000000               0.004901318               0.005065615               0.000000000               0.001204780               0.001286928               0.002491708               0.000000000               0.000000000               0.000000000               0.000000000               0.000000000               0.000000000               0.000000000               0.000000000               0.000000000               0.000000000               0.000000000               0.000000000               0.000000000               0.000000000               0.000000000               0.000000000               0.000000000               0.000000000               0.000000000               0.000000000               0.000000000               0.000000000               0.000000000               0.000000000               0.000000000               0.000000000               0.000000000               0.000000000               0.000000000               0.000000000               0.000000000               0.000000000               0.000000000               0.000000000               0.000000000               0.000000000               0.000000000               0.000000000               0.000000000               0.000000000               0.000000000               0.000000000               0.000000000               0.000000000               0.000000000               0.000000000               0.000000000               0.000000000               0.000000000               0.000000000               0.000000000               0.000000000               0.000000000               0.000000000               0.000000000               0.000000000               0.000000000               0.000000000               0.000000000               0.000000000               0.000000000               0.000000000               0.000000000               0.000000000               0.000000000               0.000000000               0.000000000               0.000000000               0.000000000               0.000000000               0.000000000               0.000000000               0.000000000               0.000000000               0.000000000               0.000000000               0.000000000               0.000000000               0.000000000               0.000000000               0.000000000               0.000000000               0.000000000               0.000000000               0.000000000               0.000000000               0.000000000               0.000000000               0.000000000               0.000000000               0.000000000               0.000000000               0.000000000               0.000000000               0.000000000               0.000000000               0.000000000               0.000000000               0.000000000               0.000000000               0.000000000               0.000000000               0.000000000               0.000000000               0.000000000               0.000000000               0.000000000               0.000000000               0.000000000               0.000000000               0.000000000               0.000000000               0.000000000               0.000000000               0.000000000               0.000000000               0.000000000               0.000000000               0.000000000               0.000000000               0.000000000               0.000000000               0.000000000               0.000000000               0.000000000               0.000000000               0.000000000               0.000000000               0.000000000               0.000000000               0.000000000               0.000000000               0.000000000               0.000000000               0.000000000               0.000000000               0.000000000               0.000000000               0.000000000               0.000000000               0.000000000               0.000000000               0.000000000               0.000000000               0.000000000               0.000000000               0.000000000               0.000000000               0.000000000               0.000000000               0.000000000               0.000000000               0.000000000               0.000000000               0.000000000               0.000000000               0.000000000               0.000000000               0.000000000               0.000000000               0.000000000               0.000000000               0.000000000               0.000000000               0.000000000               0.000000000               0.000000000               0.000000000               0.000000000               0.000000000               0.000000000               0.000000000               0.000000000               0.000000000               0.002217858               0.022189140               0.001479412              -0.001941941               0.008043620               0.006101678               0.000000000               0.000000000               0.000000000               0.000000000               0.001995759               0.017003942               0.000635081              -0.001377080               0.006126951               0.004749871               0.000000000               0.000000000               0.000000000               0.000000000               0.002452289               0.012841483              -0.000191570              -0.000685575               0.004508977               0.003823401               0.000000000               0.000000000               0.000000000               0.000000000               0.002206371               0.010476890              -0.000521632              -0.000482221               0.003653002               0.003170781               0.000000000               0.000000000               0.000000000               0.000000000               0.001796572               0.008963139              -0.000645905              -0.000446677               0.003136575               0.002689898               0.000000000               0.000000000               0.000000000               0.000000000               0.001387687               0.007891709              -0.000677843              -0.000466080               0.002785903               0.002319823               0.000000000               0.000000000               0.000000000               0.000000000               0.001017372               0.007053541              -0.000664453              -0.000500177               0.002517882               0.002017705               0.000000000               0.000000000               0.000000000               0.000000000               0.000702078               0.006338573              -0.000636112              -0.000529041               0.002289184               0.001760142               0.000000000               0.000000000               0.000000000               0.000000000               0.000440676               0.005687493              -0.000602464              -0.000545682               0.002077706               0.001532024               0.000000000               0.000000000               0.000000000               0.000000000               0.000230616               0.005066424              -0.000565606              -0.000546821               0.001871065               0.001324244               0.000000000               0.000000000               0.000000000               0.000000000               0.000066967               0.004456690              -0.000531805              -0.000531972               0.001662872               0.001130900               0.000000000               0.000000000               0.000000000               0.000000000              -0.000057169               0.003846380              -0.000494614              -0.000502235               0.001449525               0.000947290               0.000000000               0.000000000               0.000000000               0.000000000              -0.000142117               0.003215281              -0.000446446              -0.000455203               0.001223484               0.000768281               0.000000000               0.000000000               0.000000000               0.000000000              -0.000179629               0.002550907              -0.000382838              -0.000386223               0.000979035               0.000592811               0.000000000               0.000000000               0.000000000               0.000000000              -0.000164611               0.001842201              -0.000293841              -0.000292004               0.000711395               0.000419392               0.000000000               0.000000000               0.000000000               0.000000000              -0.000096496               0.001073092              -0.000167293              -0.000170322               0.000414468               0.000244146               0.000000000               0.000000000               0.000000000               0.000000000              -0.000110633               0.000499458              -0.000104823              -0.000103920               0.000201124               0.000097204               0.000000000               0.000000000               0.000000000               0.000000000               0.002333947               0.020760858               0.002729755              -0.001719874               0.007493508               0.005773634               0.000000000               0.000000000               0.000000000               0.000000000               0.001762501               0.016115615               0.001165646              -0.001353511               0.005822988               0.004469477               0.000000000               0.000000000               0.000000000               0.000000000               0.001845814               0.012502533              -0.000350105              -0.000870634               0.004457681               0.003587046               0.000000000               0.000000000               0.000000000               0.000000000               0.001475474               0.010418839              -0.000933269              -0.000749051               0.003722595               0.002973544               0.000000000               0.000000000               0.000000000               0.000000000               0.001053466               0.009051289              -0.001141367              -0.000736360               0.003262519               0.002526159               0.000000000               0.000000000               0.000000000               0.000000000               0.000685723               0.008048853              -0.001187622              -0.000748959               0.002932577               0.002183618               0.000000000               0.000000000               0.000000000               0.000000000               0.000390425               0.007240005              -0.001158742              -0.000758590               0.002666174               0.001907584               0.000000000               0.000000000               0.000000000               0.000000000               0.000162489               0.006532492              -0.001101300              -0.000755627               0.002429351               0.001673724               0.000000000               0.000000000               0.000000000               0.000000000              -0.000013998               0.005878018              -0.001036005              -0.000740000               0.002205986               0.001465986               0.000000000               0.000000000               0.000000000               0.000000000              -0.000143004               0.005259408              -0.000967233              -0.000711051               0.001990135               0.001279084               0.000000000               0.000000000               0.000000000               0.000000000              -0.000231501               0.004660902              -0.000902866              -0.000669424               0.001776760               0.001107335               0.000000000               0.000000000               0.000000000               0.000000000              -0.000285301               0.004071948              -0.000831274              -0.000615980               0.001562629               0.000946649               0.000000000               0.000000000               0.000000000               0.000000000              -0.000299955               0.003482671              -0.000737239              -0.000547816               0.001343484               0.000795668               0.000000000               0.000000000               0.000000000               0.000000000              -0.000271609               0.002887337              -0.000620100              -0.000462770               0.001116693               0.000653923               0.000000000               0.000000000               0.000000000               0.000000000              -0.000204550               0.002288019              -0.000468053              -0.000362708               0.000883568               0.000520860               0.000000000               0.000000000               0.000000000               0.000000000              -0.000108791               0.001691623              -0.000262460              -0.000252249               0.000647952               0.000395703               0.000000000               0.000000000               0.000000000               0.000000000              -0.000097645               0.001282615              -0.000159820              -0.000196943               0.000493182               0.000296238               0.000000000               0.000000000               0.000000000               0.000000000               0.002399389               0.018603377               0.003565439              -0.001425650               0.006676280               0.005250630               0.000000000               0.000000000               0.000000000               0.000000000               0.001342879               0.014794895               0.001512323              -0.001345780               0.005380175               0.004034396               0.000000000               0.000000000               0.000000000               0.000000000               0.000912743               0.012008761              -0.000446693              -0.001158814               0.004389151               0.003230338               0.000000000               0.000000000               0.000000000               0.000000000               0.000410642               0.010324112              -0.001154943              -0.001136521               0.003820177               0.002683656               0.000000000               0.000000000               0.000000000               0.000000000               0.000014126               0.009148633              -0.001384417              -0.001138280               0.003428940               0.002290661               0.000000000               0.000000000               0.000000000               0.000000000              -0.000265818               0.008230140              -0.001419931              -0.001128447               0.003119501               0.001991054               0.000000000               0.000000000               0.000000000               0.000000000              -0.000445649               0.007448539              -0.001371400              -0.001098184               0.002848883               0.001750699               0.000000000               0.000000000               0.000000000               0.000000000              -0.000549010               0.006747215              -0.001289970              -0.001049278               0.002598809               0.001549530               0.000000000               0.000000000               0.000000000               0.000000000              -0.000602196               0.006098626              -0.001202721              -0.000988150               0.002362238               0.001374088               0.000000000               0.000000000               0.000000000               0.000000000              -0.000615426               0.005490029              -0.001113988              -0.000917036               0.002135670               0.001218634               0.000000000               0.000000000               0.000000000               0.000000000              -0.000591801               0.004913897              -0.001028290              -0.000836161               0.001916669               0.001080509               0.000000000               0.000000000               0.000000000               0.000000000              -0.000540250               0.004360506              -0.000936347              -0.000747656               0.001702706               0.000955050               0.000000000               0.000000000               0.000000000               0.000000000              -0.000459196               0.003835612              -0.000817977              -0.000651649               0.001495741               0.000844092               0.000000000               0.000000000               0.000000000               0.000000000              -0.000351315               0.003342136              -0.000669668              -0.000549509               0.001297204               0.000747695               0.000000000               0.000000000               0.000000000               0.000000000              -0.000230672               0.002890246              -0.000488548              -0.000447782               0.001112666               0.000664884               0.000000000               0.000000000               0.000000000               0.000000000              -0.000112547               0.002504030              -0.000266500              -0.000355208               0.000953071               0.000597863               0.000000000               0.000000000               0.000000000               0.000000000              -0.000075629               0.002281482              -0.000154595              -0.000313545               0.000865002               0.000551456               0.000000000               0.000000000               0.000000000               0.000000000               0.002265464               0.015986619               0.003910613              -0.001148778               0.005711745               0.004562967               0.000000000               0.000000000               0.000000000               0.000000000               0.000720620               0.013232627               0.001666138              -0.001383843               0.004872112               0.003488269               0.000000000               0.000000000               0.000000000               0.000000000              -0.000225859               0.011427731              -0.000439161              -0.001513160               0.004313592               0.002800432               0.000000000               0.000000000               0.000000000               0.000000000              -0.000803795               0.010169268              -0.001139254              -0.001572578               0.003913915               0.002341337               0.000000000               0.000000000               0.000000000               0.000000000              -0.001113049               0.009179626              -0.001336751              -0.001564843               0.003581459               0.002016616               0.000000000               0.000000000               0.000000000               0.000000000              -0.001243957               0.008338655              -0.001349090              -0.001508812               0.003282461               0.001773649               0.000000000               0.000000000               0.000000000               0.000000000              -0.001266533               0.007587522              -0.001286666              -0.001423387               0.003003611               0.001580224               0.000000000               0.000000000               0.000000000               0.000000000              -0.001222275               0.006903957              -0.001197521              -0.001321345               0.002741744               0.001420399               0.000000000               0.000000000               0.000000000               0.000000000              -0.001133186               0.006275946              -0.001104805              -0.001209435               0.002495106               0.001285671               0.000000000               0.000000000               0.000000000               0.000000000              -0.001012021               0.005691526              -0.001013938              -0.001090946               0.002260805               0.001169859               0.000000000               0.000000000               0.000000000               0.000000000              -0.000864526               0.005147069              -0.000925034              -0.000967579               0.002038199               0.001070620               0.000000000               0.000000000               0.000000000               0.000000000              -0.000701023               0.004641311              -0.000829674              -0.000843046               0.001828103               0.000985058               0.000000000               0.000000000               0.000000000               0.000000000              -0.000529853               0.004188104              -0.000708687              -0.000722206               0.001636756               0.000914550               0.000000000               0.000000000               0.000000000               0.000000000              -0.000361319               0.003801629              -0.000556207              -0.000610697               0.001470762               0.000860065               0.000000000               0.000000000               0.000000000               0.000000000              -0.000206550               0.003493864              -0.000383222              -0.000514188               0.001336006               0.000821817               0.000000000               0.000000000               0.000000000               0.000000000              -0.000089196               0.003284838              -0.000198056              -0.000444052               0.001242952               0.000798900               0.000000000               0.000000000               0.000000000               0.000000000              -0.000045177               0.003202223              -0.000104952              -0.000417218               0.001206470               0.000789251               0.000000000               0.000000000               0.000000000               0.000000000               0.001825281               0.013182692               0.003790136              -0.000963357               0.004715305               0.003751948               0.000000000               0.000000000               0.000000000               0.000000000              -0.000086361               0.011591150               0.001667584              -0.001481277               0.004357437               0.002876160               0.000000000               0.000000000               0.000000000               0.000000000              -0.001434750               0.010790966              -0.000292357              -0.001886897               0.004225918               0.002339021               0.000000000               0.000000000               0.000000000               0.000000000              -0.001977251               0.009924823              -0.000887293              -0.001982067               0.003968930               0.001986863               0.000000000               0.000000000               0.000000000               0.000000000              -0.002125101               0.009097322              -0.001034766              -0.001934074               0.003677102               0.001743028               0.000000000               0.000000000               0.000000000               0.000000000              -0.002065389               0.008324519              -0.001033030              -0.001815081               0.003379839               0.001564758               0.000000000               0.000000000               0.000000000               0.000000000              -0.001906970               0.007609299              -0.000976729              -0.001666272               0.003091832               0.001425559               0.000000000               0.000000000               0.000000000               0.000000000              -0.001701738               0.006958732              -0.000901081              -0.001507990               0.002822217               0.001314228               0.000000000               0.000000000               0.000000000               0.000000000              -0.001467411               0.006361549              -0.000822226              -0.001345470               0.002568985               0.001223515               0.000000000               0.000000000               0.000000000               0.000000000              -0.001219090               0.005809199              -0.000742971              -0.001183306               0.002330816               0.001147510               0.000000000               0.000000000               0.000000000               0.000000000              -0.000963397               0.005303299              -0.000659933              -0.001024184               0.002109143               0.001084959               0.000000000               0.000000000               0.000000000               0.000000000              -0.000716634               0.004849287              -0.000573201              -0.000874897               0.001908045               0.001033149               0.000000000               0.000000000               0.000000000               0.000000000              -0.000487331               0.004468964              -0.000469683              -0.000741368               0.001736762               0.000995394               0.000000000               0.000000000               0.000000000               0.000000000              -0.000290585               0.004173087              -0.000342160              -0.000630604               0.001601216               0.000970613               0.000000000               0.000000000               0.000000000               0.000000000              -0.000141067               0.003970019              -0.000208288              -0.000549151               0.001506377               0.000957226               0.000000000               0.000000000               0.000000000               0.000000000              -0.000049382               0.003866148              -0.000092821              -0.000501785               0.001455965               0.000954179               0.000000000               0.000000000               0.000000000               0.000000000              -0.000016074               0.003847630              -0.000040295              -0.000486980               0.001444857               0.000957877               0.000000000               0.000000000               0.000000000               0.000000000               0.001026082               0.010425673               0.003296112              -0.000918429               0.003781332               0.002862903               0.000000000               0.000000000               0.000000000               0.000000000              -0.001026249               0.009991994               0.001574906              -0.001633840               0.003875244               0.002241405               0.000000000               0.000000000               0.000000000               0.000000000              -0.002575193               0.010112082              -0.000006078              -0.002229702               0.004113894               0.001884192               0.000000000               0.000000000               0.000000000               0.000000000              -0.002954932               0.009571171              -0.000456412              -0.002304490               0.003958522               0.001654032               0.000000000               0.000000000               0.000000000               0.000000000              -0.002882827               0.008876301              -0.000567859              -0.002190592               0.003688935               0.001498343               0.000000000               0.000000000               0.000000000               0.000000000              -0.002618638               0.008171693              -0.000575123              -0.002003446               0.003391686               0.001388240               0.000000000               0.000000000               0.000000000               0.000000000              -0.002280671               0.007510010              -0.000548956              -0.001793999               0.003101311               0.001307313               0.000000000               0.000000000               0.000000000               0.000000000              -0.001924384               0.006901704              -0.000505123              -0.001584353               0.002828663               0.001244310               0.000000000               0.000000000               0.000000000               0.000000000              -0.001565617               0.006338118              -0.000452736              -0.001379368               0.002572474               0.001193106               0.000000000               0.000000000               0.000000000               0.000000000              -0.001222639               0.005821734              -0.000396080              -0.001186203               0.002335960               0.001149756               0.000000000               0.000000000               0.000000000               0.000000000              -0.000901720               0.005362144              -0.000332954              -0.001008411               0.002123500               0.001115090               0.000000000               0.000000000               0.000000000               0.000000000              -0.000611270               0.004972046              -0.000272141              -0.000850730               0.001940909               0.001090179               0.000000000               0.000000000               0.000000000               0.000000000              -0.000366867               0.004662268              -0.000207465              -0.000720357               0.001794193               0.001073836               0.000000000               0.000000000               0.000000000               0.000000000              -0.000180272               0.004440998              -0.000131511              -0.000622725               0.001687893               0.001065168               0.000000000               0.000000000               0.000000000               0.000000000              -0.000062734               0.004312501              -0.000063586              -0.000562586               0.001625015               0.001062428               0.000000000               0.000000000               0.000000000               0.000000000              -0.000011515               0.004265770              -0.000021106              -0.000537538               0.001601088               0.001063550               0.000000000               0.000000000               0.000000000               0.000000000              -0.000000999               0.004266279              -0.000006305              -0.000533658               0.001599965               0.001066307               0.000000000               0.000000000               0.000000000               0.000000000              -0.000098228               0.007893816               0.002541917              -0.001023562               0.002972432               0.001948870               0.000000000               0.000000000               0.000000000               0.000000000              -0.002047775               0.008537531               0.001438188              -0.001835103               0.003457516               0.001622413               0.000000000               0.000000000               0.000000000               0.000000000              -0.003539748               0.009397666               0.000397446              -0.002502107               0.003966560               0.001464452               0.000000000               0.000000000               0.000000000               0.000000000              -0.003650431               0.009094631               0.000075823              -0.002505734               0.003866758               0.001361024               0.000000000               0.000000000               0.000000000               0.000000000              -0.003327088               0.008515730              -0.000037412              -0.002312119               0.003609254               0.001297136               0.000000000               0.000000000               0.000000000               0.000000000              -0.002864520               0.007894734              -0.000081824              -0.002061032               0.003318562               0.001257531               0.000000000               0.000000000               0.000000000               0.000000000              -0.002370168               0.007300538              -0.000097858              -0.001801376               0.003033947               0.001232571               0.000000000               0.000000000               0.000000000               0.000000000              -0.001890872               0.006735163              -0.000096134              -0.001550968               0.002762022               0.001211053               0.000000000               0.000000000               0.000000000               0.000000000              -0.001442959               0.006211088              -0.000082880              -0.001317492               0.002509506               0.001192014               0.000000000               0.000000000               0.000000000               0.000000000              -0.001041394               0.005740630              -0.000062582              -0.001108099               0.002282891               0.001174792               0.000000000               0.000000000               0.000000000               0.000000000              -0.000694284               0.005332939              -0.000040817              -0.000926971               0.002086619               0.001159648               0.000000000               0.000000000               0.000000000               0.000000000              -0.000405698               0.005007306              -0.000025220              -0.000778048               0.001928435               0.001150387               0.000000000               0.000000000               0.000000000               0.000000000              -0.000188482               0.004768241              -0.000016074              -0.000666709               0.001811634               0.001144925               0.000000000               0.000000000               0.000000000               0.000000000              -0.000049135               0.004623620              -0.000003299              -0.000596377               0.001739983               0.001143607               0.000000000               0.000000000               0.000000000               0.000000000               0.000011742               0.004563507               0.000004790              -0.000566034               0.001709832               0.001143798               0.000000000               0.000000000               0.000000000               0.000000000               0.000016678               0.004566576               0.000002808              -0.000564566               0.001710365               0.001145799               0.000000000               0.000000000               0.000000000               0.000000000               0.000009530               0.004589382               0.000002186              -0.000570097               0.001719811               0.001149714               0.000000000               0.000000000               0.000000000               0.000000000              -0.001412618               0.005780678               0.001644964              -0.001252314               0.002344311               0.001091997               0.000000000               0.000000000               0.000000000               0.000000000              -0.003048955               0.007243857               0.001293501              -0.002048835               0.003097540               0.001048704               0.000000000               0.000000000               0.000000000               0.000000000              -0.004301805               0.008663685               0.000878509              -0.002696131               0.003786576               0.001090445               0.000000000               0.000000000               0.000000000               0.000000000              -0.004129012               0.008607426               0.000637617              -0.002624301               0.003743880               0.001119579               0.000000000               0.000000000               0.000000000               0.000000000              -0.003589846               0.008173623               0.000488463              -0.002367889               0.003513810               0.001145921               0.000000000               0.000000000               0.000000000               0.000000000              -0.002964759               0.007655166               0.000391670              -0.002068675               0.003241255               0.001172579               0.000000000               0.000000000               0.000000000               0.000000000              -0.002348345               0.007131511               0.000326771              -0.001772064               0.002967834               0.001195771               0.000000000               0.000000000               0.000000000               0.000000000              -0.001777227               0.006617423               0.000278448              -0.001493634               0.002703664               0.001210029               0.000000000               0.000000000               0.000000000               0.000000000              -0.001265405               0.006139456               0.000243493              -0.001241956               0.002460450               0.001218495               0.000000000               0.000000000               0.000000000               0.000000000              -0.000824638               0.005705709               0.000217930              -0.001022450               0.002242701               0.001220250               0.000000000               0.000000000               0.000000000               0.000000000              -0.000460398               0.005333655               0.000192357              -0.000839354               0.002057652               0.001218298               0.000000000               0.000000000               0.000000000               0.000000000              -0.000177229               0.005049435               0.000154850              -0.000697639               0.001915674               0.001218036               0.000000000               0.000000000               0.000000000               0.000000000               0.000013649               0.004859616               0.000105659              -0.000602332               0.001820633               0.001218301               0.000000000               0.000000000               0.000000000               0.000000000               0.000103840               0.004760173               0.000061317              -0.000556080               0.001772069               0.001215989               0.000000000               0.000000000               0.000000000               0.000000000               0.000112922               0.004745443               0.000028528              -0.000550833               0.001765410               0.001214576               0.000000000               0.000000000               0.000000000               0.000000000               0.000083779               0.004791720               0.000005328              -0.000567546               0.001786406               0.001218860               0.000000000               0.000000000               0.000000000               0.000000000               0.000062110               0.004831149              -0.000002808              -0.000580601               0.001803900               0.001223300               0.000000000               0.000000000               0.000000000               0.000000000              -0.002926550               0.003844068               0.000718367              -0.001577961               0.001807330               0.000229368               0.000000000               0.000000000               0.000000000               0.000000000              -0.003905480               0.005741144               0.001140051              -0.002182193               0.002641093               0.000458900               0.000000000               0.000000000               0.000000000               0.000000000              -0.004777280               0.007556025               0.001377092              -0.002735977               0.003430642               0.000694665               0.000000000               0.000000000               0.000000000               0.000000000              -0.004449231               0.007882270               0.001225835              -0.002653739               0.003511977               0.000858238               0.000000000               0.000000000               0.000000000               0.000000000              -0.003823544               0.007718479               0.001044184              -0.002398633               0.003372345               0.000973712               0.000000000               0.000000000               0.000000000               0.000000000              -0.003135685               0.007398863               0.000891459              -0.002100735               0.003166508               0.001065773               0.000000000               0.000000000               0.000000000               0.000000000              -0.002470867               0.007027113               0.000767636              -0.001804960               0.002944001               0.001139041               0.000000000               0.000000000               0.000000000               0.000000000              -0.001862891               0.006636607               0.000660887              -0.001528156               0.002721566               0.001193409               0.000000000               0.000000000               0.000000000               0.000000000              -0.001322816               0.006251160               0.000573123              -0.001277448               0.002509515               0.001232067               0.000000000               0.000000000               0.000000000               0.000000000              -0.000854595               0.005875086               0.000502557              -0.001054856               0.002309961               0.001255105               0.000000000               0.000000000               0.000000000               0.000000000              -0.000457017               0.005526420               0.000434679              -0.000862182               0.002129515               0.001267334               0.000000000               0.000000000               0.000000000               0.000000000              -0.000139548               0.005236766               0.000352155              -0.000706924               0.001981212               0.001274288               0.000000000               0.000000000               0.000000000               0.000000000               0.000085782               0.005024557               0.000254513              -0.000595900               0.001873469               0.001277569               0.000000000               0.000000000               0.000000000               0.000000000               0.000215060               0.004903069               0.000158816              -0.000532235               0.001811752               0.001279517               0.000000000               0.000000000               0.000000000               0.000000000               0.000256777               0.004869982               0.000080327              -0.000512455               0.001794129               0.001281674               0.000000000               0.000000000               0.000000000               0.000000000               0.000239268               0.004910576               0.000027483              -0.000524095               0.001811541               0.001287445               0.000000000               0.000000000               0.000000000               0.000000000               0.000203396               0.004937422               0.000001981              -0.000540903               0.001826092               0.001285189               0.000000000               0.000000000               0.000000000               0.000000000              -0.004826432               0.002100513              -0.000163255              -0.002072473               0.001390986              -0.000681487               0.000000000               0.000000000               0.000000000               0.000000000              -0.004870952               0.004222069               0.000933593              -0.002354360               0.002192128              -0.000162232               0.000000000               0.000000000               0.000000000               0.000000000              -0.005182548               0.006233873               0.001778395              -0.002722683               0.002985498               0.000262814               0.000000000               0.000000000               0.000000000               0.000000000              -0.004713896               0.006919123               0.001782735              -0.002632595               0.003183883               0.000551287               0.000000000               0.000000000               0.000000000               0.000000000              -0.004042998               0.007064592               0.001605522              -0.002399193               0.003154571               0.000755378               0.000000000               0.000000000               0.000000000               0.000000000              -0.003334679               0.006982382               0.001412548              -0.002123297               0.003035203               0.000911906               0.000000000               0.000000000               0.000000000               0.000000000              -0.002649526               0.006800332               0.001235509              -0.001843609               0.002881291               0.001037682               0.000000000               0.000000000               0.000000000               0.000000000              -0.002015254               0.006564731               0.001074542              -0.001576308               0.002713658               0.001137350               0.000000000               0.000000000               0.000000000               0.000000000              -0.001443728               0.006301110               0.000937005              -0.001329034               0.002543360               0.001214327               0.000000000               0.000000000               0.000000000               0.000000000              -0.000938741               0.006014420               0.000827203              -0.001103828               0.002372729               0.001268901               0.000000000               0.000000000               0.000000000               0.000000000              -0.000493799               0.005720435               0.000727997              -0.000900227               0.002206868               0.001306641               0.000000000               0.000000000               0.000000000               0.000000000              -0.000112198               0.005447495               0.000614026              -0.000723009               0.002056817               0.001333807               0.000000000               0.000000000               0.000000000               0.000000000               0.000194308               0.005222800               0.000479650              -0.000579983               0.001934244               0.001354260               0.000000000               0.000000000               0.000000000               0.000000000               0.000405402               0.005063265               0.000336347              -0.000480881               0.001848032               0.001367151               0.000000000               0.000000000               0.000000000               0.000000000               0.000512583               0.004975606               0.000202694              -0.000429731               0.001801762               0.001372031               0.000000000               0.000000000               0.000000000               0.000000000               0.000526783               0.004963996               0.000091537              -0.000422955               0.001795634               0.001372679               0.000000000               0.000000000               0.000000000               0.000000000               0.000485858               0.004957740               0.000032345              -0.000437520               0.001798403               0.001360884               0.000000000               0.000000000               0.000000000               0.000000000              -0.006980826               0.000695617              -0.000914879              -0.002704759               0.001133451              -0.001571308               0.000000000               0.000000000               0.000000000               0.000000000              -0.005974768               0.002792747               0.000667520              -0.002589627               0.001794112              -0.000795515               0.000000000               0.000000000               0.000000000               0.000000000              -0.005525910               0.004723377               0.001983723              -0.002662633               0.002461986              -0.000200647               0.000000000               0.000000000               0.000000000               0.000000000              -0.004840224               0.005655113               0.002175425              -0.002521967               0.002725674               0.000203706               0.000000000               0.000000000               0.000000000               0.000000000              -0.004113379               0.006083581               0.002052995              -0.002302960               0.002795493               0.000492533               0.000000000               0.000000000               0.000000000               0.000000000              -0.003396833               0.006250561               0.001857762              -0.002055128               0.002768542               0.000713414               0.000000000               0.000000000               0.000000000               0.000000000              -0.002709299               0.006282359               0.001653276              -0.001801278               0.002694524               0.000893246               0.000000000               0.000000000               0.000000000               0.000000000              -0.002061807               0.006224533               0.001458140              -0.001551241               0.002591903               0.001040663               0.000000000               0.000000000               0.000000000               0.000000000              -0.001467580               0.006105297               0.001287033              -0.001313502               0.002472912               0.001159410               0.000000000               0.000000000               0.000000000               0.000000000              -0.000927781               0.005947498               0.001146462              -0.001091353               0.002346264               0.001254911               0.000000000               0.000000000               0.000000000               0.000000000              -0.000441379               0.005755162               0.001020550              -0.000884911               0.002213338               0.001328428               0.000000000               0.000000000               0.000000000               0.000000000              -0.000005853               0.005542261               0.000886006              -0.000694976               0.002079060               0.001384084               0.000000000               0.000000000               0.000000000               0.000000000               0.000377923               0.005345523               0.000728283              -0.000526468               0.001957312               0.001430844               0.000000000               0.000000000               0.000000000               0.000000000               0.000687138               0.005185008               0.000547106              -0.000390449               0.001858468               0.001468020               0.000000000               0.000000000               0.000000000               0.000000000               0.000896374               0.005073100               0.000361747              -0.000297997               0.001790349               0.001492352               0.000000000               0.000000000               0.000000000               0.000000000               0.000989828               0.005017795               0.000182057              -0.000256038               0.001757928               0.001501889               0.000000000               0.000000000               0.000000000               0.000000000               0.000984540               0.004992066               0.000087682              -0.000254805               0.001748940               0.001494135               0.000000000               0.000000000               0.000000000               0.000000000              -0.009246701              -0.000296904              -0.001420735              -0.003430397               0.001044490              -0.002385907               0.000000000               0.000000000               0.000000000               0.000000000              -0.007156878               0.001528650               0.000385987              -0.002874907               0.001467842              -0.001407065               0.000000000               0.000000000               0.000000000               0.000000000              -0.005832394               0.003155641               0.001961267              -0.002581599               0.001912400              -0.000669199               0.000000000               0.000000000               0.000000000               0.000000000              -0.004850620               0.004201120               0.002313825              -0.002344118               0.002181730              -0.000162388               0.000000000               0.000000000               0.000000000               0.000000000              -0.004031747               0.004851003               0.002272124              -0.002118276               0.002323076               0.000204800               0.000000000               0.000000000               0.000000000               0.000000000              -0.003300058               0.005246627               0.002110296              -0.001893346               0.002379973               0.000486627               0.000000000               0.000000000               0.000000000               0.000000000              -0.002618082               0.005486442               0.001915940              -0.001667582               0.002384656               0.000717074               0.000000000               0.000000000               0.000000000               0.000000000              -0.001973031               0.005618468               0.001717374              -0.001442192               0.002353534               0.000911342               0.000000000               0.000000000               0.000000000               0.000000000              -0.001369140               0.005665761               0.001535981              -0.001221645               0.002295783               0.001074138               0.000000000               0.000000000               0.000000000               0.000000000              -0.000808239               0.005647640               0.001383442              -0.001009043               0.002218875               0.001209832               0.000000000               0.000000000               0.000000000               0.000000000              -0.000285058               0.005578008               0.001244907              -0.000804146               0.002127366               0.001323220               0.000000000               0.000000000               0.000000000               0.000000000               0.000207408               0.005472987               0.001101365              -0.000606344               0.002026426               0.001420081               0.000000000               0.000000000               0.000000000               0.000000000               0.000662360               0.005347218               0.000933573              -0.000420017               0.001922393               0.001502377               0.000000000               0.000000000               0.000000000               0.000000000               0.001071654               0.005222269               0.000733684              -0.000250913               0.001824377               0.001573463               0.000000000               0.000000000               0.000000000               0.000000000               0.001411285               0.005119342               0.000510986              -0.000110686               0.001743326               0.001632640               0.000000000               0.000000000               0.000000000               0.000000000               0.001649580               0.005050097               0.000267431              -0.000012670               0.001687572               0.001674902               0.000000000               0.000000000               0.000000000               0.000000000               0.001748512               0.005029196               0.000142638               0.000027042               0.001667368               0.001694410               0.000000000               0.000000000               0.000000000               0.000000000              -0.011404319              -0.000901763              -0.001578563              -0.004163896               0.001087370              -0.003076526               0.000000000               0.000000000               0.000000000               0.000000000              -0.008318516               0.000506802               0.000144941              -0.003182791               0.001229855              -0.001952935               0.000000000               0.000000000               0.000000000               0.000000000              -0.006112711               0.001695648               0.001703563              -0.002504219               0.001399946              -0.001104274               0.000000000               0.000000000               0.000000000               0.000000000              -0.004782579               0.002729012               0.002140887              -0.002134590               0.001621189              -0.000513401               0.000000000               0.000000000               0.000000000               0.000000000              -0.003834801               0.003514954               0.002175018              -0.001877416               0.001797444              -0.000079972               0.000000000               0.000000000               0.000000000               0.000000000              -0.003068171               0.004091881               0.002066052              -0.001662046               0.001917961               0.000255915               0.000000000               0.000000000               0.000000000               0.000000000              -0.002389710               0.004519462               0.001907097              -0.001461071               0.001993495               0.000532424               0.000000000               0.000000000               0.000000000               0.000000000              -0.001753470               0.004829166               0.001733880              -0.001261195               0.002030104               0.000768909               0.000000000               0.000000000               0.000000000               0.000000000              -0.001149947               0.005033309               0.001568745              -0.001060392               0.002031216               0.000970824               0.000000000               0.000000000               0.000000000               0.000000000              -0.000578001               0.005152436               0.001428119              -0.000860804               0.002004396               0.001143592               0.000000000               0.000000000               0.000000000               0.000000000              -0.000029054               0.005211863               0.001303611              -0.000662377               0.001958062               0.001295685               0.000000000               0.000000000               0.000000000               0.000000000               0.000510184               0.005230605               0.001171987              -0.000462506               0.001897686               0.001435180               0.000000000               0.000000000               0.000000000               0.000000000               0.001038561               0.005207421               0.001014785              -0.000261467               0.001822945               0.001561478               0.000000000               0.000000000               0.000000000               0.000000000               0.001550421               0.005155604               0.000822464              -0.000063043               0.001739532               0.001676489               0.000000000               0.000000000               0.000000000               0.000000000               0.002033721               0.005100249               0.000590211               0.000125113               0.001658362               0.001783475               0.000000000               0.000000000               0.000000000               0.000000000               0.002463521               0.005050715               0.000317134               0.000292478               0.001586062               0.001878540               0.000000000               0.000000000               0.000000000               0.000000000               0.002722041               0.005051784               0.000183227               0.000389288               0.001554148               0.001943437               0.000000000               0.000000000               0.000000000               0.000000000              -0.013199496              -0.001196133              -0.001347644              -0.004800291               0.001201377              -0.003598914               0.000000000               0.000000000               0.000000000               0.000000000              -0.009317515              -0.000220896              -0.000002940              -0.003466453               0.001081845              -0.002384608               0.000000000               0.000000000               0.000000000               0.000000000              -0.006352824               0.000514097               0.001246364              -0.002446569               0.000986881              -0.001459687               0.000000000               0.000000000               0.000000000               0.000000000              -0.004683464               0.001455739               0.001647533              -0.001938264               0.001131326              -0.000806938               0.000000000               0.000000000               0.000000000               0.000000000              -0.003591370               0.002300362               0.001720374              -0.001634306               0.001311546              -0.000322760               0.000000000               0.000000000               0.000000000               0.000000000              -0.002775810               0.002995038               0.001663449              -0.001415306               0.001470104               0.000054798               0.000000000               0.000000000               0.000000000               0.000000000              -0.002093094               0.003557102               0.001556278              -0.001229546               0.001595537               0.000365991               0.000000000               0.000000000               0.000000000               0.000000000              -0.001467390               0.004002056               0.001430025              -0.001050526               0.001684180               0.000633654               0.000000000               0.000000000               0.000000000               0.000000000              -0.000866434               0.004339973               0.001303670              -0.000867408               0.001735779               0.000868371               0.000000000               0.000000000               0.000000000               0.000000000              -0.000284657               0.004589694               0.001193544              -0.000680457               0.001756701               0.001076245               0.000000000               0.000000000               0.000000000               0.000000000               0.000280830               0.004768669               0.001099671              -0.000490772               0.001753131               0.001262359               0.000000000               0.000000000               0.000000000               0.000000000               0.000849166               0.004894058               0.001006345              -0.000293320               0.001729109               0.001435790               0.000000000               0.000000000               0.000000000               0.000000000               0.001436069               0.004974464               0.000889215              -0.000083283               0.001685899               0.001602616               0.000000000               0.000000000               0.000000000               0.000000000               0.002038919               0.005010215               0.000735140               0.000138316               0.001623950               0.001762266               0.000000000               0.000000000               0.000000000               0.000000000               0.002663875               0.005020855               0.000539684               0.000371343               0.001549821               0.001921163               0.000000000               0.000000000               0.000000000               0.000000000               0.003306266               0.005017940               0.000296094               0.000612601               0.001468430               0.002081031               0.000000000               0.000000000               0.000000000               0.000000000               0.003749063               0.005056576               0.000178238               0.000773819               0.001427569               0.002201388               0.000000000               0.000000000               0.000000000               0.000000000              -0.014395297              -0.001297855              -0.000774806              -0.005236001               0.001312706              -0.003923295               0.000000000               0.000000000               0.000000000               0.000000000              -0.009998235              -0.000646098              -0.000038853              -0.003668573               0.001007485              -0.002661088               0.000000000               0.000000000               0.000000000               0.000000000              -0.006521389              -0.000252472               0.000655573              -0.002413960               0.000720491              -0.001693469               0.000000000               0.000000000               0.000000000               0.000000000              -0.004608747               0.000589292               0.000894484              -0.001801940               0.000797072              -0.001004868               0.000000000               0.000000000               0.000000000               0.000000000              -0.003398560               0.001446530               0.000951312              -0.001455274               0.000967261              -0.000488013               0.000000000               0.000000000               0.000000000               0.000000000              -0.002534201               0.002199483               0.000931690              -0.001225258               0.001141573              -0.000083686               0.000000000               0.000000000               0.000000000               0.000000000              -0.001838599               0.002832288               0.000878273              -0.001043508               0.001291922               0.000248414               0.000000000               0.000000000               0.000000000               0.000000000              -0.001222465               0.003360781               0.000811605              -0.000878520               0.001413089               0.000534569               0.000000000               0.000000000               0.000000000               0.000000000              -0.000632242               0.003794284               0.000744162              -0.000711375               0.001501874               0.000790499               0.000000000               0.000000000               0.000000000               0.000000000              -0.000050315               0.004138442               0.000682099              -0.000536172               0.001558191               0.001022019               0.000000000               0.000000000               0.000000000               0.000000000               0.000531325               0.004407472               0.000630925              -0.000351687               0.001586371               0.001234685               0.000000000               0.000000000               0.000000000               0.000000000               0.001119681               0.004611045               0.000586141              -0.000156500               0.001589166               0.001432666               0.000000000               0.000000000               0.000000000               0.000000000               0.001735206               0.004766779               0.000525095               0.000054854               0.001570626               0.001625480               0.000000000               0.000000000               0.000000000               0.000000000               0.002401332               0.004879807               0.000440422               0.000290521               0.001529746               0.001820267               0.000000000               0.000000000               0.000000000               0.000000000               0.003138639               0.004953466               0.000331167               0.000557801               0.001465205               0.002023006               0.000000000               0.000000000               0.000000000               0.000000000               0.003961776               0.004989966               0.000184660               0.000861912               0.001376001               0.002237913               0.000000000               0.000000000               0.000000000               0.000000000               0.004574191               0.005060524               0.000112811               0.001082745               0.001325909               0.002408655               0.000000000               0.000000000               0.000000000               0.000000000              -0.014815595              -0.001315887              -0.000000000              -0.005391359               0.001358482              -0.004032877               0.000000000               0.000000000               0.000000000               0.000000000              -0.010240011              -0.000783864              -0.000000000              -0.003742019               0.000986045              -0.002755974               0.000000000               0.000000000               0.000000000               0.000000000              -0.006583565              -0.000519191               0.000000000              -0.002403936               0.000628244              -0.001775692               0.000000000               0.000000000               0.000000000               0.000000000              -0.004583492               0.000282395               0.000000000              -0.001754107               0.000678829              -0.001075278               0.000000000               0.000000000               0.000000000               0.000000000              -0.003327571               0.001142040               0.000000000              -0.001390592               0.000844205              -0.000546387               0.000000000               0.000000000               0.000000000               0.000000000              -0.002443515               0.001906041              -0.000000000              -0.001154571               0.001020197              -0.000134374               0.000000000               0.000000000               0.000000000               0.000000000              -0.001743585               0.002554455               0.000000000              -0.000973149               0.001175859               0.000202710               0.000000000               0.000000000               0.000000000               0.000000000              -0.001126985               0.003115878               0.000000000              -0.000812102               0.001309316               0.000497214               0.000000000               0.000000000               0.000000000               0.000000000              -0.000542517               0.003589780               0.000000000              -0.000652165               0.001413970               0.000761805               0.000000000               0.000000000               0.000000000               0.000000000               0.000035830               0.003966983              -0.000000000              -0.000482436               0.001483126               0.001000691               0.000000000               0.000000000               0.000000000               0.000000000               0.000623949               0.004266340               0.000000000              -0.000299311               0.001521869               0.001222559               0.000000000               0.000000000               0.000000000               0.000000000               0.001219741               0.004500871              -0.000000000              -0.000105206               0.001535344               0.001430138               0.000000000               0.000000000               0.000000000               0.000000000               0.001844071               0.004689415               0.000000000               0.000105349               0.001528007               0.001633355               0.000000000               0.000000000               0.000000000               0.000000000               0.002535578               0.004837019              -0.000000000               0.000346211               0.001496920               0.001843131               0.000000000               0.000000000               0.000000000               0.000000000               0.003316535               0.004935547              -0.000000000               0.000626751               0.001436249               0.002063000               0.000000000               0.000000000               0.000000000               0.000000000               0.004213833               0.004983556              -0.000000000               0.000957233               0.001342091               0.002299324               0.000000000               0.000000000               0.000000000               0.000000000               0.004901318               0.005065615              -0.000000000               0.001204780               0.001286928               0.002491708               0.000000000               0.000000000               0.000000000               0.000000000               0.002164993               0.022689376               0.000000000              -0.002024295               0.008237815               0.006213520               0.000000000               0.000000000               0.000000000               0.000000000               0.002069749               0.017316795               0.000000000              -0.001388440               0.006235020               0.004846581               0.000000000               0.000000000               0.000000000               0.000000000               0.002664659               0.012962960              -0.000000000              -0.000621121               0.004527984               0.003906862               0.000000000               0.000000000               0.000000000               0.000000000               0.002469715               0.010497622              -0.000000000              -0.000386059               0.003627858               0.003241800               0.000000000               0.000000000               0.000000000               0.000000000               0.002066764               0.008928946               0.000000000              -0.000341081               0.003089979               0.002748898               0.000000000               0.000000000               0.000000000               0.000000000               0.001647062               0.007832269               0.000000000              -0.000361385               0.002731192               0.002369807               0.000000000               0.000000000               0.000000000               0.000000000               0.001253229               0.006980273               0.000000000              -0.000402572               0.002460925               0.002058353               0.000000000               0.000000000               0.000000000               0.000000000               0.000905416               0.006258401               0.000000000              -0.000442768               0.002233702               0.001790934               0.000000000               0.000000000               0.000000000               0.000000000               0.000611992               0.005609396               0.000000000              -0.000471676               0.002027006               0.001555329               0.000000000               0.000000000               0.000000000               0.000000000               0.000370942               0.004988961               0.000000000              -0.000484516               0.001824476               0.001339960               0.000000000               0.000000000               0.000000000               0.000000000               0.000179785               0.004374973               0.000000000              -0.000479451               0.001618127               0.001138676               0.000000000               0.000000000               0.000000000               0.000000000               0.000030634               0.003754650              -0.000000000              -0.000457843               0.001404152               0.000946309               0.000000000               0.000000000               0.000000000               0.000000000              -0.000080386               0.003109561              -0.000000000              -0.000418839               0.001176123               0.000757284               0.000000000               0.000000000               0.000000000               0.000000000              -0.000139146               0.002424686              -0.000000000              -0.000355265               0.000926642               0.000571377               0.000000000               0.000000000               0.000000000               0.000000000              -0.000141556               0.001676599               0.000000000              -0.000262658               0.000646413               0.000383755               0.000000000               0.000000000               0.000000000               0.000000000              -0.000087254               0.000836454               0.000000000              -0.000137277               0.000324574               0.000187297               0.000000000               0.000000000               0.000000000               0.000000000              -0.000113735               0.000193193              -0.000000000              -0.000066800               0.000086663               0.000019863               0.000000000               0.000000000               0.000000000               0.000000000               0.002217858               0.022189140              -0.001479412              -0.001941941               0.008043620               0.006101678               0.000000000               0.000000000               0.000000000               0.000000000               0.001995759               0.017003942              -0.000635081              -0.001377080               0.006126951               0.004749871               0.000000000               0.000000000               0.000000000               0.000000000               0.002452289               0.012841483               0.000191570              -0.000685575               0.004508977               0.003823401               0.000000000               0.000000000               0.000000000               0.000000000               0.002206371               0.010476890               0.000521632              -0.000482221               0.003653002               0.003170781               0.000000000               0.000000000               0.000000000               0.000000000               0.001796572               0.008963139               0.000645905              -0.000446677               0.003136575               0.002689898               0.000000000               0.000000000               0.000000000               0.000000000               0.001387687               0.007891709               0.000677843              -0.000466080               0.002785903               0.002319823               0.000000000               0.000000000               0.000000000               0.000000000               0.001017372               0.007053541               0.000664453              -0.000500177               0.002517882               0.002017705               0.000000000               0.000000000               0.000000000               0.000000000               0.000702078               0.006338573               0.000636112              -0.000529041               0.002289184               0.001760142               0.000000000               0.000000000               0.000000000               0.000000000               0.000440676               0.005687493               0.000602464              -0.000545682               0.002077706               0.001532024               0.000000000               0.000000000               0.000000000               0.000000000               0.000230616               0.005066424               0.000565606              -0.000546821               0.001871065               0.001324244               0.000000000               0.000000000               0.000000000               0.000000000               0.000066967               0.004456690               0.000531805              -0.000531972               0.001662872               0.001130900               0.000000000               0.000000000               0.000000000               0.000000000              -0.000057169               0.003846380               0.000494614              -0.000502235               0.001449525               0.000947290               0.000000000               0.000000000               0.000000000               0.000000000              -0.000142117               0.003215281               0.000446446              -0.000455203               0.001223484               0.000768281               0.000000000               0.000000000               0.000000000               0.000000000              -0.000179629               0.002550907               0.000382838              -0.000386223               0.000979035               0.000592811               0.000000000               0.000000000               0.000000000               0.000000000              -0.000164611               0.001842201               0.000293841              -0.000292004               0.000711395               0.000419392               0.000000000               0.000000000               0.000000000               0.000000000              -0.000096496               0.001073092               0.000167293              -0.000170322               0.000414468               0.000244146               0.000000000               0.000000000               0.000000000               0.000000000              -0.000110633               0.000499458               0.000104823              -0.000103920               0.000201124               0.000097204               0.000000000               0.000000000               0.000000000               0.000000000               0.002333947               0.020760858              -0.002729755              -0.001719874               0.007493508               0.005773634               0.000000000               0.000000000               0.000000000               0.000000000               0.001762501               0.016115615              -0.001165646              -0.001353511               0.005822988               0.004469477               0.000000000               0.000000000               0.000000000               0.000000000               0.001845814               0.012502533               0.000350105              -0.000870634               0.004457681               0.003587046               0.000000000               0.000000000               0.000000000               0.000000000               0.001475474               0.010418839               0.000933269              -0.000749051               0.003722595               0.002973544               0.000000000               0.000000000               0.000000000               0.000000000               0.001053466               0.009051289               0.001141367              -0.000736360               0.003262519               0.002526159               0.000000000               0.000000000               0.000000000               0.000000000               0.000685723               0.008048853               0.001187622              -0.000748959               0.002932577               0.002183618               0.000000000               0.000000000               0.000000000               0.000000000               0.000390425               0.007240005               0.001158742              -0.000758590               0.002666174               0.001907584               0.000000000               0.000000000               0.000000000               0.000000000               0.000162489               0.006532492               0.001101300              -0.000755627               0.002429351               0.001673724               0.000000000               0.000000000               0.000000000               0.000000000              -0.000013998               0.005878018               0.001036005              -0.000740000               0.002205986               0.001465986               0.000000000               0.000000000               0.000000000               0.000000000              -0.000143004               0.005259408               0.000967233              -0.000711051               0.001990135               0.001279084               0.000000000               0.000000000               0.000000000               0.000000000              -0.000231501               0.004660902               0.000902866              -0.000669424               0.001776760               0.001107335               0.000000000               0.000000000               0.000000000               0.000000000              -0.000285301               0.004071948               0.000831274              -0.000615980               0.001562629               0.000946649               0.000000000               0.000000000               0.000000000               0.000000000              -0.000299955               0.003482671               0.000737239              -0.000547816               0.001343484               0.000795668               0.000000000               0.000000000               0.000000000               0.000000000              -0.000271609               0.002887337               0.000620100              -0.000462770               0.001116693               0.000653923               0.000000000               0.000000000               0.000000000               0.000000000              -0.000204550               0.002288019               0.000468053              -0.000362708               0.000883568               0.000520860               0.000000000               0.000000000               0.000000000               0.000000000              -0.000108791               0.001691623               0.000262460              -0.000252249               0.000647952               0.000395703               0.000000000               0.000000000               0.000000000               0.000000000              -0.000097645               0.001282615               0.000159820              -0.000196943               0.000493182               0.000296238               0.000000000               0.000000000               0.000000000               0.000000000               0.002399389               0.018603377              -0.003565439              -0.001425650               0.006676280               0.005250630               0.000000000               0.000000000               0.000000000               0.000000000               0.001342879               0.014794895              -0.001512323              -0.001345780               0.005380175               0.004034396               0.000000000               0.000000000               0.000000000               0.000000000               0.000912743               0.012008761               0.000446693              -0.001158814               0.004389151               0.003230338               0.000000000               0.000000000               0.000000000               0.000000000               0.000410642               0.010324112               0.001154943              -0.001136521               0.003820177               0.002683656               0.000000000               0.000000000               0.000000000               0.000000000               0.000014126               0.009148633               0.001384417              -0.001138280               0.003428940               0.002290661               0.000000000               0.000000000               0.000000000               0.000000000              -0.000265818               0.008230140               0.001419931              -0.001128447               0.003119501               0.001991054               0.000000000               0.000000000               0.000000000               0.000000000              -0.000445649               0.007448539               0.001371400              -0.001098184               0.002848883               0.001750699               0.000000000               0.000000000               0.000000000               0.000000000              -0.000549010               0.006747215               0.001289970              -0.001049278               0.002598809               0.001549530               0.000000000               0.000000000               0.000000000               0.000000000              -0.000602196               0.006098626               0.001202721              -0.000988150               0.002362238               0.001374088               0.000000000               0.000000000               0.000000000               0.000000000              -0.000615426               0.005490029               0.001113988              -0.000917036               0.002135670               0.001218634               0.000000000               0.000000000               0.000000000               0.000000000              -0.000591801               0.004913897               0.001028290              -0.000836161               0.001916669               0.001080509               0.000000000               0.000000000               0.000000000               0.000000000              -0.000540250               0.004360506               0.000936347              -0.000747656               0.001702706               0.000955050               0.000000000               0.000000000               0.000000000               0.000000000              -0.000459196               0.003835612               0.000817977              -0.000651649               0.001495741               0.000844092               0.000000000               0.000000000               0.000000000               0.000000000              -0.000351315               0.003342136               0.000669668              -0.000549509               0.001297204               0.000747695               0.000000000               0.000000000               0.000000000               0.000000000              -0.000230672               0.002890246               0.000488548              -0.000447782               0.001112666               0.000664884               0.000000000               0.000000000               0.000000000               0.000000000              -0.000112547               0.002504030               0.000266500              -0.000355208               0.000953071               0.000597863               0.000000000               0.000000000               0.000000000               0.000000000              -0.000075629               0.002281482               0.000154595              -0.000313545               0.000865002               0.000551456               0.000000000               0.000000000               0.000000000               0.000000000               0.002265464               0.015986619              -0.003910613              -0.001148778               0.005711745               0.004562967               0.000000000               0.000000000               0.000000000               0.000000000               0.000720620               0.013232627              -0.001666138              -0.001383843               0.004872112               0.003488269               0.000000000               0.000000000               0.000000000               0.000000000              -0.000225859               0.011427731               0.000439161              -0.001513160               0.004313592               0.002800432               0.000000000               0.000000000               0.000000000               0.000000000              -0.000803795               0.010169268               0.001139254              -0.001572578               0.003913915               0.002341337               0.000000000               0.000000000               0.000000000               0.000000000              -0.001113049               0.009179626               0.001336751              -0.001564843               0.003581459               0.002016616               0.000000000               0.000000000               0.000000000               0.000000000              -0.001243957               0.008338655               0.001349090              -0.001508812               0.003282461               0.001773649               0.000000000               0.000000000               0.000000000               0.000000000              -0.001266533               0.007587522               0.001286666              -0.001423387               0.003003611               0.001580224               0.000000000               0.000000000               0.000000000               0.000000000              -0.001222275               0.006903957               0.001197521              -0.001321345               0.002741744               0.001420399               0.000000000               0.000000000               0.000000000               0.000000000              -0.001133186               0.006275946               0.001104805              -0.001209435               0.002495106               0.001285671               0.000000000               0.000000000               0.000000000               0.000000000              -0.001012021               0.005691526               0.001013938              -0.001090946               0.002260805               0.001169859               0.000000000               0.000000000               0.000000000               0.000000000              -0.000864526               0.005147069               0.000925034              -0.000967579               0.002038199               0.001070620               0.000000000               0.000000000               0.000000000               0.000000000              -0.000701023               0.004641311               0.000829674              -0.000843046               0.001828103               0.000985058               0.000000000               0.000000000               0.000000000               0.000000000              -0.000529853               0.004188104               0.000708687              -0.000722206               0.001636756               0.000914550               0.000000000               0.000000000               0.000000000               0.000000000              -0.000361319               0.003801629               0.000556207              -0.000610697               0.001470762               0.000860065               0.000000000               0.000000000               0.000000000               0.000000000              -0.000206550               0.003493864               0.000383222              -0.000514188               0.001336006               0.000821817               0.000000000               0.000000000               0.000000000               0.000000000              -0.000089196               0.003284838               0.000198056              -0.000444052               0.001242952               0.000798900               0.000000000               0.000000000               0.000000000               0.000000000              -0.000045177               0.003202223               0.000104952              -0.000417218               0.001206470               0.000789251               0.000000000               0.000000000               0.000000000               0.000000000               0.001825281               0.013182692              -0.003790136              -0.000963357               0.004715305               0.003751948               0.000000000               0.000000000               0.000000000               0.000000000              -0.000086361               0.011591150              -0.001667584              -0.001481277               0.004357437               0.002876160               0.000000000               0.000000000               0.000000000               0.000000000              -0.001434750               0.010790966               0.000292357              -0.001886897               0.004225918               0.002339021               0.000000000               0.000000000               0.000000000               0.000000000              -0.001977251               0.009924823               0.000887293              -0.001982067               0.003968930               0.001986863               0.000000000               0.000000000               0.000000000               0.000000000              -0.002125101               0.009097322               0.001034766              -0.001934074               0.003677102               0.001743028               0.000000000               0.000000000               0.000000000               0.000000000              -0.002065389               0.008324519               0.001033030              -0.001815081               0.003379839               0.001564758               0.000000000               0.000000000               0.000000000               0.000000000              -0.001906970               0.007609299               0.000976729              -0.001666272               0.003091832               0.001425559               0.000000000               0.000000000               0.000000000               0.000000000              -0.001701738               0.006958732               0.000901081              -0.001507990               0.002822217               0.001314228               0.000000000               0.000000000               0.000000000               0.000000000              -0.001467411               0.006361549               0.000822226              -0.001345470               0.002568985               0.001223515               0.000000000               0.000000000               0.000000000               0.000000000              -0.001219090               0.005809199               0.000742971              -0.001183306               0.002330816               0.001147510               0.000000000               0.000000000               0.000000000               0.000000000              -0.000963397               0.005303299               0.000659933              -0.001024184               0.002109143               0.001084959               0.000000000               0.000000000               0.000000000               0.000000000              -0.000716634               0.004849287               0.000573201              -0.000874897               0.001908045               0.001033149               0.000000000               0.000000000               0.000000000               0.000000000              -0.000487331               0.004468964               0.000469683              -0.000741368               0.001736762               0.000995394               0.000000000               0.000000000               0.000000000               0.000000000              -0.000290585               0.004173087               0.000342160              -0.000630604               0.001601216               0.000970613               0.000000000               0.000000000               0.000000000               0.000000000              -0.000141067               0.003970019               0.000208288              -0.000549151               0.001506377               0.000957226               0.000000000               0.000000000               0.000000000               0.000000000              -0.000049382               0.003866148               0.000092821              -0.000501785               0.001455965               0.000954179               0.000000000               0.000000000               0.000000000               0.000000000              -0.000016074               0.003847630               0.000040295              -0.000486980               0.001444857               0.000957877               0.000000000               0.000000000               0.000000000               0.000000000               0.001026082               0.010425673              -0.003296112              -0.000918429               0.003781332               0.002862903               0.000000000               0.000000000               0.000000000               0.000000000              -0.001026249               0.009991994              -0.001574906              -0.001633840               0.003875244               0.002241405               0.000000000               0.000000000               0.000000000               0.000000000              -0.002575193               0.010112082               0.000006078              -0.002229702               0.004113894               0.001884192               0.000000000               0.000000000               0.000000000               0.000000000              -0.002954932               0.009571171               0.000456412              -0.002304490               0.003958522               0.001654032               0.000000000               0.000000000               0.000000000               0.000000000              -0.002882827               0.008876301               0.000567859              -0.002190592               0.003688935               0.001498343               0.000000000               0.000000000               0.000000000               0.000000000              -0.002618638               0.008171693               0.000575123              -0.002003446               0.003391686               0.001388240               0.000000000               0.000000000               0.000000000               0.000000000              -0.002280671               0.007510010               0.000548956              -0.001793999               0.003101311               0.001307313               0.000000000               0.000000000               0.000000000               0.000000000              -0.001924384               0.006901704               0.000505123              -0.001584353               0.002828663               0.001244310               0.000000000               0.000000000               0.000000000               0.000000000              -0.001565617               0.006338118               0.000452736              -0.001379368               0.002572474               0.001193106               0.000000000               0.000000000               0.000000000               0.000000000              -0.001222639               0.005821734               0.000396080              -0.001186203               0.002335960               0.001149756               0.000000000               0.000000000               0.000000000               0.000000000              -0.000901720               0.005362144               0.000332954              -0.001008411               0.002123500               0.001115090               0.000000000               0.000000000               0.000000000               0.000000000              -0.000611270               0.004972046               0.000272141              -0.000850730               0.001940909               0.001090179               0.000000000               0.000000000               0.000000000               0.000000000              -0.000366867               0.004662268               0.000207465              -0.000720357               0.001794193               0.001073836               0.000000000               0.000000000               0.000000000               0.000000000              -0.000180272               0.004440998               0.000131511              -0.000622725               0.001687893               0.001065168               0.000000000               0.000000000               0.000000000               0.000000000              -0.000062734               0.004312501               0.000063586              -0.000562586               0.001625015               0.001062428               0.000000000               0.000000000               0.000000000               0.000000000              -0.000011515               0.004265770               0.000021106              -0.000537538               0.001601088               0.001063550               0.000000000               0.000000000               0.000000000               0.000000000              -0.000000999               0.004266279               0.000006305              -0.000533658               0.001599965               0.001066307               0.000000000               0.000000000               0.000000000               0.000000000              -0.000098228               0.007893816              -0.002541917              -0.001023562               0.002972432               0.001948870               0.000000000               0.000000000               0.000000000               0.000000000              -0.002047775               0.008537531              -0.001438188              -0.001835103               0.003457516               0.001622413               0.000000000               0.000000000               0.000000000               0.000000000              -0.003539748               0.009397666              -0.000397446              -0.002502107               0.003966560               0.001464452               0.000000000               0.000000000               0.000000000               0.000000000              -0.003650431               0.009094631              -0.000075823              -0.002505734               0.003866758               0.001361024               0.000000000               0.000000000               0.000000000               0.000000000              -0.003327088               0.008515730               0.000037412              -0.002312119               0.003609254               0.001297136               0.000000000               0.000000000               0.000000000               0.000000000              -0.002864520               0.007894734               0.000081824              -0.002061032               0.003318562               0.001257531               0.000000000               0.000000000               0.000000000               0.000000000              -0.002370168               0.007300538               0.000097858              -0.001801376               0.003033947               0.001232571               0.000000000               0.000000000               0.000000000               0.000000000              -0.001890872               0.006735163               0.000096134              -0.001550968               0.002762022               0.001211053               0.000000000               0.000000000               0.000000000               0.000000000              -0.001442959               0.006211088               0.000082880              -0.001317492               0.002509506               0.001192014               0.000000000               0.000000000               0.000000000               0.000000000              -0.001041394               0.005740630               0.000062582              -0.001108099               0.002282891               0.001174792               0.000000000               0.000000000               0.000000000               0.000000000              -0.000694284               0.005332939               0.000040817              -0.000926971               0.002086619               0.001159648               0.000000000               0.000000000               0.000000000               0.000000000              -0.000405698               0.005007306               0.000025220              -0.000778048               0.001928435               0.001150387               0.000000000               0.000000000               0.000000000               0.000000000              -0.000188482               0.004768241               0.000016074              -0.000666709               0.001811634               0.001144925               0.000000000               0.000000000               0.000000000               0.000000000              -0.000049135               0.004623620               0.000003299              -0.000596377               0.001739983               0.001143607               0.000000000               0.000000000               0.000000000               0.000000000               0.000011742               0.004563507              -0.000004790              -0.000566034               0.001709832               0.001143798               0.000000000               0.000000000               0.000000000               0.000000000               0.000016678               0.004566576              -0.000002808              -0.000564566               0.001710365               0.001145799               0.000000000               0.000000000               0.000000000               0.000000000               0.000009530               0.004589382              -0.000002186              -0.000570097               0.001719811               0.001149714               0.000000000               0.000000000               0.000000000               0.000000000              -0.001412618               0.005780678              -0.001644964              -0.001252314               0.002344311               0.001091997               0.000000000               0.000000000               0.000000000               0.000000000              -0.003048955               0.007243857              -0.001293501              -0.002048835               0.003097540               0.001048704               0.000000000               0.000000000               0.000000000               0.000000000              -0.004301805               0.008663685              -0.000878509              -0.002696131               0.003786576               0.001090445               0.000000000               0.000000000               0.000000000               0.000000000              -0.004129012               0.008607426              -0.000637617              -0.002624301               0.003743880               0.001119579               0.000000000               0.000000000               0.000000000               0.000000000              -0.003589846               0.008173623              -0.000488463              -0.002367889               0.003513810               0.001145921               0.000000000               0.000000000               0.000000000               0.000000000              -0.002964759               0.007655166              -0.000391670              -0.002068675               0.003241255               0.001172579               0.000000000               0.000000000               0.000000000               0.000000000              -0.002348345               0.007131511              -0.000326771              -0.001772064               0.002967834               0.001195771               0.000000000               0.000000000               0.000000000               0.000000000              -0.001777227               0.006617423              -0.000278448              -0.001493634               0.002703664               0.001210029               0.000000000               0.000000000               0.000000000               0.000000000              -0.001265405               0.006139456              -0.000243493              -0.001241956               0.002460450               0.001218495               0.000000000               0.000000000               0.000000000               0.000000000              -0.000824638               0.005705709              -0.000217930              -0.001022450               0.002242701               0.001220250               0.000000000               0.000000000               0.000000000               0.000000000              -0.000460398               0.005333655              -0.000192357              -0.000839354               0.002057652               0.001218298               0.000000000               0.000000000               0.000000000               0.000000000              -0.000177229               0.005049435              -0.000154850              -0.000697639               0.001915674               0.001218036               0.000000000               0.000000000               0.000000000               0.000000000               0.000013649               0.004859616              -0.000105659              -0.000602332               0.001820633               0.001218301               0.000000000               0.000000000               0.000000000               0.000000000               0.000103840               0.004760173              -0.000061317              -0.000556080               0.001772069               0.001215989               0.000000000               0.000000000               0.000000000               0.000000000               0.000112922               0.004745443              -0.000028528              -0.000550833               0.001765410               0.001214576               0.000000000               0.000000000               0.000000000               0.000000000               0.000083779               0.004791720              -0.000005328              -0.000567546               0.001786406               0.001218860               0.000000000               0.000000000               0.000000000               0.000000000               0.000062110               0.004831149               0.000002808              -0.000580601               0.001803900               0.001223300               0.000000000               0.000000000               0.000000000               0.000000000              -0.002926550               0.003844068              -0.000718367              -0.001577961               0.001807330               0.000229368               0.000000000               0.000000000               0.000000000               0.000000000              -0.003905480               0.005741144              -0.001140051              -0.002182193               0.002641093               0.000458900               0.000000000               0.000000000               0.000000000               0.000000000              -0.004777280               0.007556025              -0.001377092              -0.002735977               0.003430642               0.000694665               0.000000000               0.000000000               0.000000000               0.000000000              -0.004449231               0.007882270              -0.001225835              -0.002653739               0.003511977               0.000858238               0.000000000               0.000000000               0.000000000               0.000000000              -0.003823544               0.007718479              -0.001044184              -0.002398633               0.003372345               0.000973712               0.000000000               0.000000000               0.000000000               0.000000000              -0.003135685               0.007398863              -0.000891459              -0.002100735               0.003166508               0.001065773               0.000000000               0.000000000               0.000000000               0.000000000              -0.002470867               0.007027113              -0.000767636              -0.001804960               0.002944001               0.001139041               0.000000000               0.000000000               0.000000000               0.000000000              -0.001862891               0.006636607              -0.000660887              -0.001528156               0.002721566               0.001193409               0.000000000               0.000000000               0.000000000               0.000000000              -0.001322816               0.006251160              -0.000573123              -0.001277448               0.002509515               0.001232067               0.000000000               0.000000000               0.000000000               0.000000000              -0.000854595               0.005875086              -0.000502557              -0.001054856               0.002309961               0.001255105               0.000000000               0.000000000               0.000000000               0.000000000              -0.000457017               0.005526420              -0.000434679              -0.000862182               0.002129515               0.001267334               0.000000000               0.000000000               0.000000000               0.000000000              -0.000139548               0.005236766              -0.000352155              -0.000706924               0.001981212               0.001274288               0.000000000               0.000000000               0.000000000               0.000000000               0.000085782               0.005024557              -0.000254513              -0.000595900               0.001873469               0.001277569               0.000000000               0.000000000               0.000000000               0.000000000               0.000215060               0.004903069              -0.000158816              -0.000532235               0.001811752               0.001279517               0.000000000               0.000000000               0.000000000               0.000000000               0.000256777               0.004869982              -0.000080327              -0.000512455               0.001794129               0.001281674               0.000000000               0.000000000               0.000000000               0.000000000               0.000239268               0.004910576              -0.000027483              -0.000524095               0.001811541               0.001287445               0.000000000               0.000000000               0.000000000               0.000000000               0.000203396               0.004937422              -0.000001981              -0.000540903               0.001826092               0.001285189               0.000000000               0.000000000               0.000000000               0.000000000              -0.004826432               0.002100513               0.000163255              -0.002072473               0.001390986              -0.000681487               0.000000000               0.000000000               0.000000000               0.000000000              -0.004870952               0.004222069              -0.000933593              -0.002354360               0.002192128              -0.000162232               0.000000000               0.000000000               0.000000000               0.000000000              -0.005182548               0.006233873              -0.001778395              -0.002722683               0.002985498               0.000262814               0.000000000               0.000000000               0.000000000               0.000000000              -0.004713896               0.006919123              -0.001782735              -0.002632595               0.003183883               0.000551287               0.000000000               0.000000000               0.000000000               0.000000000              -0.004042998               0.007064592              -0.001605522              -0.002399193               0.003154571               0.000755378               0.000000000               0.000000000               0.000000000               0.000000000              -0.003334679               0.006982382              -0.001412548              -0.002123297               0.003035203               0.000911906               0.000000000               0.000000000               0.000000000               0.000000000              -0.002649526               0.006800332              -0.001235509              -0.001843609               0.002881291               0.001037682               0.000000000               0.000000000               0.000000000               0.000000000              -0.002015254               0.006564731              -0.001074542              -0.001576308               0.002713658               0.001137350               0.000000000               0.000000000               0.000000000               0.000000000              -0.001443728               0.006301110              -0.000937005              -0.001329034               0.002543360               0.001214327               0.000000000               0.000000000               0.000000000               0.000000000              -0.000938741               0.006014420              -0.000827203              -0.001103828               0.002372729               0.001268901               0.000000000               0.000000000               0.000000000               0.000000000              -0.000493799               0.005720435              -0.000727997              -0.000900227               0.002206868               0.001306641               0.000000000               0.000000000               0.000000000               0.000000000              -0.000112198               0.005447495              -0.000614026              -0.000723009               0.002056817               0.001333807               0.000000000               0.000000000               0.000000000               0.000000000               0.000194308               0.005222800              -0.000479650              -0.000579983               0.001934244               0.001354260               0.000000000               0.000000000               0.000000000               0.000000000               0.000405402               0.005063265              -0.000336347              -0.000480881               0.001848032               0.001367151               0.000000000               0.000000000               0.000000000               0.000000000               0.000512583               0.004975606              -0.000202694              -0.000429731               0.001801762               0.001372031               0.000000000               0.000000000               0.000000000               0.000000000               0.000526783               0.004963996              -0.000091537              -0.000422955               0.001795634               0.001372679               0.000000000               0.000000000               0.000000000               0.000000000               0.000485858               0.004957740              -0.000032345              -0.000437520               0.001798403               0.001360884               0.000000000               0.000000000               0.000000000               0.000000000              -0.006980826               0.000695617               0.000914879              -0.002704759               0.001133451              -0.001571308               0.000000000               0.000000000               0.000000000               0.000000000              -0.005974768               0.002792747              -0.000667520              -0.002589627               0.001794112              -0.000795515               0.000000000               0.000000000               0.000000000               0.000000000              -0.005525910               0.004723377              -0.001983723              -0.002662633               0.002461986              -0.000200647               0.000000000               0.000000000               0.000000000               0.000000000              -0.004840224               0.005655113              -0.002175425              -0.002521967               0.002725674               0.000203706               0.000000000               0.000000000               0.000000000               0.000000000              -0.004113379               0.006083581              -0.002052995              -0.002302960               0.002795493               0.000492533               0.000000000               0.000000000               0.000000000               0.000000000              -0.003396833               0.006250561              -0.001857762              -0.002055128               0.002768542               0.000713414               0.000000000               0.000000000               0.000000000               0.000000000              -0.002709299               0.006282359              -0.001653276              -0.001801278               0.002694524               0.000893246               0.000000000               0.000000000               0.000000000               0.000000000              -0.002061807               0.006224533              -0.001458140              -0.001551241               0.002591903               0.001040663               0.000000000               0.000000000               0.000000000               0.000000000              -0.001467580               0.006105297              -0.001287033              -0.001313502               0.002472912               0.001159410               0.000000000               0.000000000               0.000000000               0.000000000              -0.000927781               0.005947498              -0.001146462              -0.001091353               0.002346264               0.001254911               0.000000000               0.000000000               0.000000000               0.000000000              -0.000441379               0.005755162              -0.001020550              -0.000884911               0.002213338               0.001328428               0.000000000               0.000000000               0.000000000               0.000000000              -0.000005853               0.005542261              -0.000886006              -0.000694976               0.002079060               0.001384084               0.000000000               0.000000000               0.000000000               0.000000000               0.000377923               0.005345523              -0.000728283              -0.000526468               0.001957312               0.001430844               0.000000000               0.000000000               0.000000000               0.000000000               0.000687138               0.005185008              -0.000547106              -0.000390449               0.001858468               0.001468020               0.000000000               0.000000000               0.000000000               0.000000000               0.000896374               0.005073100              -0.000361747              -0.000297997               0.001790349               0.001492352               0.000000000               0.000000000               0.000000000               0.000000000               0.000989828               0.005017795              -0.000182057              -0.000256038               0.001757928               0.001501889               0.000000000               0.000000000               0.000000000               0.000000000               0.000984540               0.004992066              -0.000087682              -0.000254805               0.001748940               0.001494135               0.000000000               0.000000000               0.000000000               0.000000000              -0.009246701              -0.000296904               0.001420735              -0.003430397               0.001044490              -0.002385907               0.000000000               0.000000000               0.000000000               0.000000000              -0.007156878               0.001528650              -0.000385987              -0.002874907               0.001467842              -0.001407065               0.000000000               0.000000000               0.000000000               0.000000000              -0.005832394               0.003155641              -0.001961267              -0.002581599               0.001912400              -0.000669199               0.000000000               0.000000000               0.000000000               0.000000000              -0.004850620               0.004201120              -0.002313825              -0.002344118               0.002181730              -0.000162388               0.000000000               0.000000000               0.000000000               0.000000000              -0.004031747               0.004851003              -0.002272124              -0.002118276               0.002323076               0.000204800               0.000000000               0.000000000               0.000000000               0.000000000              -0.003300058               0.005246627              -0.002110296              -0.001893346               0.002379973               0.000486627               0.000000000               0.000000000               0.000000000               0.000000000              -0.002618082               0.005486442              -0.001915940              -0.001667582               0.002384656               0.000717074               0.000000000               0.000000000               0.000000000               0.000000000              -0.001973031               0.005618468              -0.001717374              -0.001442192               0.002353534               0.000911342               0.000000000               0.000000000               0.000000000               0.000000000              -0.001369140               0.005665761              -0.001535981              -0.001221645               0.002295783               0.001074138               0.000000000               0.000000000               0.000000000               0.000000000              -0.000808239               0.005647640              -0.001383442              -0.001009043               0.002218875               0.001209832               0.000000000               0.000000000               0.000000000               0.000000000              -0.000285058               0.005578008              -0.001244907              -0.000804146               0.002127366               0.001323220               0.000000000               0.000000000               0.000000000               0.000000000               0.000207408               0.005472987              -0.001101365              -0.000606344               0.002026426               0.001420081               0.000000000               0.000000000               0.000000000               0.000000000               0.000662360               0.005347218              -0.000933573              -0.000420017               0.001922393               0.001502377               0.000000000               0.000000000               0.000000000               0.000000000               0.001071654               0.005222269              -0.000733684              -0.000250913               0.001824377               0.001573463               0.000000000               0.000000000               0.000000000               0.000000000               0.001411285               0.005119342              -0.000510986              -0.000110686               0.001743326               0.001632640               0.000000000               0.000000000               0.000000000               0.000000000               0.001649580               0.005050097              -0.000267431              -0.000012670               0.001687572               0.001674902               0.000000000               0.000000000               0.000000000               0.000000000               0.001748512               0.005029196              -0.000142638               0.000027042               0.001667368               0.001694410               0.000000000               0.000000000               0.000000000               0.000000000              -0.011404319              -0.000901763               0.001578563              -0.004163896               0.001087370              -0.003076526               0.000000000               0.000000000               0.000000000               0.000000000              -0.008318516               0.000506802              -0.000144941              -0.003182791               0.001229855              -0.001952935               0.000000000               0.000000000               0.000000000               0.000000000              -0.006112711               0.001695648              -0.001703563              -0.002504219               0.001399946              -0.001104274               0.000000000               0.000000000               0.000000000               0.000000000              -0.004782579               0.002729012              -0.002140887              -0.002134590               0.001621189              -0.000513401               0.000000000               0.000000000               0.000000000               0.000000000              -0.003834801               0.003514954              -0.002175018              -0.001877416               0.001797444              -0.000079972               0.000000000               0.000000000               0.000000000               0.000000000              -0.003068171               0.004091881              -0.002066052              -0.001662046               0.001917961               0.000255915               0.000000000               0.000000000               0.000000000               0.000000000              -0.002389710               0.004519462              -0.001907097              -0.001461071               0.001993495               0.000532424               0.000000000               0.000000000               0.000000000               0.000000000              -0.001753470               0.004829166              -0.001733880              -0.001261195               0.002030104               0.000768909               0.000000000               0.000000000               0.000000000               0.000000000              -0.001149947               0.005033309              -0.001568745              -0.001060392               0.002031216               0.000970824               0.000000000               0.000000000               0.000000000               0.000000000              -0.000578001               0.005152436              -0.001428119              -0.000860804               0.002004396               0.001143592               0.000000000               0.000000000               0.000000000               0.000000000              -0.000029054               0.005211863              -0.001303611              -0.000662377               0.001958062               0.001295685               0.000000000               0.000000000               0.000000000               0.000000000               0.000510184               0.005230605              -0.001171987              -0.000462506               0.001897686               0.001435180               0.000000000               0.000000000               0.000000000               0.000000000               0.001038561               0.005207421              -0.001014785              -0.000261467               0.001822945               0.001561478               0.000000000               0.000000000               0.000000000               0.000000000               0.001550421               0.005155604              -0.000822464              -0.000063043               0.001739532               0.001676489               0.000000000               0.000000000               0.000000000               0.000000000               0.002033721               0.005100249              -0.000590211               0.000125113               0.001658362               0.001783475               0.000000000               0.000000000               0.000000000               0.000000000               0.002463521               0.005050715              -0.000317134               0.000292478               0.001586062               0.001878540               0.000000000               0.000000000               0.000000000               0.000000000               0.002722041               0.005051784              -0.000183227               0.000389288               0.001554148               0.001943437               0.000000000               0.000000000               0.000000000               0.000000000              -0.013199496              -0.001196133               0.001347644              -0.004800291               0.001201377              -0.003598914               0.000000000               0.000000000               0.000000000               0.000000000              -0.009317515              -0.000220896               0.000002940              -0.003466453               0.001081845              -0.002384608               0.000000000               0.000000000               0.000000000               0.000000000              -0.006352824               0.000514097              -0.001246364              -0.002446569               0.000986881              -0.001459687               0.000000000               0.000000000               0.000000000               0.000000000              -0.004683464               0.001455739              -0.001647533              -0.001938264               0.001131326              -0.000806938               0.000000000               0.000000000               0.000000000               0.000000000              -0.003591370               0.002300362              -0.001720374              -0.001634306               0.001311546              -0.000322760               0.000000000               0.000000000               0.000000000               0.000000000              -0.002775810               0.002995038              -0.001663449              -0.001415306               0.001470104               0.000054798               0.000000000               0.000000000               0.000000000               0.000000000              -0.002093094               0.003557102              -0.001556278              -0.001229546               0.001595537               0.000365991               0.000000000               0.000000000               0.000000000               0.000000000              -0.001467390               0.004002056              -0.001430025              -0.001050526               0.001684180               0.000633654               0.000000000               0.000000000               0.000000000               0.000000000              -0.000866434               0.004339973              -0.001303670              -0.000867408               0.001735779               0.000868371               0.000000000               0.000000000               0.000000000               0.000000000              -0.000284657               0.004589694              -0.001193544              -0.000680457               0.001756701               0.001076245               0.000000000               0.000000000               0.000000000               0.000000000               0.000280830               0.004768669              -0.001099671              -0.000490772               0.001753131               0.001262359               0.000000000               0.000000000               0.000000000               0.000000000               0.000849166               0.004894058              -0.001006345              -0.000293320               0.001729109               0.001435790               0.000000000               0.000000000               0.000000000               0.000000000               0.001436069               0.004974464              -0.000889215              -0.000083283               0.001685899               0.001602616               0.000000000               0.000000000               0.000000000               0.000000000               0.002038919               0.005010215              -0.000735140               0.000138316               0.001623950               0.001762266               0.000000000               0.000000000               0.000000000               0.000000000               0.002663875               0.005020855              -0.000539684               0.000371343               0.001549821               0.001921163               0.000000000               0.000000000               0.000000000               0.000000000               0.003306266               0.005017940              -0.000296094               0.000612601               0.001468430               0.002081031               0.000000000               0.000000000               0.000000000               0.000000000               0.003749063               0.005056576              -0.000178238               0.000773819               0.001427569               0.002201388               0.000000000               0.000000000               0.000000000               0.000000000              -0.014395297              -0.001297855               0.000774806              -0.005236001               0.001312706              -0.003923295               0.000000000               0.000000000               0.000000000               0.000000000              -0.009998235              -0.000646098               0.000038853              -0.003668573               0.001007485              -0.002661088               0.000000000               0.000000000               0.000000000               0.000000000              -0.006521389              -0.000252472              -0.000655573              -0.002413960               0.000720491              -0.001693469               0.000000000               0.000000000               0.000000000               0.000000000              -0.004608747               0.000589292              -0.000894484              -0.001801940               0.000797072              -0.001004868               0.000000000               0.000000000               0.000000000               0.000000000              -0.003398560               0.001446530              -0.000951312              -0.001455274               0.000967261              -0.000488013               0.000000000               0.000000000               0.000000000               0.000000000              -0.002534201               0.002199483              -0.000931690              -0.001225258               0.001141573              -0.000083686               0.000000000               0.000000000               0.000000000               0.000000000              -0.001838599               0.002832288              -0.000878273              -0.001043508               0.001291922               0.000248414               0.000000000               0.000000000               0.000000000               0.000000000              -0.001222465               0.003360781              -0.000811605              -0.000878520               0.001413089               0.000534569               0.000000000               0.000000000               0.000000000               0.000000000              -0.000632242               0.003794284              -0.000744162              -0.000711375               0.001501874               0.000790499               0.000000000               0.000000000               0.000000000               0.000000000              -0.000050315               0.004138442              -0.000682099              -0.000536172               0.001558191               0.001022019               0.000000000               0.000000000               0.000000000               0.000000000               0.000531325               0.004407472              -0.000630925              -0.000351687               0.001586371               0.001234685               0.000000000               0.000000000               0.000000000               0.000000000               0.001119681               0.004611045              -0.000586141              -0.000156500               0.001589166               0.001432666               0.000000000               0.000000000               0.000000000               0.000000000               0.001735206               0.004766779              -0.000525095               0.000054854               0.001570626               0.001625480               0.000000000               0.000000000               0.000000000               0.000000000               0.002401332               0.004879807              -0.000440422               0.000290521               0.001529746               0.001820267               0.000000000               0.000000000               0.000000000               0.000000000               0.003138639               0.004953466              -0.000331167               0.000557801               0.001465205               0.002023006               0.000000000               0.000000000               0.000000000               0.000000000               0.003961776               0.004989966              -0.000184660               0.000861912               0.001376001               0.002237913               0.000000000               0.000000000               0.000000000               0.000000000               0.004574191               0.005060524              -0.000112811               0.001082745               0.001325909               0.002408655               0.000000000               0.000000000               0.000000000               0.000000000               0.000000000               0.000000000               0.000000000               0.000000000               0.000000000               0.000000000               0.000000000               0.000000000               0.000000000               0.000000000               0.000000000               0.000000000               0.000000000               0.000000000               0.000000000               0.000000000               0.000000000               0.000000000               0.000000000               0.000000000               0.000000000               0.000000000               0.000000000               0.000000000               0.000000000               0.000000000               0.000000000               0.000000000               0.000000000               0.000000000               0.000000000               0.000000000               0.000000000               0.000000000               0.000000000               0.000000000               0.000000000               0.000000000               0.000000000               0.000000000               0.000000000               0.000000000               0.000000000               0.000000000               0.000000000               0.000000000               0.000000000               0.000000000               0.000000000               0.000000000               0.000000000               0.000000000               0.000000000               0.000000000               0.000000000               0.000000000               0.000000000               0.000000000               0.000000000               0.000000000               0.000000000               0.000000000               0.000000000               0.000000000               0.000000000               0.000000000               0.000000000               0.000000000               0.000000000               0.000000000               0.000000000               0.000000000               0.000000000               0.000000000               0.000000000               0.000000000               0.000000000               0.000000000               0.000000000               0.000000000               0.000000000               0.000000000               0.000000000               0.000000000               0.000000000               0.000000000               0.000000000               0.000000000               0.000000000               0.000000000               0.000000000               0.000000000               0.000000000               0.000000000               0.000000000               0.000000000               0.000000000               0.000000000               0.000000000               0.000000000               0.000000000               0.000000000               0.000000000               0.000000000               0.000000000               0.000000000               0.000000000               0.000000000               0.000000000               0.000000000               0.000000000               0.000000000               0.000000000               0.000000000               0.000000000               0.000000000               0.000000000               0.000000000               0.000000000               0.000000000               0.000000000               0.000000000               0.000000000               0.000000000               0.000000000               0.000000000               0.000000000               0.000000000               0.000000000               0.000000000               0.000000000               0.000000000               0.000000000               0.000000000               0.000000000               0.000000000               0.000000000               0.000000000               0.000000000               0.000000000               0.000000000               0.000000000               0.000000000               0.000000000               0.000000000               0.000000000               0.000000000               0.000000000               0.000000000               0.000000000               0.000000000               0.000000000               0.000000000               0.000000000               0.000000000               0.000000000               0.000000000               0.000000000               0.000000000               0.000000000               0.000000000               0.000000000               0.000000000               0.000000000               0.000000000               0.000000000               0.000000000               0.000000000               0.000000000               0.000000000               0.000000000               0.000000000               0.000000000               0.000000000               0.000000000               0.000000000               0.000000000               0.000000000               0.000000000               0.000000000               0.000000000               0.000000000               0.000000000               0.000000000               0.000000000               0.000000000               0.000000000               0.000000000               0.000000000               0.000000000               0.000000000               0.000000000               0.000000000               0.000000000               0.000000000               0.000000000               0.000000000               0.000000000               0.000000000               0.000000000               0.000000000               0.000000000               0.000000000               0.000000000               0.000000000               0.000000000               0.000000000               0.000000000               0.000000000               0.000000000               0.000000000               0.000000000               0.000000000               0.000000000               0.000000000               0.000000000               0.000000000               0.000000000               0.000000000               0.000000000               0.000000000               0.000000000               0.000000000               0.000000000               0.000000000               0.000000000               0.000000000               0.000000000               0.000000000               0.000000000               0.000000000               0.000000000               0.000000000               0.000000000               0.000000000               0.000000000               0.000000000               0.000000000               0.000000000               0.000000000               0.000000000               0.000000000               0.000000000               0.000000000               0.000000000               0.000000000               0.000000000               0.000000000               0.000000000               0.000000000               0.000000000               0.000000000               0.000000000               0.000000000               0.000000000               0.000000000               0.000000000               0.000000000               0.000000000               0.000000000               0.000000000               0.000000000               0.000000000               0.000000000               0.000000000               0.000000000               0.000000000               0.000000000               0.000000000               0.000000000               0.000000000               0.000000000               0.000000000               0.000000000               0.000000000               0.000000000               0.000000000               0.000000000               0.000000000               0.000000000               0.000000000               0.000000000               0.000000000               0.000000000               0.000000000               0.000000000               0.000000000               0.000000000               0.000000000               0.000000000               0.000000000               0.000000000               0.000000000               0.000000000               0.000000000               0.000000000               0.000000000               0.000000000               0.000000000               0.000000000               0.000000000               0.000000000               0.000000000               0.000000000               0.000000000               0.000000000               0.000000000               0.000000000               0.000000000               0.000000000               0.000000000               0.000000000               0.000000000               0.000000000               0.000000000               0.000000000               0.000000000               0.000000000               0.000000000               0.000000000               0.000000000               0.000000000               0.000000000               0.000000000               0.000000000               0.000000000               0.000000000               0.000000000               0.000000000               0.000000000               0.000000000               0.000000000               0.000000000               0.000000000               0.000000000               0.000000000               0.000000000               0.000000000               0.000000000               0.000000000               0.002217858               0.022189140               0.001479412              -0.001941941               0.008043620               0.006101678               0.000000000               0.000000000               0.000000000               0.000000000               0.001995759               0.017003942               0.000635081              -0.001377080               0.006126951               0.004749871               0.000000000               0.000000000               0.000000000               0.000000000               0.002452289               0.012841483              -0.000191570              -0.000685575               0.004508977               0.003823401               0.000000000               0.000000000               0.000000000               0.000000000               0.002206371               0.010476890              -0.000521632              -0.000482221               0.003653002               0.003170781               0.000000000               0.000000000               0.000000000               0.000000000               0.001796572               0.008963139              -0.000645905              -0.000446677               0.003136575               0.002689898               0.000000000               0.000000000               0.000000000               0.000000000               0.001387687               0.007891709              -0.000677843              -0.000466080               0.002785903               0.002319823               0.000000000               0.000000000               0.000000000               0.000000000               0.001017372               0.007053541              -0.000664453              -0.000500177               0.002517882               0.002017705               0.000000000               0.000000000               0.000000000               0.000000000               0.000702078               0.006338573              -0.000636112              -0.000529041               0.002289184               0.001760142               0.000000000               0.000000000               0.000000000               0.000000000               0.000440676               0.005687493              -0.000602464              -0.000545682               0.002077706               0.001532024               0.000000000               0.000000000               0.000000000               0.000000000               0.000230616               0.005066424              -0.000565606              -0.000546821               0.001871065               0.001324244               0.000000000               0.000000000               0.000000000               0.000000000               0.000066967               0.004456690              -0.000531805              -0.000531972               0.001662872               0.001130900               0.000000000               0.000000000               0.000000000               0.000000000              -0.000057169               0.003846380              -0.000494614              -0.000502235               0.001449525               0.000947290               0.000000000               0.000000000               0.000000000               0.000000000              -0.000142117               0.003215281              -0.000446446              -0.000455203               0.001223484               0.000768281               0.000000000               0.000000000               0.000000000               0.000000000              -0.000179629               0.002550907              -0.000382838              -0.000386223               0.000979035               0.000592811               0.000000000               0.000000000               0.000000000               0.000000000              -0.000164611               0.001842201              -0.000293841              -0.000292004               0.000711395               0.000419392               0.000000000               0.000000000               0.000000000               0.000000000              -0.000096496               0.001073092              -0.000167293              -0.000170322               0.000414468               0.000244146               0.000000000               0.000000000               0.000000000               0.000000000              -0.000110633               0.000499458              -0.000104823              -0.000103920               0.000201124               0.000097204               0.000000000               0.000000000               0.000000000               0.000000000               0.002333947               0.020760858               0.002729755              -0.001719874               0.007493508               0.005773634               0.000000000               0.000000000               0.000000000               0.000000000               0.001762501               0.016115615               0.001165646              -0.001353511               0.005822988               0.004469477               0.000000000               0.000000000               0.000000000               0.000000000               0.001845814               0.012502533              -0.000350105              -0.000870634               0.004457681               0.003587046               0.000000000               0.000000000               0.000000000               0.000000000               0.001475474               0.010418839              -0.000933269              -0.000749051               0.003722595               0.002973544               0.000000000               0.000000000               0.000000000               0.000000000               0.001053466               0.009051289              -0.001141367              -0.000736360               0.003262519               0.002526159               0.000000000               0.000000000               0.000000000               0.000000000               0.000685723               0.008048853              -0.001187622              -0.000748959               0.002932577               0.002183618               0.000000000               0.000000000               0.000000000               0.000000000               0.000390425               0.007240005              -0.001158742              -0.000758590               0.002666174               0.001907584               0.000000000               0.000000000               0.000000000               0.000000000               0.000162489               0.006532492              -0.001101300              -0.000755627               0.002429351               0.001673724               0.000000000               0.000000000               0.000000000               0.000000000              -0.000013998               0.005878018              -0.001036005              -0.000740000               0.002205986               0.001465986               0.000000000               0.000000000               0.000000000               0.000000000              -0.000143004               0.005259408              -0.000967233              -0.000711051               0.001990135               0.001279084               0.000000000               0.000000000               0.000000000               0.000000000              -0.000231501               0.004660902              -0.000902866              -0.000669424               0.001776760               0.001107335               0.000000000               0.000000000               0.000000000               0.000000000              -0.000285301               0.004071948              -0.000831274              -0.000615980               0.001562629               0.000946649               0.000000000               0.000000000               0.000000000               0.000000000              -0.000299955               0.003482671              -0.000737239              -0.000547816               0.001343484               0.000795668               0.000000000               0.000000000               0.000000000               0.000000000              -0.000271609               0.002887337              -0.000620100              -0.000462770               0.001116693               0.000653923               0.000000000               0.000000000               0.000000000               0.000000000              -0.000204550               0.002288019              -0.000468053              -0.000362708               0.000883568               0.000520860               0.000000000               0.000000000               0.000000000               0.000000000              -0.000108791               0.001691623              -0.000262460              -0.000252249               0.000647952               0.000395703               0.000000000               0.000000000               0.000000000               0.000000000              -0.000097645               0.001282615              -0.000159820              -0.000196943               0.000493182               0.000296238               0.000000000               0.000000000               0.000000000               0.000000000               0.002399389               0.018603377               0.003565439              -0.001425650               0.006676280               0.005250630               0.000000000               0.000000000               0.000000000               0.000000000               0.001342879               0.014794895               0.001512323              -0.001345780               0.005380175               0.004034396               0.000000000               0.000000000               0.000000000               0.000000000               0.000912743               0.012008761              -0.000446693              -0.001158814               0.004389151               0.003230338               0.000000000               0.000000000               0.000000000               0.000000000               0.000410642               0.010324112              -0.001154943              -0.001136521               0.003820177               0.002683656               0.000000000               0.000000000               0.000000000               0.000000000               0.000014126               0.009148633              -0.001384417              -0.001138280               0.003428940               0.002290661               0.000000000               0.000000000               0.000000000               0.000000000              -0.000265818               0.008230140              -0.001419931              -0.001128447               0.003119501               0.001991054               0.000000000               0.000000000               0.000000000               0.000000000              -0.000445649               0.007448539              -0.001371400              -0.001098184               0.002848883               0.001750699               0.000000000               0.000000000               0.000000000               0.000000000              -0.000549010               0.006747215              -0.001289970              -0.001049278               0.002598809               0.001549530               0.000000000               0.000000000               0.000000000               0.000000000              -0.000602196               0.006098626              -0.001202721              -0.000988150               0.002362238               0.001374088               0.000000000               0.000000000               0.000000000               0.000000000              -0.000615426               0.005490029              -0.001113988              -0.000917036               0.002135670               0.001218634               0.000000000               0.000000000               0.000000000               0.000000000              -0.000591801               0.004913897              -0.001028290              -0.000836161               0.001916669               0.001080509               0.000000000               0.000000000               0.000000000               0.000000000              -0.000540250               0.004360506              -0.000936347              -0.000747656               0.001702706               0.000955050               0.000000000               0.000000000               0.000000000               0.000000000              -0.000459196               0.003835612              -0.000817977              -0.000651649               0.001495741               0.000844092               0.000000000               0.000000000               0.000000000               0.000000000              -0.000351315               0.003342136              -0.000669668              -0.000549509               0.001297204               0.000747695               0.000000000               0.000000000               0.000000000               0.000000000              -0.000230672               0.002890246              -0.000488548              -0.000447782               0.001112666               0.000664884               0.000000000               0.000000000               0.000000000               0.000000000              -0.000112547               0.002504030              -0.000266500              -0.000355208               0.000953071               0.000597863               0.000000000               0.000000000               0.000000000               0.000000000              -0.000075629               0.002281482              -0.000154595              -0.000313545               0.000865002               0.000551456               0.000000000               0.000000000               0.000000000               0.000000000               0.002265464               0.015986619               0.003910613              -0.001148778               0.005711745               0.004562967               0.000000000               0.000000000               0.000000000               0.000000000               0.000720620               0.013232627               0.001666138              -0.001383843               0.004872112               0.003488269               0.000000000               0.000000000               0.000000000               0.000000000              -0.000225859               0.011427731              -0.000439161              -0.001513160               0.004313592               0.002800432               0.000000000               0.000000000               0.000000000               0.000000000              -0.000803795               0.010169268              -0.001139254              -0.001572578               0.003913915               0.002341337               0.000000000               0.000000000               0.000000000               0.000000000              -0.001113049               0.009179626              -0.001336751              -0.001564843               0.003581459               0.002016616               0.000000000               0.000000000               0.000000000               0.000000000              -0.001243957               0.008338655              -0.001349090              -0.001508812               0.003282461               0.001773649               0.000000000               0.000000000               0.000000000               0.000000000              -0.001266533               0.007587522              -0.001286666              -0.001423387               0.003003611               0.001580224               0.000000000               0.000000000               0.000000000               0.000000000              -0.001222275               0.006903957              -0.001197521              -0.001321345               0.002741744               0.001420399               0.000000000               0.000000000               0.000000000               0.000000000              -0.001133186               0.006275946              -0.001104805              -0.001209435               0.002495106               0.001285671               0.000000000               0.000000000               0.000000000               0.000000000              -0.001012021               0.005691526              -0.001013938              -0.001090946               0.002260805               0.001169859               0.000000000               0.000000000               0.000000000               0.000000000              -0.000864526               0.005147069              -0.000925034              -0.000967579               0.002038199               0.001070620               0.000000000               0.000000000               0.000000000               0.000000000              -0.000701023               0.004641311              -0.000829674              -0.000843046               0.001828103               0.000985058               0.000000000               0.000000000               0.000000000               0.000000000              -0.000529853               0.004188104              -0.000708687              -0.000722206               0.001636756               0.000914550               0.000000000               0.000000000               0.000000000               0.000000000              -0.000361319               0.003801629              -0.000556207              -0.000610697               0.001470762               0.000860065               0.000000000               0.000000000               0.000000000               0.000000000              -0.000206550               0.003493864              -0.000383222              -0.000514188               0.001336006               0.000821817               0.000000000               0.000000000               0.000000000               0.000000000              -0.000089196               0.003284838              -0.000198056              -0.000444052               0.001242952               0.000798900               0.000000000               0.000000000               0.000000000               0.000000000              -0.000045177               0.003202223              -0.000104952              -0.000417218               0.001206470               0.000789251               0.000000000               0.000000000               0.000000000               0.000000000               0.001825281               0.013182692               0.003790136              -0.000963357               0.004715305               0.003751948               0.000000000               0.000000000               0.000000000               0.000000000              -0.000086361               0.011591150               0.001667584              -0.001481277               0.004357437               0.002876160               0.000000000               0.000000000               0.000000000               0.000000000              -0.001434750               0.010790966              -0.000292357              -0.001886897               0.004225918               0.002339021               0.000000000               0.000000000               0.000000000               0.000000000              -0.001977251               0.009924823              -0.000887293              -0.001982067               0.003968930               0.001986863               0.000000000               0.000000000               0.000000000               0.000000000              -0.002125101               0.009097322              -0.001034766              -0.001934074               0.003677102               0.001743028               0.000000000               0.000000000               0.000000000               0.000000000              -0.002065389               0.008324519              -0.001033030              -0.001815081               0.003379839               0.001564758               0.000000000               0.000000000               0.000000000               0.000000000              -0.001906970               0.007609299              -0.000976729              -0.001666272               0.003091832               0.001425559               0.000000000               0.000000000               0.000000000               0.000000000              -0.001701738               0.006958732              -0.000901081              -0.001507990               0.002822217               0.001314228               0.000000000               0.000000000               0.000000000               0.000000000              -0.001467411               0.006361549              -0.000822226              -0.001345470               0.002568985               0.001223515               0.000000000               0.000000000               0.000000000               0.000000000              -0.001219090               0.005809199              -0.000742971              -0.001183306               0.002330816               0.001147510               0.000000000               0.000000000               0.000000000               0.000000000              -0.000963397               0.005303299              -0.000659933              -0.001024184               0.002109143               0.001084959               0.000000000               0.000000000               0.000000000               0.000000000              -0.000716634               0.004849287              -0.000573201              -0.000874897               0.001908045               0.001033149               0.000000000               0.000000000               0.000000000               0.000000000              -0.000487331               0.004468964              -0.000469683              -0.000741368               0.001736762               0.000995394               0.000000000               0.000000000               0.000000000               0.000000000              -0.000290585               0.004173087              -0.000342160              -0.000630604               0.001601216               0.000970613               0.000000000               0.000000000               0.000000000               0.000000000              -0.000141067               0.003970019              -0.000208288              -0.000549151               0.001506377               0.000957226               0.000000000               0.000000000               0.000000000               0.000000000              -0.000049382               0.003866148              -0.000092821              -0.000501785               0.001455965               0.000954179               0.000000000               0.000000000               0.000000000               0.000000000              -0.000016074               0.003847630              -0.000040295              -0.000486980               0.001444857               0.000957877               0.000000000               0.000000000               0.000000000               0.000000000               0.001026082               0.010425673               0.003296112              -0.000918429               0.003781332               0.002862903               0.000000000               0.000000000               0.000000000               0.000000000              -0.001026249               0.009991994               0.001574906              -0.001633840               0.003875244               0.002241405               0.000000000               0.000000000               0.000000000               0.000000000              -0.002575193               0.010112082              -0.000006078              -0.002229702               0.004113894               0.001884192               0.000000000               0.000000000               0.000000000               0.000000000              -0.002954932               0.009571171              -0.000456412              -0.002304490               0.003958522               0.001654032               0.000000000               0.000000000               0.000000000               0.000000000              -0.002882827               0.008876301              -0.000567859              -0.002190592               0.003688935               0.001498343               0.000000000               0.000000000               0.000000000               0.000000000              -0.002618638               0.008171693              -0.000575123              -0.002003446               0.003391686               0.001388240               0.000000000               0.000000000               0.000000000               0.000000000              -0.002280671               0.007510010              -0.000548956              -0.001793999               0.003101311               0.001307313               0.000000000               0.000000000               0.000000000               0.000000000              -0.001924384               0.006901704              -0.000505123              -0.001584353               0.002828663               0.001244310               0.000000000               0.000000000               0.000000000               0.000000000              -0.001565617               0.006338118              -0.000452736              -0.001379368               0.002572474               0.001193106               0.000000000               0.000000000               0.000000000               0.000000000              -0.001222639               0.005821734              -0.000396080              -0.001186203               0.002335960               0.001149756               0.000000000               0.000000000               0.000000000               0.000000000              -0.000901720               0.005362144              -0.000332954              -0.001008411               0.002123500               0.001115090               0.000000000               0.000000000               0.000000000               0.000000000              -0.000611270               0.004972046              -0.000272141              -0.000850730               0.001940909               0.001090179               0.000000000               0.000000000               0.000000000               0.000000000              -0.000366867               0.004662268              -0.000207465              -0.000720357               0.001794193               0.001073836               0.000000000               0.000000000               0.000000000               0.000000000              -0.000180272               0.004440998              -0.000131511              -0.000622725               0.001687893               0.001065168               0.000000000               0.000000000               0.000000000               0.000000000              -0.000062734               0.004312501              -0.000063586              -0.000562586               0.001625015               0.001062428               0.000000000               0.000000000               0.000000000               0.000000000              -0.000011515               0.004265770              -0.000021106              -0.000537538               0.001601088               0.001063550               0.000000000               0.000000000               0.000000000               0.000000000              -0.000000999               0.004266279              -0.000006305              -0.000533658               0.001599965               0.001066307               0.000000000               0.000000000               0.000000000               0.000000000              -0.000098228               0.007893816               0.002541917              -0.001023562               0.002972432               0.001948870               0.000000000               0.000000000               0.000000000               0.000000000              -0.002047775               0.008537531               0.001438188              -0.001835103               0.003457516               0.001622413               0.000000000               0.000000000               0.000000000               0.000000000              -0.003539748               0.009397666               0.000397446              -0.002502107               0.003966560               0.001464452               0.000000000               0.000000000               0.000000000               0.000000000              -0.003650431               0.009094631               0.000075823              -0.002505734               0.003866758               0.001361024               0.000000000               0.000000000               0.000000000               0.000000000              -0.003327088               0.008515730              -0.000037412              -0.002312119               0.003609254               0.001297136               0.000000000               0.000000000               0.000000000               0.000000000              -0.002864520               0.007894734              -0.000081824              -0.002061032               0.003318562               0.001257531               0.000000000               0.000000000               0.000000000               0.000000000              -0.002370168               0.007300538              -0.000097858              -0.001801376               0.003033947               0.001232571               0.000000000               0.000000000               0.000000000               0.000000000              -0.001890872               0.006735163              -0.000096134              -0.001550968               0.002762022               0.001211053               0.000000000               0.000000000               0.000000000               0.000000000              -0.001442959               0.006211088              -0.000082880              -0.001317492               0.002509506               0.001192014               0.000000000               0.000000000               0.000000000               0.000000000              -0.001041394               0.005740630              -0.000062582              -0.001108099               0.002282891               0.001174792               0.000000000               0.000000000               0.000000000               0.000000000              -0.000694284               0.005332939              -0.000040817              -0.000926971               0.002086619               0.001159648               0.000000000               0.000000000               0.000000000               0.000000000              -0.000405698               0.005007306              -0.000025220              -0.000778048               0.001928435               0.001150387               0.000000000               0.000000000               0.000000000               0.000000000              -0.000188482               0.004768241              -0.000016074              -0.000666709               0.001811634               0.001144925               0.000000000               0.000000000               0.000000000               0.000000000              -0.000049135               0.004623620              -0.000003299              -0.000596377               0.001739983               0.001143607               0.000000000               0.000000000               0.000000000               0.000000000               0.000011742               0.004563507               0.000004790              -0.000566034               0.001709832               0.001143798               0.000000000               0.000000000               0.000000000               0.000000000               0.000016678               0.004566576               0.000002808              -0.000564566               0.001710365               0.001145799               0.000000000               0.000000000               0.000000000               0.000000000               0.000009530               0.004589382               0.000002186              -0.000570097               0.001719811               0.001149714               0.000000000               0.000000000               0.000000000               0.000000000              -0.001412618               0.005780678               0.001644964              -0.001252314               0.002344311               0.001091997               0.000000000               0.000000000               0.000000000               0.000000000              -0.003048955               0.007243857               0.001293501              -0.002048835               0.003097540               0.001048704               0.000000000               0.000000000               0.000000000               0.000000000              -0.004301805               0.008663685               0.000878509              -0.002696131               0.003786576               0.001090445               0.000000000               0.000000000               0.000000000               0.000000000              -0.004129012               0.008607426               0.000637617              -0.002624301               0.003743880               0.001119579               0.000000000               0.000000000               0.000000000               0.000000000              -0.003589846               0.008173623               0.000488463              -0.002367889               0.003513810               0.001145921               0.000000000               0.000000000               0.000000000               0.000000000              -0.002964759               0.007655166               0.000391670              -0.002068675               0.003241255               0.001172579               0.000000000               0.000000000               0.000000000               0.000000000              -0.002348345               0.007131511               0.000326771              -0.001772064               0.002967834               0.001195771               0.000000000               0.000000000               0.000000000               0.000000000              -0.001777227               0.006617423               0.000278448              -0.001493634               0.002703664               0.001210029               0.000000000               0.000000000               0.000000000               0.000000000              -0.001265405               0.006139456               0.000243493              -0.001241956               0.002460450               0.001218495               0.000000000               0.000000000               0.000000000               0.000000000              -0.000824638               0.005705709               0.000217930              -0.001022450               0.002242701               0.001220250               0.000000000               0.000000000               0.000000000               0.000000000              -0.000460398               0.005333655               0.000192357              -0.000839354               0.002057652               0.001218298               0.000000000               0.000000000               0.000000000               0.000000000              -0.000177229               0.005049435               0.000154850              -0.000697639               0.001915674               0.001218036               0.000000000               0.000000000               0.000000000               0.000000000               0.000013649               0.004859616               0.000105659              -0.000602332               0.001820633               0.001218301               0.000000000               0.000000000               0.000000000               0.000000000               0.000103840               0.004760173               0.000061317              -0.000556080               0.001772069               0.001215989               0.000000000               0.000000000               0.000000000               0.000000000               0.000112922               0.004745443               0.000028528              -0.000550833               0.001765410               0.001214576               0.000000000               0.000000000               0.000000000               0.000000000               0.000083779               0.004791720               0.000005328              -0.000567546               0.001786406               0.001218860               0.000000000               0.000000000               0.000000000               0.000000000               0.000062110               0.004831149              -0.000002808              -0.000580601               0.001803900               0.001223300               0.000000000               0.000000000               0.000000000               0.000000000              -0.002926550               0.003844068               0.000718367              -0.001577961               0.001807330               0.000229368               0.000000000               0.000000000               0.000000000               0.000000000              -0.003905480               0.005741144               0.001140051              -0.002182193               0.002641093               0.000458900               0.000000000               0.000000000               0.000000000               0.000000000              -0.004777280               0.007556025               0.001377092              -0.002735977               0.003430642               0.000694665               0.000000000               0.000000000               0.000000000               0.000000000              -0.004449231               0.007882270               0.001225835              -0.002653739               0.003511977               0.000858238               0.000000000               0.000000000               0.000000000               0.000000000              -0.003823544               0.007718479               0.001044184              -0.002398633               0.003372345               0.000973712               0.000000000               0.000000000               0.000000000               0.000000000              -0.003135685               0.007398863               0.000891459              -0.002100735               0.003166508               0.001065773               0.000000000               0.000000000               0.000000000               0.000000000              -0.002470867               0.007027113               0.000767636              -0.001804960               0.002944001               0.001139041               0.000000000               0.000000000               0.000000000               0.000000000              -0.001862891               0.006636607               0.000660887              -0.001528156               0.002721566               0.001193409               0.000000000               0.000000000               0.000000000               0.000000000              -0.001322816               0.006251160               0.000573123              -0.001277448               0.002509515               0.001232067               0.000000000               0.000000000               0.000000000               0.000000000              -0.000854595               0.005875086               0.000502557              -0.001054856               0.002309961               0.001255105               0.000000000               0.000000000               0.000000000               0.000000000              -0.000457017               0.005526420               0.000434679              -0.000862182               0.002129515               0.001267334               0.000000000               0.000000000               0.000000000               0.000000000              -0.000139548               0.005236766               0.000352155              -0.000706924               0.001981212               0.001274288               0.000000000               0.000000000               0.000000000               0.000000000               0.000085782               0.005024557               0.000254513              -0.000595900               0.001873469               0.001277569               0.000000000               0.000000000               0.000000000               0.000000000               0.000215060               0.004903069               0.000158816              -0.000532235               0.001811752               0.001279517               0.000000000               0.000000000               0.000000000               0.000000000               0.000256777               0.004869982               0.000080327              -0.000512455               0.001794129               0.001281674               0.000000000               0.000000000               0.000000000               0.000000000               0.000239268               0.004910576               0.000027483              -0.000524095               0.001811541               0.001287445               0.000000000               0.000000000               0.000000000               0.000000000               0.000203396               0.004937422               0.000001981              -0.000540903               0.001826092               0.001285189               0.000000000               0.000000000               0.000000000               0.000000000              -0.004826432               0.002100513              -0.000163255              -0.002072473               0.001390986              -0.000681487               0.000000000               0.000000000               0.000000000               0.000000000              -0.004870952               0.004222069               0.000933593              -0.002354360               0.002192128              -0.000162232               0.000000000               0.000000000               0.000000000               0.000000000              -0.005182548               0.006233873               0.001778395              -0.002722683               0.002985498               0.000262814               0.000000000               0.000000000               0.000000000               0.000000000              -0.004713896               0.006919123               0.001782735              -0.002632595               0.003183883               0.000551287               0.000000000               0.000000000               0.000000000               0.000000000              -0.004042998               0.007064592               0.001605522              -0.002399193               0.003154571               0.000755378               0.000000000               0.000000000               0.000000000               0.000000000              -0.003334679               0.006982382               0.001412548              -0.002123297               0.003035203               0.000911906               0.000000000               0.000000000               0.000000000               0.000000000              -0.002649526               0.006800332               0.001235509              -0.001843609               0.002881291               0.001037682               0.000000000               0.000000000               0.000000000               0.000000000              -0.002015254               0.006564731               0.001074542              -0.001576308               0.002713658               0.001137350               0.000000000               0.000000000               0.000000000               0.000000000              -0.001443728               0.006301110               0.000937005              -0.001329034               0.002543360               0.001214327               0.000000000               0.000000000               0.000000000               0.000000000              -0.000938741               0.006014420               0.000827203              -0.001103828               0.002372729               0.001268901               0.000000000               0.000000000               0.000000000               0.000000000              -0.000493799               0.005720435               0.000727997              -0.000900227               0.002206868               0.001306641               0.000000000               0.000000000               0.000000000               0.000000000              -0.000112198               0.005447495               0.000614026              -0.000723009               0.002056817               0.001333807               0.000000000               0.000000000               0.000000000               0.000000000               0.000194308               0.005222800               0.000479650              -0.000579983               0.001934244               0.001354260               0.000000000               0.000000000               0.000000000               0.000000000               0.000405402               0.005063265               0.000336347              -0.000480881               0.001848032               0.001367151               0.000000000               0.000000000               0.000000000               0.000000000               0.000512583               0.004975606               0.000202694              -0.000429731               0.001801762               0.001372031               0.000000000               0.000000000               0.000000000               0.000000000               0.000526783               0.004963996               0.000091537              -0.000422955               0.001795634               0.001372679               0.000000000               0.000000000               0.000000000               0.000000000               0.000485858               0.004957740               0.000032345              -0.000437520               0.001798403               0.001360884               0.000000000               0.000000000               0.000000000               0.000000000              -0.006980826               0.000695617              -0.000914879              -0.002704759               0.001133451              -0.001571308               0.000000000               0.000000000               0.000000000               0.000000000              -0.005974768               0.002792747               0.000667520              -0.002589627               0.001794112              -0.000795515               0.000000000               0.000000000               0.000000000               0.000000000              -0.005525910               0.004723377               0.001983723              -0.002662633               0.002461986              -0.000200647               0.000000000               0.000000000               0.000000000               0.000000000              -0.004840224               0.005655113               0.002175425              -0.002521967               0.002725674               0.000203706               0.000000000               0.000000000               0.000000000               0.000000000              -0.004113379               0.006083581               0.002052995              -0.002302960               0.002795493               0.000492533               0.000000000               0.000000000               0.000000000               0.000000000              -0.003396833               0.006250561               0.001857762              -0.002055128               0.002768542               0.000713414               0.000000000               0.000000000               0.000000000               0.000000000              -0.002709299               0.006282359               0.001653276              -0.001801278               0.002694524               0.000893246               0.000000000               0.000000000               0.000000000               0.000000000              -0.002061807               0.006224533               0.001458140              -0.001551241               0.002591903               0.001040663               0.000000000               0.000000000               0.000000000               0.000000000              -0.001467580               0.006105297               0.001287033              -0.001313502               0.002472912               0.001159410               0.000000000               0.000000000               0.000000000               0.000000000              -0.000927781               0.005947498               0.001146462              -0.001091353               0.002346264               0.001254911               0.000000000               0.000000000               0.000000000               0.000000000              -0.000441379               0.005755162               0.001020550              -0.000884911               0.002213338               0.001328428               0.000000000               0.000000000               0.000000000               0.000000000              -0.000005853               0.005542261               0.000886006              -0.000694976               0.002079060               0.001384084               0.000000000               0.000000000               0.000000000               0.000000000               0.000377923               0.005345523               0.000728283              -0.000526468               0.001957312               0.001430844               0.000000000               0.000000000               0.000000000               0.000000000               0.000687138               0.005185008               0.000547106              -0.000390449               0.001858468               0.001468020               0.000000000               0.000000000               0.000000000               0.000000000               0.000896374               0.005073100               0.000361747              -0.000297997               0.001790349               0.001492352               0.000000000               0.000000000               0.000000000               0.000000000               0.000989828               0.005017795               0.000182057              -0.000256038               0.001757928               0.001501889               0.000000000               0.000000000               0.000000000               0.000000000               0.000984540               0.004992066               0.000087682              -0.000254805               0.001748940               0.001494135               0.000000000               0.000000000               0.000000000               0.000000000              -0.009246701              -0.000296904              -0.001420735              -0.003430397               0.001044490              -0.002385907               0.000000000               0.000000000               0.000000000               0.000000000              -0.007156878               0.001528650               0.000385987              -0.002874907               0.001467842              -0.001407065               0.000000000               0.000000000               0.000000000               0.000000000              -0.005832394               0.003155641               0.001961267              -0.002581599               0.001912400              -0.000669199               0.000000000               0.000000000               0.000000000               0.000000000              -0.004850620               0.004201120               0.002313825              -0.002344118               0.002181730              -0.000162388               0.000000000               0.000000000               0.000000000               0.000000000              -0.004031747               0.004851003               0.002272124              -0.002118276               0.002323076               0.000204800               0.000000000               0.000000000               0.000000000               0.000000000              -0.003300058               0.005246627               0.002110296              -0.001893346               0.002379973               0.000486627               0.000000000               0.000000000               0.000000000               0.000000000              -0.002618082               0.005486442               0.001915940              -0.001667582               0.002384656               0.000717074               0.000000000               0.000000000               0.000000000               0.000000000              -0.001973031               0.005618468               0.001717374              -0.001442192               0.002353534               0.000911342               0.000000000               0.000000000               0.000000000               0.000000000              -0.001369140               0.005665761               0.001535981              -0.001221645               0.002295783               0.001074138               0.000000000               0.000000000               0.000000000               0.000000000              -0.000808239               0.005647640               0.001383442              -0.001009043               0.002218875               0.001209832               0.000000000               0.000000000               0.000000000               0.000000000              -0.000285058               0.005578008               0.001244907              -0.000804146               0.002127366               0.001323220               0.000000000               0.000000000               0.000000000               0.000000000               0.000207408               0.005472987               0.001101365              -0.000606344               0.002026426               0.001420081               0.000000000               0.000000000               0.000000000               0.000000000               0.000662360               0.005347218               0.000933573              -0.000420017               0.001922393               0.001502377               0.000000000               0.000000000               0.000000000               0.000000000               0.001071654               0.005222269               0.000733684              -0.000250913               0.001824377               0.001573463               0.000000000               0.000000000               0.000000000               0.000000000               0.001411285               0.005119342               0.000510986              -0.000110686               0.001743326               0.001632640               0.000000000               0.000000000               0.000000000               0.000000000               0.001649580               0.005050097               0.000267431              -0.000012670               0.001687572               0.001674902               0.000000000               0.000000000               0.000000000               0.000000000               0.001748512               0.005029196               0.000142638               0.000027042               0.001667368               0.001694410               0.000000000               0.000000000               0.000000000               0.000000000              -0.011404319              -0.000901763              -0.001578563              -0.004163896               0.001087370              -0.003076526               0.000000000               0.000000000               0.000000000               0.000000000              -0.008318516               0.000506802               0.000144941              -0.003182791               0.001229855              -0.001952935               0.000000000               0.000000000               0.000000000               0.000000000              -0.006112711               0.001695648               0.001703563              -0.002504219               0.001399946              -0.001104274               0.000000000               0.000000000               0.000000000               0.000000000              -0.004782579               0.002729012               0.002140887              -0.002134590               0.001621189              -0.000513401               0.000000000               0.000000000               0.000000000               0.000000000              -0.003834801               0.003514954               0.002175018              -0.001877416               0.001797444              -0.000079972               0.000000000               0.000000000               0.000000000               0.000000000              -0.003068171               0.004091881               0.002066052              -0.001662046               0.001917961               0.000255915               0.000000000               0.000000000               0.000000000               0.000000000              -0.002389710               0.004519462               0.001907097              -0.001461071               0.001993495               0.000532424               0.000000000               0.000000000               0.000000000               0.000000000              -0.001753470               0.004829166               0.001733880              -0.001261195               0.002030104               0.000768909               0.000000000               0.000000000               0.000000000               0.000000000              -0.001149947               0.005033309               0.001568745              -0.001060392               0.002031216               0.000970824               0.000000000               0.000000000               0.000000000               0.000000000              -0.000578001               0.005152436               0.001428119              -0.000860804               0.002004396               0.001143592               0.000000000               0.000000000               0.000000000               0.000000000              -0.000029054               0.005211863               0.001303611              -0.000662377               0.001958062               0.001295685               0.000000000               0.000000000               0.000000000               0.000000000               0.000510184               0.005230605               0.001171987              -0.000462506               0.001897686               0.001435180               0.000000000               0.000000000               0.000000000               0.000000000               0.001038561               0.005207421               0.001014785              -0.000261467               0.001822945               0.001561478               0.000000000               0.000000000               0.000000000               0.000000000               0.001550421               0.005155604               0.000822464              -0.000063043               0.001739532               0.001676489               0.000000000               0.000000000               0.000000000               0.000000000               0.002033721               0.005100249               0.000590211               0.000125113               0.001658362               0.001783475               0.000000000               0.000000000               0.000000000               0.000000000               0.002463521               0.005050715               0.000317134               0.000292478               0.001586062               0.001878540               0.000000000               0.000000000               0.000000000               0.000000000               0.002722041               0.005051784               0.000183227               0.000389288               0.001554148               0.001943437               0.000000000               0.000000000               0.000000000               0.000000000              -0.013199496              -0.001196133              -0.001347644              -0.004800291               0.001201377              -0.003598914               0.000000000               0.000000000               0.000000000               0.000000000              -0.009317515              -0.000220896              -0.000002940              -0.003466453               0.001081845              -0.002384608               0.000000000               0.000000000               0.000000000               0.000000000              -0.006352824               0.000514097               0.001246364              -0.002446569               0.000986881              -0.001459687               0.000000000               0.000000000               0.000000000               0.000000000              -0.004683464               0.001455739               0.001647533              -0.001938264               0.001131326              -0.000806938               0.000000000               0.000000000               0.000000000               0.000000000              -0.003591370               0.002300362               0.001720374              -0.001634306               0.001311546              -0.000322760               0.000000000               0.000000000               0.000000000               0.000000000              -0.002775810               0.002995038               0.001663449              -0.001415306               0.001470104               0.000054798               0.000000000               0.000000000               0.000000000               0.000000000              -0.002093094               0.003557102               0.001556278              -0.001229546               0.001595537               0.000365991               0.000000000               0.000000000               0.000000000               0.000000000              -0.001467390               0.004002056               0.001430025              -0.001050526               0.001684180               0.000633654               0.000000000               0.000000000               0.000000000               0.000000000              -0.000866434               0.004339973               0.001303670              -0.000867408               0.001735779               0.000868371               0.000000000               0.000000000               0.000000000               0.000000000              -0.000284657               0.004589694               0.001193544              -0.000680457               0.001756701               0.001076245               0.000000000               0.000000000               0.000000000               0.000000000               0.000280830               0.004768669               0.001099671              -0.000490772               0.001753131               0.001262359               0.000000000               0.000000000               0.000000000               0.000000000               0.000849166               0.004894058               0.001006345              -0.000293320               0.001729109               0.001435790               0.000000000               0.000000000               0.000000000               0.000000000               0.001436069               0.004974464               0.000889215              -0.000083283               0.001685899               0.001602616               0.000000000               0.000000000               0.000000000               0.000000000               0.002038919               0.005010215               0.000735140               0.000138316               0.001623950               0.001762266               0.000000000               0.000000000               0.000000000               0.000000000               0.002663875               0.005020855               0.000539684               0.000371343               0.001549821               0.001921163               0.000000000               0.000000000               0.000000000               0.000000000               0.003306266               0.005017940               0.000296094               0.000612601               0.001468430               0.002081031               0.000000000               0.000000000               0.000000000               0.000000000               0.003749063               0.005056576               0.000178238               0.000773819               0.001427569               0.002201388               0.000000000               0.000000000               0.000000000               0.000000000              -0.014395297              -0.001297855              -0.000774806              -0.005236001               0.001312706              -0.003923295               0.000000000               0.000000000               0.000000000               0.000000000              -0.009998235              -0.000646098              -0.000038853              -0.003668573               0.001007485              -0.002661088               0.000000000               0.000000000               0.000000000               0.000000000              -0.006521389              -0.000252472               0.000655573              -0.002413960               0.000720491              -0.001693469               0.000000000               0.000000000               0.000000000               0.000000000              -0.004608747               0.000589292               0.000894484              -0.001801940               0.000797072              -0.001004868               0.000000000               0.000000000               0.000000000               0.000000000              -0.003398560               0.001446530               0.000951312              -0.001455274               0.000967261              -0.000488013               0.000000000               0.000000000               0.000000000               0.000000000              -0.002534201               0.002199483               0.000931690              -0.001225258               0.001141573              -0.000083686               0.000000000               0.000000000               0.000000000               0.000000000              -0.001838599               0.002832288               0.000878273              -0.001043508               0.001291922               0.000248414               0.000000000               0.000000000               0.000000000               0.000000000              -0.001222465               0.003360781               0.000811605              -0.000878520               0.001413089               0.000534569               0.000000000               0.000000000               0.000000000               0.000000000              -0.000632242               0.003794284               0.000744162              -0.000711375               0.001501874               0.000790499               0.000000000               0.000000000               0.000000000               0.000000000              -0.000050315               0.004138442               0.000682099              -0.000536172               0.001558191               0.001022019               0.000000000               0.000000000               0.000000000               0.000000000               0.000531325               0.004407472               0.000630925              -0.000351687               0.001586371               0.001234685               0.000000000               0.000000000               0.000000000               0.000000000               0.001119681               0.004611045               0.000586141              -0.000156500               0.001589166               0.001432666               0.000000000               0.000000000               0.000000000               0.000000000               0.001735206               0.004766779               0.000525095               0.000054854               0.001570626               0.001625480               0.000000000               0.000000000               0.000000000               0.000000000               0.002401332               0.004879807               0.000440422               0.000290521               0.001529746               0.001820267               0.000000000               0.000000000               0.000000000               0.000000000               0.003138639               0.004953466               0.000331167               0.000557801               0.001465205               0.002023006               0.000000000               0.000000000               0.000000000               0.000000000               0.003961776               0.004989966               0.000184660               0.000861912               0.001376001               0.002237913               0.000000000               0.000000000               0.000000000               0.000000000               0.004574191               0.005060524               0.000112811               0.001082745               0.001325909               0.002408655               0.000000000               0.000000000               0.000000000               0.000000000               0.000000000               0.000000000               0.000000000               0.000000000               0.000000000               0.000000000               0.000000000               0.000000000               0.000000000               0.000000000               0.000000000               0.000000000               0.000000000               0.000000000               0.000000000               0.000000000               0.000000000               0.000000000               0.000000000               0.000000000               0.000000000               0.000000000               0.000000000               0.000000000               0.000000000               0.000000000               0.000000000               0.000000000               0.000000000               0.000000000               0.000000000               0.000000000               0.000000000               0.000000000               0.000000000               0.000000000               0.000000000               0.000000000               0.000000000               0.000000000               0.000000000               0.000000000               0.000000000               0.000000000               0.000000000               0.000000000               0.000000000               0.000000000               0.000000000               0.000000000               0.000000000               0.000000000               0.000000000               0.000000000               0.000000000               0.000000000               0.000000000               0.000000000               0.000000000               0.000000000               0.000000000               0.000000000               0.000000000               0.000000000               0.000000000               0.000000000               0.000000000               0.000000000               0.000000000               0.000000000               0.000000000               0.000000000               0.000000000               0.000000000               0.000000000               0.000000000               0.000000000               0.000000000               0.000000000               0.000000000               0.000000000               0.000000000               0.000000000               0.000000000               0.000000000               0.000000000               0.000000000               0.000000000               0.000000000               0.000000000               0.000000000               0.000000000               0.000000000               0.000000000               0.000000000               0.000000000               0.000000000               0.000000000               0.000000000               0.000000000               0.000000000               0.000000000               0.000000000               0.000000000               0.000000000               0.000000000               0.000000000               0.000000000               0.000000000               0.000000000               0.000000000               0.000000000               0.000000000               0.000000000               0.000000000               0.000000000               0.000000000               0.000000000               0.000000000               0.000000000               0.000000000               0.000000000               0.000000000               0.000000000               0.000000000               0.000000000               0.000000000               0.000000000               0.000000000               0.000000000               0.000000000               0.000000000               0.000000000               0.000000000               0.000000000               0.000000000               0.000000000               0.000000000               0.000000000               0.000000000               0.000000000               0.000000000               0.000000000               0.000000000               0.000000000               0.000000000               0.000000000               0.000000000               0.000000000               0.000000000               0.000000000               0.000000000               0.000000000               0.000000000               0.000000000               0.000000000               0.000000000               0.000000000               0.000000000               0.000000000               0.000000000               0.000000000               0.000000000               0.000000000               0.000000000               0.000000000               0.000000000               0.000000000               0.000000000               0.000000000 </DataArray>
</PointData>
</Piece>
</UnstructuredGrid> </VTKFile>
