<?xml version="1.0"?>
<VTKFile type="UnstructuredGrid" version="0.1">
<UnstructuredGrid>
<Piece NumberOfPoints="      1156" NumberOfCells="      1024">
<Points>
<DataArray type="Float64"                                    Name="coordinates"                                                      NumberOfComponents=" 3" format="ascii">
              0.133000000               0.000000000               0.000000000               0.155937500               0.000000000               0.000000000               0.178875000               0.000000000               0.000000000               0.201812500               0.000000000               0.000000000               0.224750000               0.000000000               0.000000000               0.247687500               0.000000000               0.000000000               0.270625000               0.000000000               0.000000000               0.293562500               0.000000000               0.000000000               0.316500000               0.000000000               0.000000000               0.339437500               0.000000000               0.000000000               0.362375000               0.000000000               0.000000000               0.385312500               0.000000000               0.000000000               0.408250000               0.000000000               0.000000000               0.431187500               0.000000000               0.000000000               0.454125000               0.000000000               0.000000000               0.477062500               0.000000000               0.000000000               0.500000000               0.000000000               0.000000000               0.132359569               0.013036280               0.000000000               0.155337096               0.016127762               0.000000000               0.178314623               0.019219245               0.000000000               0.201292150               0.022310727               0.000000000               0.224269676               0.025402210               0.000000000               0.247247203               0.028493692               0.000000000               0.270224730               0.031585175               0.000000000               0.293202257               0.034676657               0.000000000               0.316179784               0.037768140               0.000000000               0.339157311               0.040859622               0.000000000               0.362134838               0.043951105               0.000000000               0.385112365               0.047042587               0.000000000               0.408089892               0.050134070               0.000000000               0.431067419               0.053225552               0.000000000               0.454044946               0.056317035               0.000000000               0.477022473               0.059408517               0.000000000               0.500000000               0.062500000               0.000000000               0.130444442               0.025947013               0.000000000               0.153541665               0.032137825               0.000000000               0.176638887               0.038328636               0.000000000               0.199736109               0.044519448               0.000000000               0.222833332               0.050710260               0.000000000               0.245930554               0.056901071               0.000000000               0.269027776               0.063091883               0.000000000               0.292124999               0.069282695               0.000000000               0.315222221               0.075473506               0.000000000               0.338319444               0.081664318               0.000000000               0.361416666               0.087855130               0.000000000               0.384513888               0.094045942               0.000000000               0.407611111               0.100236753               0.000000000               0.430708333               0.106427565               0.000000000               0.453805555               0.112618377               0.000000000               0.476902778               0.118809188               0.000000000               0.500000000               0.125000000               0.000000000               0.127273065               0.038607862               0.000000000               0.150568498               0.047913621               0.000000000               0.173863932               0.057219379               0.000000000               0.197159365               0.066525138               0.000000000               0.220454798               0.075830897               0.000000000               0.243750232               0.085136655               0.000000000               0.267045665               0.094442414               0.000000000               0.290341099               0.103748172               0.000000000               0.313636532               0.113053931               0.000000000               0.336931966               0.122359690               0.000000000               0.360227399               0.131665448               0.000000000               0.383522833               0.140971207               0.000000000               0.406818266               0.150276966               0.000000000               0.430113700               0.159582724               0.000000000               0.453409133               0.168888483               0.000000000               0.476704567               0.178194241               0.000000000               0.500000000               0.187500000               0.000000000               0.122875978               0.050896897               0.000000000               0.146446229               0.063340840               0.000000000               0.170016481               0.075784784               0.000000000               0.193586732               0.088228728               0.000000000               0.217156983               0.100672672               0.000000000               0.240727235               0.113116616               0.000000000               0.264297486               0.125560560               0.000000000               0.287867738               0.138004504               0.000000000               0.311437989               0.150448448               0.000000000               0.335008240               0.162892392               0.000000000               0.358578492               0.175336336               0.000000000               0.382148743               0.187780280               0.000000000               0.405718994               0.200224224               0.000000000               0.429289246               0.212668168               0.000000000               0.452859497               0.225112112               0.000000000               0.476429749               0.237556056               0.000000000               0.500000000               0.250000000               0.000000000               0.117295528               0.062695766               0.000000000               0.141214558               0.078308531               0.000000000               0.165133587               0.093921295               0.000000000               0.189052617               0.109534060               0.000000000               0.212971646               0.125146824               0.000000000               0.236890676               0.140759589               0.000000000               0.260809705               0.156372354               0.000000000               0.284728735               0.171985118               0.000000000               0.308647764               0.187597883               0.000000000               0.332566794               0.203210648               0.000000000               0.356485823               0.218823412               0.000000000               0.380404853               0.234436177               0.000000000               0.404323882               0.250048941               0.000000000               0.428242912               0.265661706               0.000000000               0.452161941               0.281274471               0.000000000               0.476080971               0.296887235               0.000000000               0.500000000               0.312500000               0.000000000               0.110585458               0.073890841               0.000000000               0.134923867               0.092710163               0.000000000               0.159262276               0.111529486               0.000000000               0.183600685               0.130348808               0.000000000               0.207939094               0.149168131               0.000000000               0.232277503               0.167987453               0.000000000               0.256615912               0.186806776               0.000000000               0.280954320               0.205626098               0.000000000               0.305292729               0.224445420               0.000000000               0.329631138               0.243264743               0.000000000               0.353969547               0.262084065               0.000000000               0.378307956               0.280903388               0.000000000               0.402646365               0.299722710               0.000000000               0.426984773               0.318542033               0.000000000               0.451323182               0.337361355               0.000000000               0.475661591               0.356180678               0.000000000               0.500000000               0.375000000               0.000000000               0.102810390               0.084374307               0.000000000               0.127634741               0.106444663               0.000000000               0.152459092               0.128515018               0.000000000               0.177283442               0.150585374               0.000000000               0.202107793               0.172655730               0.000000000               0.226932143               0.194726086               0.000000000               0.251756494               0.216796442               0.000000000               0.276580845               0.238866798               0.000000000               0.301405195               0.260937153               0.000000000               0.326229546               0.283007509               0.000000000               0.351053896               0.305077865               0.000000000               0.375878247               0.327148221               0.000000000               0.400702598               0.349218577               0.000000000               0.425526948               0.371288933               0.000000000               0.450351299               0.393359288               0.000000000               0.475175649               0.415429644               0.000000000               0.500000000               0.437500000               0.000000000               0.094045202               0.094045202               0.000000000               0.119417377               0.119417377               0.000000000               0.144789552               0.144789552               0.000000000               0.170161727               0.170161727               0.000000000               0.195533901               0.195533901               0.000000000               0.220906076               0.220906076               0.000000000               0.246278251               0.246278251               0.000000000               0.271650426               0.271650426               0.000000000               0.297022601               0.297022601               0.000000000               0.322394776               0.322394776               0.000000000               0.347766951               0.347766951               0.000000000               0.373139126               0.373139126               0.000000000               0.398511300               0.398511300               0.000000000               0.423883475               0.423883475               0.000000000               0.449255650               0.449255650               0.000000000               0.474627825               0.474627825               0.000000000               0.500000000               0.500000000               0.000000000               0.084374307               0.102810390               0.000000000               0.106444663               0.127634741               0.000000000               0.128515018               0.152459092               0.000000000               0.150585374               0.177283442               0.000000000               0.172655730               0.202107793               0.000000000               0.194726086               0.226932143               0.000000000               0.216796442               0.251756494               0.000000000               0.238866798               0.276580845               0.000000000               0.260937153               0.301405195               0.000000000               0.283007509               0.326229546               0.000000000               0.305077865               0.351053896               0.000000000               0.327148221               0.375878247               0.000000000               0.349218577               0.400702598               0.000000000               0.371288933               0.425526948               0.000000000               0.393359288               0.450351299               0.000000000               0.415429644               0.475175649               0.000000000               0.437500000               0.500000000               0.000000000               0.073890841               0.110585458               0.000000000               0.092710163               0.134923867               0.000000000               0.111529486               0.159262276               0.000000000               0.130348808               0.183600685               0.000000000               0.149168131               0.207939094               0.000000000               0.167987453               0.232277503               0.000000000               0.186806776               0.256615912               0.000000000               0.205626098               0.280954320               0.000000000               0.224445420               0.305292729               0.000000000               0.243264743               0.329631138               0.000000000               0.262084065               0.353969547               0.000000000               0.280903388               0.378307956               0.000000000               0.299722710               0.402646365               0.000000000               0.318542033               0.426984773               0.000000000               0.337361355               0.451323182               0.000000000               0.356180678               0.475661591               0.000000000               0.375000000               0.500000000               0.000000000               0.062695766               0.117295528               0.000000000               0.078308531               0.141214558               0.000000000               0.093921295               0.165133587               0.000000000               0.109534060               0.189052617               0.000000000               0.125146824               0.212971646               0.000000000               0.140759589               0.236890676               0.000000000               0.156372354               0.260809705               0.000000000               0.171985118               0.284728735               0.000000000               0.187597883               0.308647764               0.000000000               0.203210648               0.332566794               0.000000000               0.218823412               0.356485823               0.000000000               0.234436177               0.380404853               0.000000000               0.250048941               0.404323882               0.000000000               0.265661706               0.428242912               0.000000000               0.281274471               0.452161941               0.000000000               0.296887235               0.476080971               0.000000000               0.312500000               0.500000000               0.000000000               0.050896897               0.122875978               0.000000000               0.063340840               0.146446229               0.000000000               0.075784784               0.170016481               0.000000000               0.088228728               0.193586732               0.000000000               0.100672672               0.217156983               0.000000000               0.113116616               0.240727235               0.000000000               0.125560560               0.264297486               0.000000000               0.138004504               0.287867738               0.000000000               0.150448448               0.311437989               0.000000000               0.162892392               0.335008240               0.000000000               0.175336336               0.358578492               0.000000000               0.187780280               0.382148743               0.000000000               0.200224224               0.405718994               0.000000000               0.212668168               0.429289246               0.000000000               0.225112112               0.452859497               0.000000000               0.237556056               0.476429749               0.000000000               0.250000000               0.500000000               0.000000000               0.038607862               0.127273065               0.000000000               0.047913621               0.150568498               0.000000000               0.057219379               0.173863932               0.000000000               0.066525138               0.197159365               0.000000000               0.075830897               0.220454798               0.000000000               0.085136655               0.243750232               0.000000000               0.094442414               0.267045665               0.000000000               0.103748172               0.290341099               0.000000000               0.113053931               0.313636532               0.000000000               0.122359690               0.336931966               0.000000000               0.131665448               0.360227399               0.000000000               0.140971207               0.383522833               0.000000000               0.150276966               0.406818266               0.000000000               0.159582724               0.430113700               0.000000000               0.168888483               0.453409133               0.000000000               0.178194241               0.476704567               0.000000000               0.187500000               0.500000000               0.000000000               0.025947013               0.130444442               0.000000000               0.032137825               0.153541665               0.000000000               0.038328636               0.176638887               0.000000000               0.044519448               0.199736109               0.000000000               0.050710260               0.222833332               0.000000000               0.056901071               0.245930554               0.000000000               0.063091883               0.269027776               0.000000000               0.069282695               0.292124999               0.000000000               0.075473506               0.315222221               0.000000000               0.081664318               0.338319444               0.000000000               0.087855130               0.361416666               0.000000000               0.094045942               0.384513888               0.000000000               0.100236753               0.407611111               0.000000000               0.106427565               0.430708333               0.000000000               0.112618377               0.453805555               0.000000000               0.118809188               0.476902778               0.000000000               0.125000000               0.500000000               0.000000000               0.013036280               0.132359569               0.000000000               0.016127762               0.155337096               0.000000000               0.019219245               0.178314623               0.000000000               0.022310727               0.201292150               0.000000000               0.025402210               0.224269676               0.000000000               0.028493692               0.247247203               0.000000000               0.031585175               0.270224730               0.000000000               0.034676657               0.293202257               0.000000000               0.037768140               0.316179784               0.000000000               0.040859622               0.339157311               0.000000000               0.043951105               0.362134838               0.000000000               0.047042587               0.385112365               0.000000000               0.050134070               0.408089892               0.000000000               0.053225552               0.431067419               0.000000000               0.056317035               0.454044946               0.000000000               0.059408517               0.477022473               0.000000000               0.062500000               0.500000000               0.000000000               0.000000000               0.133000000               0.000000000               0.000000000               0.155937500               0.000000000               0.000000000               0.178875000               0.000000000               0.000000000               0.201812500               0.000000000               0.000000000               0.224750000               0.000000000               0.000000000               0.247687500               0.000000000               0.000000000               0.270625000               0.000000000               0.000000000               0.293562500               0.000000000               0.000000000               0.316500000               0.000000000               0.000000000               0.339437500               0.000000000               0.000000000               0.362375000               0.000000000               0.000000000               0.385312500               0.000000000               0.000000000               0.408250000               0.000000000               0.000000000               0.431187500               0.000000000               0.000000000               0.454125000               0.000000000               0.000000000               0.477062500               0.000000000               0.000000000               0.500000000               0.000000000               0.133000000               0.000000000               0.000000000               0.155937500               0.000000000               0.000000000               0.178875000               0.000000000               0.000000000               0.201812500               0.000000000               0.000000000               0.224750000               0.000000000               0.000000000               0.247687500               0.000000000               0.000000000               0.270625000               0.000000000               0.000000000               0.293562500               0.000000000               0.000000000               0.316500000               0.000000000               0.000000000               0.339437500               0.000000000               0.000000000               0.362375000               0.000000000               0.000000000               0.385312500               0.000000000               0.000000000               0.408250000               0.000000000               0.000000000               0.431187500               0.000000000               0.000000000               0.454125000               0.000000000               0.000000000               0.477062500               0.000000000               0.000000000               0.500000000               0.000000000               0.000000000               0.132359569              -0.013036280               0.000000000               0.155337096              -0.016127762               0.000000000               0.178314623              -0.019219245               0.000000000               0.201292150              -0.022310727               0.000000000               0.224269676              -0.025402210               0.000000000               0.247247203              -0.028493692               0.000000000               0.270224730              -0.031585175               0.000000000               0.293202257              -0.034676657               0.000000000               0.316179784              -0.037768140               0.000000000               0.339157311              -0.040859622               0.000000000               0.362134838              -0.043951105               0.000000000               0.385112365              -0.047042587               0.000000000               0.408089892              -0.050134070               0.000000000               0.431067419              -0.053225552               0.000000000               0.454044946              -0.056317035               0.000000000               0.477022473              -0.059408517               0.000000000               0.500000000              -0.062500000               0.000000000               0.130444442              -0.025947013               0.000000000               0.153541665              -0.032137825               0.000000000               0.176638887              -0.038328636               0.000000000               0.199736109              -0.044519448               0.000000000               0.222833332              -0.050710260               0.000000000               0.245930554              -0.056901071               0.000000000               0.269027776              -0.063091883               0.000000000               0.292124999              -0.069282695               0.000000000               0.315222221              -0.075473506               0.000000000               0.338319444              -0.081664318               0.000000000               0.361416666              -0.087855130               0.000000000               0.384513888              -0.094045942               0.000000000               0.407611111              -0.100236753               0.000000000               0.430708333              -0.106427565               0.000000000               0.453805555              -0.112618377               0.000000000               0.476902778              -0.118809188               0.000000000               0.500000000              -0.125000000               0.000000000               0.127273065              -0.038607862               0.000000000               0.150568498              -0.047913621               0.000000000               0.173863932              -0.057219379               0.000000000               0.197159365              -0.066525138               0.000000000               0.220454798              -0.075830897               0.000000000               0.243750232              -0.085136655               0.000000000               0.267045665              -0.094442414               0.000000000               0.290341099              -0.103748172               0.000000000               0.313636532              -0.113053931               0.000000000               0.336931966              -0.122359690               0.000000000               0.360227399              -0.131665448               0.000000000               0.383522833              -0.140971207               0.000000000               0.406818266              -0.150276966               0.000000000               0.430113700              -0.159582724               0.000000000               0.453409133              -0.168888483               0.000000000               0.476704567              -0.178194241               0.000000000               0.500000000              -0.187500000               0.000000000               0.122875978              -0.050896897               0.000000000               0.146446229              -0.063340840               0.000000000               0.170016481              -0.075784784               0.000000000               0.193586732              -0.088228728               0.000000000               0.217156983              -0.100672672               0.000000000               0.240727235              -0.113116616               0.000000000               0.264297486              -0.125560560               0.000000000               0.287867738              -0.138004504               0.000000000               0.311437989              -0.150448448               0.000000000               0.335008240              -0.162892392               0.000000000               0.358578492              -0.175336336               0.000000000               0.382148743              -0.187780280               0.000000000               0.405718994              -0.200224224               0.000000000               0.429289246              -0.212668168               0.000000000               0.452859497              -0.225112112               0.000000000               0.476429749              -0.237556056               0.000000000               0.500000000              -0.250000000               0.000000000               0.117295528              -0.062695766               0.000000000               0.141214558              -0.078308531               0.000000000               0.165133587              -0.093921295               0.000000000               0.189052617              -0.109534060               0.000000000               0.212971646              -0.125146824               0.000000000               0.236890676              -0.140759589               0.000000000               0.260809705              -0.156372354               0.000000000               0.284728735              -0.171985118               0.000000000               0.308647764              -0.187597883               0.000000000               0.332566794              -0.203210648               0.000000000               0.356485823              -0.218823412               0.000000000               0.380404853              -0.234436177               0.000000000               0.404323882              -0.250048941               0.000000000               0.428242912              -0.265661706               0.000000000               0.452161941              -0.281274471               0.000000000               0.476080971              -0.296887235               0.000000000               0.500000000              -0.312500000               0.000000000               0.110585458              -0.073890841               0.000000000               0.134923867              -0.092710163               0.000000000               0.159262276              -0.111529486               0.000000000               0.183600685              -0.130348808               0.000000000               0.207939094              -0.149168131               0.000000000               0.232277503              -0.167987453               0.000000000               0.256615912              -0.186806776               0.000000000               0.280954320              -0.205626098               0.000000000               0.305292729              -0.224445420               0.000000000               0.329631138              -0.243264743               0.000000000               0.353969547              -0.262084065               0.000000000               0.378307956              -0.280903388               0.000000000               0.402646365              -0.299722710               0.000000000               0.426984773              -0.318542033               0.000000000               0.451323182              -0.337361355               0.000000000               0.475661591              -0.356180678               0.000000000               0.500000000              -0.375000000               0.000000000               0.102810390              -0.084374307               0.000000000               0.127634741              -0.106444663               0.000000000               0.152459092              -0.128515018               0.000000000               0.177283442              -0.150585374               0.000000000               0.202107793              -0.172655730               0.000000000               0.226932143              -0.194726086               0.000000000               0.251756494              -0.216796442               0.000000000               0.276580845              -0.238866798               0.000000000               0.301405195              -0.260937153               0.000000000               0.326229546              -0.283007509               0.000000000               0.351053896              -0.305077865               0.000000000               0.375878247              -0.327148221               0.000000000               0.400702598              -0.349218577               0.000000000               0.425526948              -0.371288933               0.000000000               0.450351299              -0.393359288               0.000000000               0.475175649              -0.415429644               0.000000000               0.500000000              -0.437500000               0.000000000               0.094045202              -0.094045202               0.000000000               0.119417377              -0.119417377               0.000000000               0.144789552              -0.144789552               0.000000000               0.170161727              -0.170161727               0.000000000               0.195533901              -0.195533901               0.000000000               0.220906076              -0.220906076               0.000000000               0.246278251              -0.246278251               0.000000000               0.271650426              -0.271650426               0.000000000               0.297022601              -0.297022601               0.000000000               0.322394776              -0.322394776               0.000000000               0.347766951              -0.347766951               0.000000000               0.373139126              -0.373139126               0.000000000               0.398511300              -0.398511300               0.000000000               0.423883475              -0.423883475               0.000000000               0.449255650              -0.449255650               0.000000000               0.474627825              -0.474627825               0.000000000               0.500000000              -0.500000000               0.000000000               0.084374307              -0.102810390               0.000000000               0.106444663              -0.127634741               0.000000000               0.128515018              -0.152459092               0.000000000               0.150585374              -0.177283442               0.000000000               0.172655730              -0.202107793               0.000000000               0.194726086              -0.226932143               0.000000000               0.216796442              -0.251756494               0.000000000               0.238866798              -0.276580845               0.000000000               0.260937153              -0.301405195               0.000000000               0.283007509              -0.326229546               0.000000000               0.305077865              -0.351053896               0.000000000               0.327148221              -0.375878247               0.000000000               0.349218577              -0.400702598               0.000000000               0.371288933              -0.425526948               0.000000000               0.393359288              -0.450351299               0.000000000               0.415429644              -0.475175649               0.000000000               0.437500000              -0.500000000               0.000000000               0.073890841              -0.110585458               0.000000000               0.092710163              -0.134923867               0.000000000               0.111529486              -0.159262276               0.000000000               0.130348808              -0.183600685               0.000000000               0.149168131              -0.207939094               0.000000000               0.167987453              -0.232277503               0.000000000               0.186806776              -0.256615912               0.000000000               0.205626098              -0.280954320               0.000000000               0.224445420              -0.305292729               0.000000000               0.243264743              -0.329631138               0.000000000               0.262084065              -0.353969547               0.000000000               0.280903388              -0.378307956               0.000000000               0.299722710              -0.402646365               0.000000000               0.318542033              -0.426984773               0.000000000               0.337361355              -0.451323182               0.000000000               0.356180678              -0.475661591               0.000000000               0.375000000              -0.500000000               0.000000000               0.062695766              -0.117295528               0.000000000               0.078308531              -0.141214558               0.000000000               0.093921295              -0.165133587               0.000000000               0.109534060              -0.189052617               0.000000000               0.125146824              -0.212971646               0.000000000               0.140759589              -0.236890676               0.000000000               0.156372354              -0.260809705               0.000000000               0.171985118              -0.284728735               0.000000000               0.187597883              -0.308647764               0.000000000               0.203210648              -0.332566794               0.000000000               0.218823412              -0.356485823               0.000000000               0.234436177              -0.380404853               0.000000000               0.250048941              -0.404323882               0.000000000               0.265661706              -0.428242912               0.000000000               0.281274471              -0.452161941               0.000000000               0.296887235              -0.476080971               0.000000000               0.312500000              -0.500000000               0.000000000               0.050896897              -0.122875978               0.000000000               0.063340840              -0.146446229               0.000000000               0.075784784              -0.170016481               0.000000000               0.088228728              -0.193586732               0.000000000               0.100672672              -0.217156983               0.000000000               0.113116616              -0.240727235               0.000000000               0.125560560              -0.264297486               0.000000000               0.138004504              -0.287867738               0.000000000               0.150448448              -0.311437989               0.000000000               0.162892392              -0.335008240               0.000000000               0.175336336              -0.358578492               0.000000000               0.187780280              -0.382148743               0.000000000               0.200224224              -0.405718994               0.000000000               0.212668168              -0.429289246               0.000000000               0.225112112              -0.452859497               0.000000000               0.237556056              -0.476429749               0.000000000               0.250000000              -0.500000000               0.000000000               0.038607862              -0.127273065               0.000000000               0.047913621              -0.150568498               0.000000000               0.057219379              -0.173863932               0.000000000               0.066525138              -0.197159365               0.000000000               0.075830897              -0.220454798               0.000000000               0.085136655              -0.243750232               0.000000000               0.094442414              -0.267045665               0.000000000               0.103748172              -0.290341099               0.000000000               0.113053931              -0.313636532               0.000000000               0.122359690              -0.336931966               0.000000000               0.131665448              -0.360227399               0.000000000               0.140971207              -0.383522833               0.000000000               0.150276966              -0.406818266               0.000000000               0.159582724              -0.430113700               0.000000000               0.168888483              -0.453409133               0.000000000               0.178194241              -0.476704567               0.000000000               0.187500000              -0.500000000               0.000000000               0.025947013              -0.130444442               0.000000000               0.032137825              -0.153541665               0.000000000               0.038328636              -0.176638887               0.000000000               0.044519448              -0.199736109               0.000000000               0.050710260              -0.222833332               0.000000000               0.056901071              -0.245930554               0.000000000               0.063091883              -0.269027776               0.000000000               0.069282695              -0.292124999               0.000000000               0.075473506              -0.315222221               0.000000000               0.081664318              -0.338319444               0.000000000               0.087855130              -0.361416666               0.000000000               0.094045942              -0.384513888               0.000000000               0.100236753              -0.407611111               0.000000000               0.106427565              -0.430708333               0.000000000               0.112618377              -0.453805555               0.000000000               0.118809188              -0.476902778               0.000000000               0.125000000              -0.500000000               0.000000000               0.013036280              -0.132359569               0.000000000               0.016127762              -0.155337096               0.000000000               0.019219245              -0.178314623               0.000000000               0.022310727              -0.201292150               0.000000000               0.025402210              -0.224269676               0.000000000               0.028493692              -0.247247203               0.000000000               0.031585175              -0.270224730               0.000000000               0.034676657              -0.293202257               0.000000000               0.037768140              -0.316179784               0.000000000               0.040859622              -0.339157311               0.000000000               0.043951105              -0.362134838               0.000000000               0.047042587              -0.385112365               0.000000000               0.050134070              -0.408089892               0.000000000               0.053225552              -0.431067419               0.000000000               0.056317035              -0.454044946               0.000000000               0.059408517              -0.477022473               0.000000000               0.062500000              -0.500000000               0.000000000               0.000000000              -0.133000000               0.000000000               0.000000000              -0.155937500               0.000000000               0.000000000              -0.178875000               0.000000000               0.000000000              -0.201812500               0.000000000               0.000000000              -0.224750000               0.000000000               0.000000000              -0.247687500               0.000000000               0.000000000              -0.270625000               0.000000000               0.000000000              -0.293562500               0.000000000               0.000000000              -0.316500000               0.000000000               0.000000000              -0.339437500               0.000000000               0.000000000              -0.362375000               0.000000000               0.000000000              -0.385312500               0.000000000               0.000000000              -0.408250000               0.000000000               0.000000000              -0.431187500               0.000000000               0.000000000              -0.454125000               0.000000000               0.000000000              -0.477062500               0.000000000               0.000000000              -0.500000000               0.000000000              -0.133000000               0.000000000               0.000000000              -0.155937500               0.000000000               0.000000000              -0.178875000               0.000000000               0.000000000              -0.201812500               0.000000000               0.000000000              -0.224750000               0.000000000               0.000000000              -0.247687500               0.000000000               0.000000000              -0.270625000               0.000000000               0.000000000              -0.293562500               0.000000000               0.000000000              -0.316500000               0.000000000               0.000000000              -0.339437500               0.000000000               0.000000000              -0.362375000               0.000000000               0.000000000              -0.385312500               0.000000000               0.000000000              -0.408250000               0.000000000               0.000000000              -0.431187500               0.000000000               0.000000000              -0.454125000               0.000000000               0.000000000              -0.477062500               0.000000000               0.000000000              -0.500000000               0.000000000               0.000000000              -0.132359569              -0.013036280               0.000000000              -0.155337096              -0.016127762               0.000000000              -0.178314623              -0.019219245               0.000000000              -0.201292150              -0.022310727               0.000000000              -0.224269676              -0.025402210               0.000000000              -0.247247203              -0.028493692               0.000000000              -0.270224730              -0.031585175               0.000000000              -0.293202257              -0.034676657               0.000000000              -0.316179784              -0.037768140               0.000000000              -0.339157311              -0.040859622               0.000000000              -0.362134838              -0.043951105               0.000000000              -0.385112365              -0.047042587               0.000000000              -0.408089892              -0.050134070               0.000000000              -0.431067419              -0.053225552               0.000000000              -0.454044946              -0.056317035               0.000000000              -0.477022473              -0.059408517               0.000000000              -0.500000000              -0.062500000               0.000000000              -0.130444442              -0.025947013               0.000000000              -0.153541665              -0.032137825               0.000000000              -0.176638887              -0.038328636               0.000000000              -0.199736109              -0.044519448               0.000000000              -0.222833332              -0.050710260               0.000000000              -0.245930554              -0.056901071               0.000000000              -0.269027776              -0.063091883               0.000000000              -0.292124999              -0.069282695               0.000000000              -0.315222221              -0.075473506               0.000000000              -0.338319444              -0.081664318               0.000000000              -0.361416666              -0.087855130               0.000000000              -0.384513888              -0.094045942               0.000000000              -0.407611111              -0.100236753               0.000000000              -0.430708333              -0.106427565               0.000000000              -0.453805555              -0.112618377               0.000000000              -0.476902778              -0.118809188               0.000000000              -0.500000000              -0.125000000               0.000000000              -0.127273065              -0.038607862               0.000000000              -0.150568498              -0.047913621               0.000000000              -0.173863932              -0.057219379               0.000000000              -0.197159365              -0.066525138               0.000000000              -0.220454798              -0.075830897               0.000000000              -0.243750232              -0.085136655               0.000000000              -0.267045665              -0.094442414               0.000000000              -0.290341099              -0.103748172               0.000000000              -0.313636532              -0.113053931               0.000000000              -0.336931966              -0.122359690               0.000000000              -0.360227399              -0.131665448               0.000000000              -0.383522833              -0.140971207               0.000000000              -0.406818266              -0.150276966               0.000000000              -0.430113700              -0.159582724               0.000000000              -0.453409133              -0.168888483               0.000000000              -0.476704567              -0.178194241               0.000000000              -0.500000000              -0.187500000               0.000000000              -0.122875978              -0.050896897               0.000000000              -0.146446229              -0.063340840               0.000000000              -0.170016481              -0.075784784               0.000000000              -0.193586732              -0.088228728               0.000000000              -0.217156983              -0.100672672               0.000000000              -0.240727235              -0.113116616               0.000000000              -0.264297486              -0.125560560               0.000000000              -0.287867738              -0.138004504               0.000000000              -0.311437989              -0.150448448               0.000000000              -0.335008240              -0.162892392               0.000000000              -0.358578492              -0.175336336               0.000000000              -0.382148743              -0.187780280               0.000000000              -0.405718994              -0.200224224               0.000000000              -0.429289246              -0.212668168               0.000000000              -0.452859497              -0.225112112               0.000000000              -0.476429749              -0.237556056               0.000000000              -0.500000000              -0.250000000               0.000000000              -0.117295528              -0.062695766               0.000000000              -0.141214558              -0.078308531               0.000000000              -0.165133587              -0.093921295               0.000000000              -0.189052617              -0.109534060               0.000000000              -0.212971646              -0.125146824               0.000000000              -0.236890676              -0.140759589               0.000000000              -0.260809705              -0.156372354               0.000000000              -0.284728735              -0.171985118               0.000000000              -0.308647764              -0.187597883               0.000000000              -0.332566794              -0.203210648               0.000000000              -0.356485823              -0.218823412               0.000000000              -0.380404853              -0.234436177               0.000000000              -0.404323882              -0.250048941               0.000000000              -0.428242912              -0.265661706               0.000000000              -0.452161941              -0.281274471               0.000000000              -0.476080971              -0.296887235               0.000000000              -0.500000000              -0.312500000               0.000000000              -0.110585458              -0.073890841               0.000000000              -0.134923867              -0.092710163               0.000000000              -0.159262276              -0.111529486               0.000000000              -0.183600685              -0.130348808               0.000000000              -0.207939094              -0.149168131               0.000000000              -0.232277503              -0.167987453               0.000000000              -0.256615912              -0.186806776               0.000000000              -0.280954320              -0.205626098               0.000000000              -0.305292729              -0.224445420               0.000000000              -0.329631138              -0.243264743               0.000000000              -0.353969547              -0.262084065               0.000000000              -0.378307956              -0.280903388               0.000000000              -0.402646365              -0.299722710               0.000000000              -0.426984773              -0.318542033               0.000000000              -0.451323182              -0.337361355               0.000000000              -0.475661591              -0.356180678               0.000000000              -0.500000000              -0.375000000               0.000000000              -0.102810390              -0.084374307               0.000000000              -0.127634741              -0.106444663               0.000000000              -0.152459092              -0.128515018               0.000000000              -0.177283442              -0.150585374               0.000000000              -0.202107793              -0.172655730               0.000000000              -0.226932143              -0.194726086               0.000000000              -0.251756494              -0.216796442               0.000000000              -0.276580845              -0.238866798               0.000000000              -0.301405195              -0.260937153               0.000000000              -0.326229546              -0.283007509               0.000000000              -0.351053896              -0.305077865               0.000000000              -0.375878247              -0.327148221               0.000000000              -0.400702598              -0.349218577               0.000000000              -0.425526948              -0.371288933               0.000000000              -0.450351299              -0.393359288               0.000000000              -0.475175649              -0.415429644               0.000000000              -0.500000000              -0.437500000               0.000000000              -0.094045202              -0.094045202               0.000000000              -0.119417377              -0.119417377               0.000000000              -0.144789552              -0.144789552               0.000000000              -0.170161727              -0.170161727               0.000000000              -0.195533901              -0.195533901               0.000000000              -0.220906076              -0.220906076               0.000000000              -0.246278251              -0.246278251               0.000000000              -0.271650426              -0.271650426               0.000000000              -0.297022601              -0.297022601               0.000000000              -0.322394776              -0.322394776               0.000000000              -0.347766951              -0.347766951               0.000000000              -0.373139126              -0.373139126               0.000000000              -0.398511300              -0.398511300               0.000000000              -0.423883475              -0.423883475               0.000000000              -0.449255650              -0.449255650               0.000000000              -0.474627825              -0.474627825               0.000000000              -0.500000000              -0.500000000               0.000000000              -0.084374307              -0.102810390               0.000000000              -0.106444663              -0.127634741               0.000000000              -0.128515018              -0.152459092               0.000000000              -0.150585374              -0.177283442               0.000000000              -0.172655730              -0.202107793               0.000000000              -0.194726086              -0.226932143               0.000000000              -0.216796442              -0.251756494               0.000000000              -0.238866798              -0.276580845               0.000000000              -0.260937153              -0.301405195               0.000000000              -0.283007509              -0.326229546               0.000000000              -0.305077865              -0.351053896               0.000000000              -0.327148221              -0.375878247               0.000000000              -0.349218577              -0.400702598               0.000000000              -0.371288933              -0.425526948               0.000000000              -0.393359288              -0.450351299               0.000000000              -0.415429644              -0.475175649               0.000000000              -0.437500000              -0.500000000               0.000000000              -0.073890841              -0.110585458               0.000000000              -0.092710163              -0.134923867               0.000000000              -0.111529486              -0.159262276               0.000000000              -0.130348808              -0.183600685               0.000000000              -0.149168131              -0.207939094               0.000000000              -0.167987453              -0.232277503               0.000000000              -0.186806776              -0.256615912               0.000000000              -0.205626098              -0.280954320               0.000000000              -0.224445420              -0.305292729               0.000000000              -0.243264743              -0.329631138               0.000000000              -0.262084065              -0.353969547               0.000000000              -0.280903388              -0.378307956               0.000000000              -0.299722710              -0.402646365               0.000000000              -0.318542033              -0.426984773               0.000000000              -0.337361355              -0.451323182               0.000000000              -0.356180678              -0.475661591               0.000000000              -0.375000000              -0.500000000               0.000000000              -0.062695766              -0.117295528               0.000000000              -0.078308531              -0.141214558               0.000000000              -0.093921295              -0.165133587               0.000000000              -0.109534060              -0.189052617               0.000000000              -0.125146824              -0.212971646               0.000000000              -0.140759589              -0.236890676               0.000000000              -0.156372354              -0.260809705               0.000000000              -0.171985118              -0.284728735               0.000000000              -0.187597883              -0.308647764               0.000000000              -0.203210648              -0.332566794               0.000000000              -0.218823412              -0.356485823               0.000000000              -0.234436177              -0.380404853               0.000000000              -0.250048941              -0.404323882               0.000000000              -0.265661706              -0.428242912               0.000000000              -0.281274471              -0.452161941               0.000000000              -0.296887235              -0.476080971               0.000000000              -0.312500000              -0.500000000               0.000000000              -0.050896897              -0.122875978               0.000000000              -0.063340840              -0.146446229               0.000000000              -0.075784784              -0.170016481               0.000000000              -0.088228728              -0.193586732               0.000000000              -0.100672672              -0.217156983               0.000000000              -0.113116616              -0.240727235               0.000000000              -0.125560560              -0.264297486               0.000000000              -0.138004504              -0.287867738               0.000000000              -0.150448448              -0.311437989               0.000000000              -0.162892392              -0.335008240               0.000000000              -0.175336336              -0.358578492               0.000000000              -0.187780280              -0.382148743               0.000000000              -0.200224224              -0.405718994               0.000000000              -0.212668168              -0.429289246               0.000000000              -0.225112112              -0.452859497               0.000000000              -0.237556056              -0.476429749               0.000000000              -0.250000000              -0.500000000               0.000000000              -0.038607862              -0.127273065               0.000000000              -0.047913621              -0.150568498               0.000000000              -0.057219379              -0.173863932               0.000000000              -0.066525138              -0.197159365               0.000000000              -0.075830897              -0.220454798               0.000000000              -0.085136655              -0.243750232               0.000000000              -0.094442414              -0.267045665               0.000000000              -0.103748172              -0.290341099               0.000000000              -0.113053931              -0.313636532               0.000000000              -0.122359690              -0.336931966               0.000000000              -0.131665448              -0.360227399               0.000000000              -0.140971207              -0.383522833               0.000000000              -0.150276966              -0.406818266               0.000000000              -0.159582724              -0.430113700               0.000000000              -0.168888483              -0.453409133               0.000000000              -0.178194241              -0.476704567               0.000000000              -0.187500000              -0.500000000               0.000000000              -0.025947013              -0.130444442               0.000000000              -0.032137825              -0.153541665               0.000000000              -0.038328636              -0.176638887               0.000000000              -0.044519448              -0.199736109               0.000000000              -0.050710260              -0.222833332               0.000000000              -0.056901071              -0.245930554               0.000000000              -0.063091883              -0.269027776               0.000000000              -0.069282695              -0.292124999               0.000000000              -0.075473506              -0.315222221               0.000000000              -0.081664318              -0.338319444               0.000000000              -0.087855130              -0.361416666               0.000000000              -0.094045942              -0.384513888               0.000000000              -0.100236753              -0.407611111               0.000000000              -0.106427565              -0.430708333               0.000000000              -0.112618377              -0.453805555               0.000000000              -0.118809188              -0.476902778               0.000000000              -0.125000000              -0.500000000               0.000000000              -0.013036280              -0.132359569               0.000000000              -0.016127762              -0.155337096               0.000000000              -0.019219245              -0.178314623               0.000000000              -0.022310727              -0.201292150               0.000000000              -0.025402210              -0.224269676               0.000000000              -0.028493692              -0.247247203               0.000000000              -0.031585175              -0.270224730               0.000000000              -0.034676657              -0.293202257               0.000000000              -0.037768140              -0.316179784               0.000000000              -0.040859622              -0.339157311               0.000000000              -0.043951105              -0.362134838               0.000000000              -0.047042587              -0.385112365               0.000000000              -0.050134070              -0.408089892               0.000000000              -0.053225552              -0.431067419               0.000000000              -0.056317035              -0.454044946               0.000000000              -0.059408517              -0.477022473               0.000000000              -0.062500000              -0.500000000               0.000000000               0.000000000              -0.133000000               0.000000000               0.000000000              -0.155937500               0.000000000               0.000000000              -0.178875000               0.000000000               0.000000000              -0.201812500               0.000000000               0.000000000              -0.224750000               0.000000000               0.000000000              -0.247687500               0.000000000               0.000000000              -0.270625000               0.000000000               0.000000000              -0.293562500               0.000000000               0.000000000              -0.316500000               0.000000000               0.000000000              -0.339437500               0.000000000               0.000000000              -0.362375000               0.000000000               0.000000000              -0.385312500               0.000000000               0.000000000              -0.408250000               0.000000000               0.000000000              -0.431187500               0.000000000               0.000000000              -0.454125000               0.000000000               0.000000000              -0.477062500               0.000000000               0.000000000              -0.500000000               0.000000000              -0.133000000               0.000000000               0.000000000              -0.155937500               0.000000000               0.000000000              -0.178875000               0.000000000               0.000000000              -0.201812500               0.000000000               0.000000000              -0.224750000               0.000000000               0.000000000              -0.247687500               0.000000000               0.000000000              -0.270625000               0.000000000               0.000000000              -0.293562500               0.000000000               0.000000000              -0.316500000               0.000000000               0.000000000              -0.339437500               0.000000000               0.000000000              -0.362375000               0.000000000               0.000000000              -0.385312500               0.000000000               0.000000000              -0.408250000               0.000000000               0.000000000              -0.431187500               0.000000000               0.000000000              -0.454125000               0.000000000               0.000000000              -0.477062500               0.000000000               0.000000000              -0.500000000               0.000000000               0.000000000              -0.132359569               0.013036280               0.000000000              -0.155337096               0.016127762               0.000000000              -0.178314623               0.019219245               0.000000000              -0.201292150               0.022310727               0.000000000              -0.224269676               0.025402210               0.000000000              -0.247247203               0.028493692               0.000000000              -0.270224730               0.031585175               0.000000000              -0.293202257               0.034676657               0.000000000              -0.316179784               0.037768140               0.000000000              -0.339157311               0.040859622               0.000000000              -0.362134838               0.043951105               0.000000000              -0.385112365               0.047042587               0.000000000              -0.408089892               0.050134070               0.000000000              -0.431067419               0.053225552               0.000000000              -0.454044946               0.056317035               0.000000000              -0.477022473               0.059408517               0.000000000              -0.500000000               0.062500000               0.000000000              -0.130444442               0.025947013               0.000000000              -0.153541665               0.032137825               0.000000000              -0.176638887               0.038328636               0.000000000              -0.199736109               0.044519448               0.000000000              -0.222833332               0.050710260               0.000000000              -0.245930554               0.056901071               0.000000000              -0.269027776               0.063091883               0.000000000              -0.292124999               0.069282695               0.000000000              -0.315222221               0.075473506               0.000000000              -0.338319444               0.081664318               0.000000000              -0.361416666               0.087855130               0.000000000              -0.384513888               0.094045942               0.000000000              -0.407611111               0.100236753               0.000000000              -0.430708333               0.106427565               0.000000000              -0.453805555               0.112618377               0.000000000              -0.476902778               0.118809188               0.000000000              -0.500000000               0.125000000               0.000000000              -0.127273065               0.038607862               0.000000000              -0.150568498               0.047913621               0.000000000              -0.173863932               0.057219379               0.000000000              -0.197159365               0.066525138               0.000000000              -0.220454798               0.075830897               0.000000000              -0.243750232               0.085136655               0.000000000              -0.267045665               0.094442414               0.000000000              -0.290341099               0.103748172               0.000000000              -0.313636532               0.113053931               0.000000000              -0.336931966               0.122359690               0.000000000              -0.360227399               0.131665448               0.000000000              -0.383522833               0.140971207               0.000000000              -0.406818266               0.150276966               0.000000000              -0.430113700               0.159582724               0.000000000              -0.453409133               0.168888483               0.000000000              -0.476704567               0.178194241               0.000000000              -0.500000000               0.187500000               0.000000000              -0.122875978               0.050896897               0.000000000              -0.146446229               0.063340840               0.000000000              -0.170016481               0.075784784               0.000000000              -0.193586732               0.088228728               0.000000000              -0.217156983               0.100672672               0.000000000              -0.240727235               0.113116616               0.000000000              -0.264297486               0.125560560               0.000000000              -0.287867738               0.138004504               0.000000000              -0.311437989               0.150448448               0.000000000              -0.335008240               0.162892392               0.000000000              -0.358578492               0.175336336               0.000000000              -0.382148743               0.187780280               0.000000000              -0.405718994               0.200224224               0.000000000              -0.429289246               0.212668168               0.000000000              -0.452859497               0.225112112               0.000000000              -0.476429749               0.237556056               0.000000000              -0.500000000               0.250000000               0.000000000              -0.117295528               0.062695766               0.000000000              -0.141214558               0.078308531               0.000000000              -0.165133587               0.093921295               0.000000000              -0.189052617               0.109534060               0.000000000              -0.212971646               0.125146824               0.000000000              -0.236890676               0.140759589               0.000000000              -0.260809705               0.156372354               0.000000000              -0.284728735               0.171985118               0.000000000              -0.308647764               0.187597883               0.000000000              -0.332566794               0.203210648               0.000000000              -0.356485823               0.218823412               0.000000000              -0.380404853               0.234436177               0.000000000              -0.404323882               0.250048941               0.000000000              -0.428242912               0.265661706               0.000000000              -0.452161941               0.281274471               0.000000000              -0.476080971               0.296887235               0.000000000              -0.500000000               0.312500000               0.000000000              -0.110585458               0.073890841               0.000000000              -0.134923867               0.092710163               0.000000000              -0.159262276               0.111529486               0.000000000              -0.183600685               0.130348808               0.000000000              -0.207939094               0.149168131               0.000000000              -0.232277503               0.167987453               0.000000000              -0.256615912               0.186806776               0.000000000              -0.280954320               0.205626098               0.000000000              -0.305292729               0.224445420               0.000000000              -0.329631138               0.243264743               0.000000000              -0.353969547               0.262084065               0.000000000              -0.378307956               0.280903388               0.000000000              -0.402646365               0.299722710               0.000000000              -0.426984773               0.318542033               0.000000000              -0.451323182               0.337361355               0.000000000              -0.475661591               0.356180678               0.000000000              -0.500000000               0.375000000               0.000000000              -0.102810390               0.084374307               0.000000000              -0.127634741               0.106444663               0.000000000              -0.152459092               0.128515018               0.000000000              -0.177283442               0.150585374               0.000000000              -0.202107793               0.172655730               0.000000000              -0.226932143               0.194726086               0.000000000              -0.251756494               0.216796442               0.000000000              -0.276580845               0.238866798               0.000000000              -0.301405195               0.260937153               0.000000000              -0.326229546               0.283007509               0.000000000              -0.351053896               0.305077865               0.000000000              -0.375878247               0.327148221               0.000000000              -0.400702598               0.349218577               0.000000000              -0.425526948               0.371288933               0.000000000              -0.450351299               0.393359288               0.000000000              -0.475175649               0.415429644               0.000000000              -0.500000000               0.437500000               0.000000000              -0.094045202               0.094045202               0.000000000              -0.119417377               0.119417377               0.000000000              -0.144789552               0.144789552               0.000000000              -0.170161727               0.170161727               0.000000000              -0.195533901               0.195533901               0.000000000              -0.220906076               0.220906076               0.000000000              -0.246278251               0.246278251               0.000000000              -0.271650426               0.271650426               0.000000000              -0.297022601               0.297022601               0.000000000              -0.322394776               0.322394776               0.000000000              -0.347766951               0.347766951               0.000000000              -0.373139126               0.373139126               0.000000000              -0.398511300               0.398511300               0.000000000              -0.423883475               0.423883475               0.000000000              -0.449255650               0.449255650               0.000000000              -0.474627825               0.474627825               0.000000000              -0.500000000               0.500000000               0.000000000              -0.084374307               0.102810390               0.000000000              -0.106444663               0.127634741               0.000000000              -0.128515018               0.152459092               0.000000000              -0.150585374               0.177283442               0.000000000              -0.172655730               0.202107793               0.000000000              -0.194726086               0.226932143               0.000000000              -0.216796442               0.251756494               0.000000000              -0.238866798               0.276580845               0.000000000              -0.260937153               0.301405195               0.000000000              -0.283007509               0.326229546               0.000000000              -0.305077865               0.351053896               0.000000000              -0.327148221               0.375878247               0.000000000              -0.349218577               0.400702598               0.000000000              -0.371288933               0.425526948               0.000000000              -0.393359288               0.450351299               0.000000000              -0.415429644               0.475175649               0.000000000              -0.437500000               0.500000000               0.000000000              -0.073890841               0.110585458               0.000000000              -0.092710163               0.134923867               0.000000000              -0.111529486               0.159262276               0.000000000              -0.130348808               0.183600685               0.000000000              -0.149168131               0.207939094               0.000000000              -0.167987453               0.232277503               0.000000000              -0.186806776               0.256615912               0.000000000              -0.205626098               0.280954320               0.000000000              -0.224445420               0.305292729               0.000000000              -0.243264743               0.329631138               0.000000000              -0.262084065               0.353969547               0.000000000              -0.280903388               0.378307956               0.000000000              -0.299722710               0.402646365               0.000000000              -0.318542033               0.426984773               0.000000000              -0.337361355               0.451323182               0.000000000              -0.356180678               0.475661591               0.000000000              -0.375000000               0.500000000               0.000000000              -0.062695766               0.117295528               0.000000000              -0.078308531               0.141214558               0.000000000              -0.093921295               0.165133587               0.000000000              -0.109534060               0.189052617               0.000000000              -0.125146824               0.212971646               0.000000000              -0.140759589               0.236890676               0.000000000              -0.156372354               0.260809705               0.000000000              -0.171985118               0.284728735               0.000000000              -0.187597883               0.308647764               0.000000000              -0.203210648               0.332566794               0.000000000              -0.218823412               0.356485823               0.000000000              -0.234436177               0.380404853               0.000000000              -0.250048941               0.404323882               0.000000000              -0.265661706               0.428242912               0.000000000              -0.281274471               0.452161941               0.000000000              -0.296887235               0.476080971               0.000000000              -0.312500000               0.500000000               0.000000000              -0.050896897               0.122875978               0.000000000              -0.063340840               0.146446229               0.000000000              -0.075784784               0.170016481               0.000000000              -0.088228728               0.193586732               0.000000000              -0.100672672               0.217156983               0.000000000              -0.113116616               0.240727235               0.000000000              -0.125560560               0.264297486               0.000000000              -0.138004504               0.287867738               0.000000000              -0.150448448               0.311437989               0.000000000              -0.162892392               0.335008240               0.000000000              -0.175336336               0.358578492               0.000000000              -0.187780280               0.382148743               0.000000000              -0.200224224               0.405718994               0.000000000              -0.212668168               0.429289246               0.000000000              -0.225112112               0.452859497               0.000000000              -0.237556056               0.476429749               0.000000000              -0.250000000               0.500000000               0.000000000              -0.038607862               0.127273065               0.000000000              -0.047913621               0.150568498               0.000000000              -0.057219379               0.173863932               0.000000000              -0.066525138               0.197159365               0.000000000              -0.075830897               0.220454798               0.000000000              -0.085136655               0.243750232               0.000000000              -0.094442414               0.267045665               0.000000000              -0.103748172               0.290341099               0.000000000              -0.113053931               0.313636532               0.000000000              -0.122359690               0.336931966               0.000000000              -0.131665448               0.360227399               0.000000000              -0.140971207               0.383522833               0.000000000              -0.150276966               0.406818266               0.000000000              -0.159582724               0.430113700               0.000000000              -0.168888483               0.453409133               0.000000000              -0.178194241               0.476704567               0.000000000              -0.187500000               0.500000000               0.000000000              -0.025947013               0.130444442               0.000000000              -0.032137825               0.153541665               0.000000000              -0.038328636               0.176638887               0.000000000              -0.044519448               0.199736109               0.000000000              -0.050710260               0.222833332               0.000000000              -0.056901071               0.245930554               0.000000000              -0.063091883               0.269027776               0.000000000              -0.069282695               0.292124999               0.000000000              -0.075473506               0.315222221               0.000000000              -0.081664318               0.338319444               0.000000000              -0.087855130               0.361416666               0.000000000              -0.094045942               0.384513888               0.000000000              -0.100236753               0.407611111               0.000000000              -0.106427565               0.430708333               0.000000000              -0.112618377               0.453805555               0.000000000              -0.118809188               0.476902778               0.000000000              -0.125000000               0.500000000               0.000000000              -0.013036280               0.132359569               0.000000000              -0.016127762               0.155337096               0.000000000              -0.019219245               0.178314623               0.000000000              -0.022310727               0.201292150               0.000000000              -0.025402210               0.224269676               0.000000000              -0.028493692               0.247247203               0.000000000              -0.031585175               0.270224730               0.000000000              -0.034676657               0.293202257               0.000000000              -0.037768140               0.316179784               0.000000000              -0.040859622               0.339157311               0.000000000              -0.043951105               0.362134838               0.000000000              -0.047042587               0.385112365               0.000000000              -0.050134070               0.408089892               0.000000000              -0.053225552               0.431067419               0.000000000              -0.056317035               0.454044946               0.000000000              -0.059408517               0.477022473               0.000000000              -0.062500000               0.500000000               0.000000000               0.000000000               0.133000000               0.000000000               0.000000000               0.155937500               0.000000000               0.000000000               0.178875000               0.000000000               0.000000000               0.201812500               0.000000000               0.000000000               0.224750000               0.000000000               0.000000000               0.247687500               0.000000000               0.000000000               0.270625000               0.000000000               0.000000000               0.293562500               0.000000000               0.000000000               0.316500000               0.000000000               0.000000000               0.339437500               0.000000000               0.000000000               0.362375000               0.000000000               0.000000000               0.385312500               0.000000000               0.000000000               0.408250000               0.000000000               0.000000000               0.431187500               0.000000000               0.000000000               0.454125000               0.000000000               0.000000000               0.477062500               0.000000000               0.000000000               0.500000000               0.000000000 </DataArray>
</Points>
<Cells>
<DataArray type="Int32"                                    Name="connectivity"                                                      NumberOfComponents=" 1" format="ascii">
         0          1         18         17          1          2         19         18          2          3         20         19          3          4         21         20          4          5         22         21          5          6         23         22          6          7         24         23          7          8         25         24          8          9         26         25          9         10         27         26         10         11         28         27         11         12         29         28         12         13         30         29         13         14         31         30         14         15         32         31         15         16         33         32         17         18         35         34         18         19         36         35         19         20         37         36         20         21         38         37         21         22         39         38         22         23         40         39         23         24         41         40         24         25         42         41         25         26         43         42         26         27         44         43         27         28         45         44         28         29         46         45         29         30         47         46         30         31         48         47         31         32         49         48         32         33         50         49         34         35         52         51         35         36         53         52         36         37         54         53         37         38         55         54         38         39         56         55         39         40         57         56         40         41         58         57         41         42         59         58         42         43         60         59         43         44         61         60         44         45         62         61         45         46         63         62         46         47         64         63         47         48         65         64         48         49         66         65         49         50         67         66         51         52         69         68         52         53         70         69         53         54         71         70         54         55         72         71         55         56         73         72         56         57         74         73         57         58         75         74         58         59         76         75         59         60         77         76         60         61         78         77         61         62         79         78         62         63         80         79         63         64         81         80         64         65         82         81         65         66         83         82         66         67         84         83         68         69         86         85         69         70         87         86         70         71         88         87         71         72         89         88         72         73         90         89         73         74         91         90         74         75         92         91         75         76         93         92         76         77         94         93         77         78         95         94         78         79         96         95         79         80         97         96         80         81         98         97         81         82         99         98         82         83        100         99         83         84        101        100         85         86        103        102         86         87        104        103         87         88        105        104         88         89        106        105         89         90        107        106         90         91        108        107         91         92        109        108         92         93        110        109         93         94        111        110         94         95        112        111         95         96        113        112         96         97        114        113         97         98        115        114         98         99        116        115         99        100        117        116        100        101        118        117        102        103        120        119        103        104        121        120        104        105        122        121        105        106        123        122        106        107        124        123        107        108        125        124        108        109        126        125        109        110        127        126        110        111        128        127        111        112        129        128        112        113        130        129        113        114        131        130        114        115        132        131        115        116        133        132        116        117        134        133        117        118        135        134        119        120        137        136        120        121        138        137        121        122        139        138        122        123        140        139        123        124        141        140        124        125        142        141        125        126        143        142        126        127        144        143        127        128        145        144        128        129        146        145        129        130        147        146        130        131        148        147        131        132        149        148        132        133        150        149        133        134        151        150        134        135        152        151        136        137        154        153        137        138        155        154        138        139        156        155        139        140        157        156        140        141        158        157        141        142        159        158        142        143        160        159        143        144        161        160        144        145        162        161        145        146        163        162        146        147        164        163        147        148        165        164        148        149        166        165        149        150        167        166        150        151        168        167        151        152        169        168        153        154        171        170        154        155        172        171        155        156        173        172        156        157        174        173        157        158        175        174        158        159        176        175        159        160        177        176        160        161        178        177        161        162        179        178        162        163        180        179        163        164        181        180        164        165        182        181        165        166        183        182        166        167        184        183        167        168        185        184        168        169        186        185        170        171        188        187        171        172        189        188        172        173        190        189        173        174        191        190        174        175        192        191        175        176        193        192        176        177        194        193        177        178        195        194        178        179        196        195        179        180        197        196        180        181        198        197        181        182        199        198        182        183        200        199        183        184        201        200        184        185        202        201        185        186        203        202        187        188        205        204        188        189        206        205        189        190        207        206        190        191        208        207        191        192        209        208        192        193        210        209        193        194        211        210        194        195        212        211        195        196        213        212        196        197        214        213        197        198        215        214        198        199        216        215        199        200        217        216        200        201        218        217        201        202        219        218        202        203        220        219        204        205        222        221        205        206        223        222        206        207        224        223        207        208        225        224        208        209        226        225        209        210        227        226        210        211        228        227        211        212        229        228        212        213        230        229        213        214        231        230        214        215        232        231        215        216        233        232        216        217        234        233        217        218        235        234        218        219        236        235        219        220        237        236        221        222        239        238        222        223        240        239        223        224        241        240        224        225        242        241        225        226        243        242        226        227        244        243        227        228        245        244        228        229        246        245        229        230        247        246        230        231        248        247        231        232        249        248        232        233        250        249        233        234        251        250        234        235        252        251        235        236        253        252        236        237        254        253        238        239        256        255        239        240        257        256        240        241        258        257        241        242        259        258        242        243        260        259        243        244        261        260        244        245        262        261        245        246        263        262        246        247        264        263        247        248        265        264        248        249        266        265        249        250        267        266        250        251        268        267        251        252        269        268        252        253        270        269        253        254        271        270        255        256        273        272        256        257        274        273        257        258        275        274        258        259        276        275        259        260        277        276        260        261        278        277        261        262        279        278        262        263        280        279        263        264        281        280        264        265        282        281        265        266        283        282        266        267        284        283        267        268        285        284        268        269        286        285        269        270        287        286        270        271        288        287        306        307          1          0        307        308          2          1        308        309          3          2        309        310          4          3        310        311          5          4        311        312          6          5        312        313          7          6        313        314          8          7        314        315          9          8        315        316         10          9        316        317         11         10        317        318         12         11        318        319         13         12        319        320         14         13        320        321         15         14        321        322         16         15        323        324        307        306        324        325        308        307        325        326        309        308        326        327        310        309        327        328        311        310        328        329        312        311        329        330        313        312        330        331        314        313        331        332        315        314        332        333        316        315        333        334        317        316        334        335        318        317        335        336        319        318        336        337        320        319        337        338        321        320        338        339        322        321        340        341        324        323        341        342        325        324        342        343        326        325        343        344        327        326        344        345        328        327        345        346        329        328        346        347        330        329        347        348        331        330        348        349        332        331        349        350        333        332        350        351        334        333        351        352        335        334        352        353        336        335        353        354        337        336        354        355        338        337        355        356        339        338        357        358        341        340        358        359        342        341        359        360        343        342        360        361        344        343        361        362        345        344        362        363        346        345        363        364        347        346        364        365        348        347        365        366        349        348        366        367        350        349        367        368        351        350        368        369        352        351        369        370        353        352        370        371        354        353        371        372        355        354        372        373        356        355        374        375        358        357        375        376        359        358        376        377        360        359        377        378        361        360        378        379        362        361        379        380        363        362        380        381        364        363        381        382        365        364        382        383        366        365        383        384        367        366        384        385        368        367        385        386        369        368        386        387        370        369        387        388        371        370        388        389        372        371        389        390        373        372        391        392        375        374        392        393        376        375        393        394        377        376        394        395        378        377        395        396        379        378        396        397        380        379        397        398        381        380        398        399        382        381        399        400        383        382        400        401        384        383        401        402        385        384        402        403        386        385        403        404        387        386        404        405        388        387        405        406        389        388        406        407        390        389        408        409        392        391        409        410        393        392        410        411        394        393        411        412        395        394        412        413        396        395        413        414        397        396        414        415        398        397        415        416        399        398        416        417        400        399        417        418        401        400        418        419        402        401        419        420        403        402        420        421        404        403        421        422        405        404        422        423        406        405        423        424        407        406        425        426        409        408        426        427        410        409        427        428        411        410        428        429        412        411        429        430        413        412        430        431        414        413        431        432        415        414        432        433        416        415        433        434        417        416        434        435        418        417        435        436        419        418        436        437        420        419        437        438        421        420        438        439        422        421        439        440        423        422        440        441        424        423        442        443        426        425        443        444        427        426        444        445        428        427        445        446        429        428        446        447        430        429        447        448        431        430        448        449        432        431        449        450        433        432        450        451        434        433        451        452        435        434        452        453        436        435        453        454        437        436        454        455        438        437        455        456        439        438        456        457        440        439        457        458        441        440        459        460        443        442        460        461        444        443        461        462        445        444        462        463        446        445        463        464        447        446        464        465        448        447        465        466        449        448        466        467        450        449        467        468        451        450        468        469        452        451        469        470        453        452        470        471        454        453        471        472        455        454        472        473        456        455        473        474        457        456        474        475        458        457        476        477        460        459        477        478        461        460        478        479        462        461        479        480        463        462        480        481        464        463        481        482        465        464        482        483        466        465        483        484        467        466        484        485        468        467        485        486        469        468        486        487        470        469        487        488        471        470        488        489        472        471        489        490        473        472        490        491        474        473        491        492        475        474        493        494        477        476        494        495        478        477        495        496        479        478        496        497        480        479        497        498        481        480        498        499        482        481        499        500        483        482        500        501        484        483        501        502        485        484        502        503        486        485        503        504        487        486        504        505        488        487        505        506        489        488        506        507        490        489        507        508        491        490        508        509        492        491        510        511        494        493        511        512        495        494        512        513        496        495        513        514        497        496        514        515        498        497        515        516        499        498        516        517        500        499        517        518        501        500        518        519        502        501        519        520        503        502        520        521        504        503        521        522        505        504        522        523        506        505        523        524        507        506        524        525        508        507        525        526        509        508        527        528        511        510        528        529        512        511        529        530        513        512        530        531        514        513        531        532        515        514        532        533        516        515        533        534        517        516        534        535        518        517        535        536        519        518        536        537        520        519        537        538        521        520        538        539        522        521        539        540        523        522        540        541        524        523        541        542        525        524        542        543        526        525        544        545        528        527        545        546        529        528        546        547        530        529        547        548        531        530        548        549        532        531        549        550        533        532        550        551        534        533        551        552        535        534        552        553        536        535        553        554        537        536        554        555        538        537        555        556        539        538        556        557        540        539        557        558        541        540        558        559        542        541        559        560        543        542        561        562        545        544        562        563        546        545        563        564        547        546        564        565        548        547        565        566        549        548        566        567        550        549        567        568        551        550        568        569        552        551        569        570        553        552        570        571        554        553        571        572        555        554        572        573        556        555        573        574        557        556        574        575        558        557        575        576        559        558        576        577        560        559        578        579        596        595        579        580        597        596        580        581        598        597        581        582        599        598        582        583        600        599        583        584        601        600        584        585        602        601        585        586        603        602        586        587        604        603        587        588        605        604        588        589        606        605        589        590        607        606        590        591        608        607        591        592        609        608        592        593        610        609        593        594        611        610        595        596        613        612        596        597        614        613        597        598        615        614        598        599        616        615        599        600        617        616        600        601        618        617        601        602        619        618        602        603        620        619        603        604        621        620        604        605        622        621        605        606        623        622        606        607        624        623        607        608        625        624        608        609        626        625        609        610        627        626        610        611        628        627        612        613        630        629        613        614        631        630        614        615        632        631        615        616        633        632        616        617        634        633        617        618        635        634        618        619        636        635        619        620        637        636        620        621        638        637        621        622        639        638        622        623        640        639        623        624        641        640        624        625        642        641        625        626        643        642        626        627        644        643        627        628        645        644        629        630        647        646        630        631        648        647        631        632        649        648        632        633        650        649        633        634        651        650        634        635        652        651        635        636        653        652        636        637        654        653        637        638        655        654        638        639        656        655        639        640        657        656        640        641        658        657        641        642        659        658        642        643        660        659        643        644        661        660        644        645        662        661        646        647        664        663        647        648        665        664        648        649        666        665        649        650        667        666        650        651        668        667        651        652        669        668        652        653        670        669        653        654        671        670        654        655        672        671        655        656        673        672        656        657        674        673        657        658        675        674        658        659        676        675        659        660        677        676        660        661        678        677        661        662        679        678        663        664        681        680        664        665        682        681        665        666        683        682        666        667        684        683        667        668        685        684        668        669        686        685        669        670        687        686        670        671        688        687        671        672        689        688        672        673        690        689        673        674        691        690        674        675        692        691        675        676        693        692        676        677        694        693        677        678        695        694        678        679        696        695        680        681        698        697        681        682        699        698        682        683        700        699        683        684        701        700        684        685        702        701        685        686        703        702        686        687        704        703        687        688        705        704        688        689        706        705        689        690        707        706        690        691        708        707        691        692        709        708        692        693        710        709        693        694        711        710        694        695        712        711        695        696        713        712        697        698        715        714        698        699        716        715        699        700        717        716        700        701        718        717        701        702        719        718        702        703        720        719        703        704        721        720        704        705        722        721        705        706        723        722        706        707        724        723        707        708        725        724        708        709        726        725        709        710        727        726        710        711        728        727        711        712        729        728        712        713        730        729        714        715        732        731        715        716        733        732        716        717        734        733        717        718        735        734        718        719        736        735        719        720        737        736        720        721        738        737        721        722        739        738        722        723        740        739        723        724        741        740        724        725        742        741        725        726        743        742        726        727        744        743        727        728        745        744        728        729        746        745        729        730        747        746        731        732        749        748        732        733        750        749        733        734        751        750        734        735        752        751        735        736        753        752        736        737        754        753        737        738        755        754        738        739        756        755        739        740        757        756        740        741        758        757        741        742        759        758        742        743        760        759        743        744        761        760        744        745        762        761        745        746        763        762        746        747        764        763        748        749        766        765        749        750        767        766        750        751        768        767        751        752        769        768        752        753        770        769        753        754        771        770        754        755        772        771        755        756        773        772        756        757        774        773        757        758        775        774        758        759        776        775        759        760        777        776        760        761        778        777        761        762        779        778        762        763        780        779        763        764        781        780        765        766        783        782        766        767        784        783        767        768        785        784        768        769        786        785        769        770        787        786        770        771        788        787        771        772        789        788        772        773        790        789        773        774        791        790        774        775        792        791        775        776        793        792        776        777        794        793        777        778        795        794        778        779        796        795        779        780        797        796        780        781        798        797        782        783        800        799        783        784        801        800        784        785        802        801        785        786        803        802        786        787        804        803        787        788        805        804        788        789        806        805        789        790        807        806        790        791        808        807        791        792        809        808        792        793        810        809        793        794        811        810        794        795        812        811        795        796        813        812        796        797        814        813        797        798        815        814        799        800        817        816        800        801        818        817        801        802        819        818        802        803        820        819        803        804        821        820        804        805        822        821        805        806        823        822        806        807        824        823        807        808        825        824        808        809        826        825        809        810        827        826        810        811        828        827        811        812        829        828        812        813        830        829        813        814        831        830        814        815        832        831        816        817        834        833        817        818        835        834        818        819        836        835        819        820        837        836        820        821        838        837        821        822        839        838        822        823        840        839        823        824        841        840        824        825        842        841        825        826        843        842        826        827        844        843        827        828        845        844        828        829        846        845        829        830        847        846        830        831        848        847        831        832        849        848        833        834        562        561        834        835        563        562        835        836        564        563        836        837        565        564        837        838        566        565        838        839        567        566        839        840        568        567        840        841        569        568        841        842        570        569        842        843        571        570        843        844        572        571        844        845        573        572        845        846        574        573        846        847        575        574        847        848        576        575        848        849        577        576        884        885        579        578        885        886        580        579        886        887        581        580        887        888        582        581        888        889        583        582        889        890        584        583        890        891        585        584        891        892        586        585        892        893        587        586        893        894        588        587        894        895        589        588        895        896        590        589        896        897        591        590        897        898        592        591        898        899        593        592        899        900        594        593        901        902        885        884        902        903        886        885        903        904        887        886        904        905        888        887        905        906        889        888        906        907        890        889        907        908        891        890        908        909        892        891        909        910        893        892        910        911        894        893        911        912        895        894        912        913        896        895        913        914        897        896        914        915        898        897        915        916        899        898        916        917        900        899        918        919        902        901        919        920        903        902        920        921        904        903        921        922        905        904        922        923        906        905        923        924        907        906        924        925        908        907        925        926        909        908        926        927        910        909        927        928        911        910        928        929        912        911        929        930        913        912        930        931        914        913        931        932        915        914        932        933        916        915        933        934        917        916        935        936        919        918        936        937        920        919        937        938        921        920        938        939        922        921        939        940        923        922        940        941        924        923        941        942        925        924        942        943        926        925        943        944        927        926        944        945        928        927        945        946        929        928        946        947        930        929        947        948        931        930        948        949        932        931        949        950        933        932        950        951        934        933        952        953        936        935        953        954        937        936        954        955        938        937        955        956        939        938        956        957        940        939        957        958        941        940        958        959        942        941        959        960        943        942        960        961        944        943        961        962        945        944        962        963        946        945        963        964        947        946        964        965        948        947        965        966        949        948        966        967        950        949        967        968        951        950        969        970        953        952        970        971        954        953        971        972        955        954        972        973        956        955        973        974        957        956        974        975        958        957        975        976        959        958        976        977        960        959        977        978        961        960        978        979        962        961        979        980        963        962        980        981        964        963        981        982        965        964        982        983        966        965        983        984        967        966        984        985        968        967        986        987        970        969        987        988        971        970        988        989        972        971        989        990        973        972        990        991        974        973        991        992        975        974        992        993        976        975        993        994        977        976        994        995        978        977        995        996        979        978        996        997        980        979        997        998        981        980        998        999        982        981        999       1000        983        982       1000       1001        984        983       1001       1002        985        984       1003       1004        987        986       1004       1005        988        987       1005       1006        989        988       1006       1007        990        989       1007       1008        991        990       1008       1009        992        991       1009       1010        993        992       1010       1011        994        993       1011       1012        995        994       1012       1013        996        995       1013       1014        997        996       1014       1015        998        997       1015       1016        999        998       1016       1017       1000        999       1017       1018       1001       1000       1018       1019       1002       1001       1020       1021       1004       1003       1021       1022       1005       1004       1022       1023       1006       1005       1023       1024       1007       1006       1024       1025       1008       1007       1025       1026       1009       1008       1026       1027       1010       1009       1027       1028       1011       1010       1028       1029       1012       1011       1029       1030       1013       1012       1030       1031       1014       1013       1031       1032       1015       1014       1032       1033       1016       1015       1033       1034       1017       1016       1034       1035       1018       1017       1035       1036       1019       1018       1037       1038       1021       1020       1038       1039       1022       1021       1039       1040       1023       1022       1040       1041       1024       1023       1041       1042       1025       1024       1042       1043       1026       1025       1043       1044       1027       1026       1044       1045       1028       1027       1045       1046       1029       1028       1046       1047       1030       1029       1047       1048       1031       1030       1048       1049       1032       1031       1049       1050       1033       1032       1050       1051       1034       1033       1051       1052       1035       1034       1052       1053       1036       1035       1054       1055       1038       1037       1055       1056       1039       1038       1056       1057       1040       1039       1057       1058       1041       1040       1058       1059       1042       1041       1059       1060       1043       1042       1060       1061       1044       1043       1061       1062       1045       1044       1062       1063       1046       1045       1063       1064       1047       1046       1064       1065       1048       1047       1065       1066       1049       1048       1066       1067       1050       1049       1067       1068       1051       1050       1068       1069       1052       1051       1069       1070       1053       1052       1071       1072       1055       1054       1072       1073       1056       1055       1073       1074       1057       1056       1074       1075       1058       1057       1075       1076       1059       1058       1076       1077       1060       1059       1077       1078       1061       1060       1078       1079       1062       1061       1079       1080       1063       1062       1080       1081       1064       1063       1081       1082       1065       1064       1082       1083       1066       1065       1083       1084       1067       1066       1084       1085       1068       1067       1085       1086       1069       1068       1086       1087       1070       1069       1088       1089       1072       1071       1089       1090       1073       1072       1090       1091       1074       1073       1091       1092       1075       1074       1092       1093       1076       1075       1093       1094       1077       1076       1094       1095       1078       1077       1095       1096       1079       1078       1096       1097       1080       1079       1097       1098       1081       1080       1098       1099       1082       1081       1099       1100       1083       1082       1100       1101       1084       1083       1101       1102       1085       1084       1102       1103       1086       1085       1103       1104       1087       1086       1105       1106       1089       1088       1106       1107       1090       1089       1107       1108       1091       1090       1108       1109       1092       1091       1109       1110       1093       1092       1110       1111       1094       1093       1111       1112       1095       1094       1112       1113       1096       1095       1113       1114       1097       1096       1114       1115       1098       1097       1115       1116       1099       1098       1116       1117       1100       1099       1117       1118       1101       1100       1118       1119       1102       1101       1119       1120       1103       1102       1120       1121       1104       1103       1122       1123       1106       1105       1123       1124       1107       1106       1124       1125       1108       1107       1125       1126       1109       1108       1126       1127       1110       1109       1127       1128       1111       1110       1128       1129       1112       1111       1129       1130       1113       1112       1130       1131       1114       1113       1131       1132       1115       1114       1132       1133       1116       1115       1133       1134       1117       1116       1134       1135       1118       1117       1135       1136       1119       1118       1136       1137       1120       1119       1137       1138       1121       1120        272        273       1123       1122        273        274       1124       1123        274        275       1125       1124        275        276       1126       1125        276        277       1127       1126        277        278       1128       1127        278        279       1129       1128        279        280       1130       1129        280        281       1131       1130        281        282       1132       1131        282        283       1133       1132        283        284       1134       1133        284        285       1135       1134        285        286       1136       1135        286        287       1137       1136        287        288       1138       1137 </DataArray>
<DataArray type="Int32"                                    Name="offsets"                                                      NumberOfComponents=" 1" format="ascii">
         4          8         12         16         20         24         28         32         36         40         44         48         52         56         60         64         68         72         76         80         84         88         92         96        100        104        108        112        116        120        124        128        132        136        140        144        148        152        156        160        164        168        172        176        180        184        188        192        196        200        204        208        212        216        220        224        228        232        236        240        244        248        252        256        260        264        268        272        276        280        284        288        292        296        300        304        308        312        316        320        324        328        332        336        340        344        348        352        356        360        364        368        372        376        380        384        388        392        396        400        404        408        412        416        420        424        428        432        436        440        444        448        452        456        460        464        468        472        476        480        484        488        492        496        500        504        508        512        516        520        524        528        532        536        540        544        548        552        556        560        564        568        572        576        580        584        588        592        596        600        604        608        612        616        620        624        628        632        636        640        644        648        652        656        660        664        668        672        676        680        684        688        692        696        700        704        708        712        716        720        724        728        732        736        740        744        748        752        756        760        764        768        772        776        780        784        788        792        796        800        804        808        812        816        820        824        828        832        836        840        844        848        852        856        860        864        868        872        876        880        884        888        892        896        900        904        908        912        916        920        924        928        932        936        940        944        948        952        956        960        964        968        972        976        980        984        988        992        996       1000       1004       1008       1012       1016       1020       1024       1028       1032       1036       1040       1044       1048       1052       1056       1060       1064       1068       1072       1076       1080       1084       1088       1092       1096       1100       1104       1108       1112       1116       1120       1124       1128       1132       1136       1140       1144       1148       1152       1156       1160       1164       1168       1172       1176       1180       1184       1188       1192       1196       1200       1204       1208       1212       1216       1220       1224       1228       1232       1236       1240       1244       1248       1252       1256       1260       1264       1268       1272       1276       1280       1284       1288       1292       1296       1300       1304       1308       1312       1316       1320       1324       1328       1332       1336       1340       1344       1348       1352       1356       1360       1364       1368       1372       1376       1380       1384       1388       1392       1396       1400       1404       1408       1412       1416       1420       1424       1428       1432       1436       1440       1444       1448       1452       1456       1460       1464       1468       1472       1476       1480       1484       1488       1492       1496       1500       1504       1508       1512       1516       1520       1524       1528       1532       1536       1540       1544       1548       1552       1556       1560       1564       1568       1572       1576       1580       1584       1588       1592       1596       1600       1604       1608       1612       1616       1620       1624       1628       1632       1636       1640       1644       1648       1652       1656       1660       1664       1668       1672       1676       1680       1684       1688       1692       1696       1700       1704       1708       1712       1716       1720       1724       1728       1732       1736       1740       1744       1748       1752       1756       1760       1764       1768       1772       1776       1780       1784       1788       1792       1796       1800       1804       1808       1812       1816       1820       1824       1828       1832       1836       1840       1844       1848       1852       1856       1860       1864       1868       1872       1876       1880       1884       1888       1892       1896       1900       1904       1908       1912       1916       1920       1924       1928       1932       1936       1940       1944       1948       1952       1956       1960       1964       1968       1972       1976       1980       1984       1988       1992       1996       2000       2004       2008       2012       2016       2020       2024       2028       2032       2036       2040       2044       2048       2052       2056       2060       2064       2068       2072       2076       2080       2084       2088       2092       2096       2100       2104       2108       2112       2116       2120       2124       2128       2132       2136       2140       2144       2148       2152       2156       2160       2164       2168       2172       2176       2180       2184       2188       2192       2196       2200       2204       2208       2212       2216       2220       2224       2228       2232       2236       2240       2244       2248       2252       2256       2260       2264       2268       2272       2276       2280       2284       2288       2292       2296       2300       2304       2308       2312       2316       2320       2324       2328       2332       2336       2340       2344       2348       2352       2356       2360       2364       2368       2372       2376       2380       2384       2388       2392       2396       2400       2404       2408       2412       2416       2420       2424       2428       2432       2436       2440       2444       2448       2452       2456       2460       2464       2468       2472       2476       2480       2484       2488       2492       2496       2500       2504       2508       2512       2516       2520       2524       2528       2532       2536       2540       2544       2548       2552       2556       2560       2564       2568       2572       2576       2580       2584       2588       2592       2596       2600       2604       2608       2612       2616       2620       2624       2628       2632       2636       2640       2644       2648       2652       2656       2660       2664       2668       2672       2676       2680       2684       2688       2692       2696       2700       2704       2708       2712       2716       2720       2724       2728       2732       2736       2740       2744       2748       2752       2756       2760       2764       2768       2772       2776       2780       2784       2788       2792       2796       2800       2804       2808       2812       2816       2820       2824       2828       2832       2836       2840       2844       2848       2852       2856       2860       2864       2868       2872       2876       2880       2884       2888       2892       2896       2900       2904       2908       2912       2916       2920       2924       2928       2932       2936       2940       2944       2948       2952       2956       2960       2964       2968       2972       2976       2980       2984       2988       2992       2996       3000       3004       3008       3012       3016       3020       3024       3028       3032       3036       3040       3044       3048       3052       3056       3060       3064       3068       3072       3076       3080       3084       3088       3092       3096       3100       3104       3108       3112       3116       3120       3124       3128       3132       3136       3140       3144       3148       3152       3156       3160       3164       3168       3172       3176       3180       3184       3188       3192       3196       3200       3204       3208       3212       3216       3220       3224       3228       3232       3236       3240       3244       3248       3252       3256       3260       3264       3268       3272       3276       3280       3284       3288       3292       3296       3300       3304       3308       3312       3316       3320       3324       3328       3332       3336       3340       3344       3348       3352       3356       3360       3364       3368       3372       3376       3380       3384       3388       3392       3396       3400       3404       3408       3412       3416       3420       3424       3428       3432       3436       3440       3444       3448       3452       3456       3460       3464       3468       3472       3476       3480       3484       3488       3492       3496       3500       3504       3508       3512       3516       3520       3524       3528       3532       3536       3540       3544       3548       3552       3556       3560       3564       3568       3572       3576       3580       3584       3588       3592       3596       3600       3604       3608       3612       3616       3620       3624       3628       3632       3636       3640       3644       3648       3652       3656       3660       3664       3668       3672       3676       3680       3684       3688       3692       3696       3700       3704       3708       3712       3716       3720       3724       3728       3732       3736       3740       3744       3748       3752       3756       3760       3764       3768       3772       3776       3780       3784       3788       3792       3796       3800       3804       3808       3812       3816       3820       3824       3828       3832       3836       3840       3844       3848       3852       3856       3860       3864       3868       3872       3876       3880       3884       3888       3892       3896       3900       3904       3908       3912       3916       3920       3924       3928       3932       3936       3940       3944       3948       3952       3956       3960       3964       3968       3972       3976       3980       3984       3988       3992       3996       4000       4004       4008       4012       4016       4020       4024       4028       4032       4036       4040       4044       4048       4052       4056       4060       4064       4068       4072       4076       4080       4084       4088       4092       4096 </DataArray>
<DataArray type="UInt8"                                    Name="types"                                                      NumberOfComponents=" 1" format="ascii">
         9          9          9          9          9          9          9          9          9          9          9          9          9          9          9          9          9          9          9          9          9          9          9          9          9          9          9          9          9          9          9          9          9          9          9          9          9          9          9          9          9          9          9          9          9          9          9          9          9          9          9          9          9          9          9          9          9          9          9          9          9          9          9          9          9          9          9          9          9          9          9          9          9          9          9          9          9          9          9          9          9          9          9          9          9          9          9          9          9          9          9          9          9          9          9          9          9          9          9          9          9          9          9          9          9          9          9          9          9          9          9          9          9          9          9          9          9          9          9          9          9          9          9          9          9          9          9          9          9          9          9          9          9          9          9          9          9          9          9          9          9          9          9          9          9          9          9          9          9          9          9          9          9          9          9          9          9          9          9          9          9          9          9          9          9          9          9          9          9          9          9          9          9          9          9          9          9          9          9          9          9          9          9          9          9          9          9          9          9          9          9          9          9          9          9          9          9          9          9          9          9          9          9          9          9          9          9          9          9          9          9          9          9          9          9          9          9          9          9          9          9          9          9          9          9          9          9          9          9          9          9          9          9          9          9          9          9          9          9          9          9          9          9          9          9          9          9          9          9          9          9          9          9          9          9          9          9          9          9          9          9          9          9          9          9          9          9          9          9          9          9          9          9          9          9          9          9          9          9          9          9          9          9          9          9          9          9          9          9          9          9          9          9          9          9          9          9          9          9          9          9          9          9          9          9          9          9          9          9          9          9          9          9          9          9          9          9          9          9          9          9          9          9          9          9          9          9          9          9          9          9          9          9          9          9          9          9          9          9          9          9          9          9          9          9          9          9          9          9          9          9          9          9          9          9          9          9          9          9          9          9          9          9          9          9          9          9          9          9          9          9          9          9          9          9          9          9          9          9          9          9          9          9          9          9          9          9          9          9          9          9          9          9          9          9          9          9          9          9          9          9          9          9          9          9          9          9          9          9          9          9          9          9          9          9          9          9          9          9          9          9          9          9          9          9          9          9          9          9          9          9          9          9          9          9          9          9          9          9          9          9          9          9          9          9          9          9          9          9          9          9          9          9          9          9          9          9          9          9          9          9          9          9          9          9          9          9          9          9          9          9          9          9          9          9          9          9          9          9          9          9          9          9          9          9          9          9          9          9          9          9          9          9          9          9          9          9          9          9          9          9          9          9          9          9          9          9          9          9          9          9          9          9          9          9          9          9          9          9          9          9          9          9          9          9          9          9          9          9          9          9          9          9          9          9          9          9          9          9          9          9          9          9          9          9          9          9          9          9          9          9          9          9          9          9          9          9          9          9          9          9          9          9          9          9          9          9          9          9          9          9          9          9          9          9          9          9          9          9          9          9          9          9          9          9          9          9          9          9          9          9          9          9          9          9          9          9          9          9          9          9          9          9          9          9          9          9          9          9          9          9          9          9          9          9          9          9          9          9          9          9          9          9          9          9          9          9          9          9          9          9          9          9          9          9          9          9          9          9          9          9          9          9          9          9          9          9          9          9          9          9          9          9          9          9          9          9          9          9          9          9          9          9          9          9          9          9          9          9          9          9          9          9          9          9          9          9          9          9          9          9          9          9          9          9          9          9          9          9          9          9          9          9          9          9          9          9          9          9          9          9          9          9          9          9          9          9          9          9          9          9          9          9          9          9          9          9          9          9          9          9          9          9          9          9          9          9          9          9          9          9          9          9          9          9          9          9          9          9          9          9          9          9          9          9          9          9          9          9          9          9          9          9          9          9          9          9          9          9          9          9          9          9          9          9          9          9          9          9          9          9          9          9          9          9          9          9          9          9          9          9          9          9          9          9          9          9          9          9          9          9          9          9          9          9          9          9          9          9          9          9          9          9          9          9          9          9          9          9          9          9          9          9          9          9          9          9          9          9          9          9          9          9          9          9          9          9          9          9          9          9          9          9          9          9          9          9          9          9          9          9          9          9          9          9          9          9          9          9          9          9          9          9          9          9          9          9          9          9          9          9          9          9          9          9          9          9          9          9          9          9          9          9          9          9          9          9          9          9          9          9          9          9          9          9          9          9          9          9          9          9          9          9          9          9          9          9          9          9          9          9          9          9          9          9          9          9          9          9          9          9          9          9          9          9          9          9          9          9          9          9          9          9          9          9          9          9          9          9          9          9          9          9          9          9          9          9          9          9          9          9          9          9          9          9          9          9          9          9          9          9          9          9          9          9          9          9          9          9          9          9          9          9          9          9          9          9          9          9          9          9          9          9          9          9          9          9          9          9          9          9          9          9          9          9          9          9          9          9          9          9          9          9          9          9          9          9          9          9          9          9          9          9          9          9          9          9          9          9          9          9          9          9          9          9          9          9          9          9          9          9          9          9          9 </DataArray>
</Cells>
<CellData>
<DataArray type="Int32"                                    Name="material"                                                      NumberOfComponents=" 1" format="ascii">
         1          1          1          1          1          1          1          1          1          1          1          1          1          1          1          1          1          1          1          1          1          1          1          1          1          1          1          1          1          1          1          1          1          1          1          1          1          1          1          1          1          1          1          1          1          1          1          1          1          1          1          1          1          1          1          1          1          1          1          1          1          1          1          1          1          1          1          1          1          1          1          1          1          1          1          1          1          1          1          1          1          1          1          1          1          1          1          1          1          1          1          1          1          1          1          1          1          1          1          1          1          1          1          1          1          1          1          1          1          1          1          1          1          1          1          1          1          1          1          1          1          1          1          1          1          1          1          1          1          1          1          1          1          1          1          1          1          1          1          1          1          1          1          1          1          1          1          1          1          1          1          1          1          1          1          1          1          1          1          1          1          1          1          1          1          1          1          1          1          1          1          1          1          1          1          1          1          1          1          1          1          1          1          1          1          1          1          1          1          1          1          1          1          1          1          1          1          1          1          1          1          1          1          1          1          1          1          1          1          1          1          1          1          1          1          1          1          1          1          1          1          1          1          1          1          1          1          1          1          1          1          1          1          1          1          1          1          1          1          1          1          1          1          1          1          1          1          1          1          1          1          1          1          1          1          1          1          1          1          1          1          1          1          1          1          1          1          1          1          1          1          1          1          1          1          1          1          1          1          1          1          1          1          1          1          1          1          1          1          1          1          1          1          1          1          1          1          1          1          1          1          1          1          1          1          1          1          1          1          1          1          1          1          1          1          1          1          1          1          1          1          1          1          1          1          1          1          1          1          1          1          1          1          1          1          1          1          1          1          1          1          1          1          1          1          1          1          1          1          1          1          1          1          1          1          1          1          1          1          1          1          1          1          1          1          1          1          1          1          1          1          1          1          1          1          1          1          1          1          1          1          1          1          1          1          1          1          1          1          1          1          1          1          1          1          1          1          1          1          1          1          1          1          1          1          1          1          1          1          1          1          1          1          1          1          1          1          1          1          1          1          1          1          1          1          1          1          1          1          1          1          1          1          1          1          1          1          1          1          1          1          1          1          1          1          1          1          1          1          1          1          1          1          1          1          1          1          1          1          1          1          1          1          1          1          1          1          1          1          1          1          1          1          1          1          1          1          1          1          1          1          1          1          1          1          1          1          1          1          1          1          1          1          1          1          1          1          1          1          1          1          1          1          1          1          1          1          1          1          1          1          1          1          1          1          1          1          1          1          1          1          1          1          1          1          1          1          1          1          1          1          1          1          1          1          1          1          1          1          1          1          1          1          1          1          1          1          1          1          1          1          1          1          1          1          1          1          1          1          1          1          1          1          1          1          1          1          1          1          1          1          1          1          1          1          1          1          1          1          1          1          1          1          1          1          1          1          1          1          1          1          1          1          1          1          1          1          1          1          1          1          1          1          1          1          1          1          1          1          1          1          1          1          1          1          1          1          1          1          1          1          1          1          1          1          1          1          1          1          1          1          1          1          1          1          1          1          1          1          1          1          1          1          1          1          1          1          1          1          1          1          1          1          1          1          1          1          1          1          1          1          1          1          1          1          1          1          1          1          1          1          1          1          1          1          1          1          1          1          1          1          1          1          1          1          1          1          1          1          1          1          1          1          1          1          1          1          1          1          1          1          1          1          1          1          1          1          1          1          1          1          1          1          1          1          1          1          1          1          1          1          1          1          1          1          1          1          1          1          1          1          1          1          1          1          1          1          1          1          1          1          1          1          1          1          1          1          1          1          1          1          1          1          1          1          1          1          1          1          1          1          1          1          1          1          1          1          1          1          1          1          1          1          1          1          1          1          1          1          1          1          1          1          1          1          1          1          1          1          1          1          1          1          1          1          1          1          1          1          1          1          1          1          1          1          1          1          1          1          1          1          1          1          1          1          1          1          1          1          1          1          1          1          1          1          1          1          1          1          1          1          1          1          1          1          1          1          1          1          1          1          1          1          1          1          1          1          1          1          1          1          1          1          1          1          1          1          1          1          1          1          1          1          1          1          1          1          1          1          1          1          1          1          1          1          1          1          1          1          1          1          1          1          1          1          1          1          1          1          1          1          1          1          1          1          1          1          1          1          1          1          1          1          1          1          1          1          1          1          1          1          1          1          1          1          1          1          1          1          1          1          1          1          1          1          1          1          1          1          1          1          1          1          1          1          1          1          1          1          1          1          1          1          1          1          1          1          1          1          1          1          1          1          1          1          1          1          1          1          1          1          1          1          1          1          1          1          1          1          1          1          1          1          1          1          1          1          1          1          1          1          1          1          1          1          1          1          1          1          1          1          1          1          1          1          1          1          1          1          1          1          1          1          1          1          1          1          1          1          1          1          1          1          1          1          1          1          1          1          1          1          1          1          1 </DataArray>
</CellData>
<PointData>
<DataArray type="Float64"                                    Name="u"                                                      NumberOfComponents=" 3" format="ascii">
             -0.000885335               0.000000000               0.999999985              -0.000935739              -0.000000000               0.999999985              -0.000957120               0.000000000               0.999999985              -0.000969228               0.000000000               0.999999985              -0.000979322              -0.000000000               0.999999985              -0.000989977               0.000000000               0.999999985              -0.001001851              -0.000000000               0.999999985              -0.001014959              -0.000000000               0.999999985              -0.001028831              -0.000000000               0.999999985              -0.001042857              -0.000000000               0.999999985              -0.001056698              -0.000000000               0.999999985              -0.001069922              -0.000000000               0.999999985              -0.001082320              -0.000000000               0.999999985              -0.001093530               0.000000000               0.999999985              -0.001103048               0.000000000               0.999999985              -0.001110328              -0.000000000               0.999999985              -0.001114486              -0.000000000               0.999999985              -0.000880352               0.000131637               0.999999985              -0.000926512               0.000104690               0.999999985              -0.000945146               0.000092491               0.999999985              -0.000955492               0.000087679               0.999999985              -0.000964354               0.000086636               0.999999985              -0.000973976               0.000087264               0.999999985              -0.000984912               0.000088319               0.999999985              -0.000996897               0.000089077               0.999999985              -0.001009424               0.000088905               0.999999985              -0.001022045               0.000087630               0.999999985              -0.001034246               0.000084918               0.999999985              -0.001045667               0.000080576               0.999999985              -0.001056063               0.000074517               0.999999985              -0.001065037               0.000066189               0.999999985              -0.001072141               0.000054775               0.999999985              -0.001076866               0.000039378               0.999999985              -0.001078699               0.000018634               0.999999985              -0.000865476               0.000262116               0.999999985              -0.000899288               0.000209014               0.999999985              -0.000910360               0.000185946               0.999999985              -0.000916015               0.000177441               0.999999985              -0.000921617               0.000176043               0.999999985              -0.000928538               0.000177674               0.999999985              -0.000936765               0.000180136               0.999999985              -0.000945777               0.000181738               0.999999985              -0.000955011               0.000181755               0.999999985              -0.000963881               0.000179276               0.999999985              -0.000971805               0.000174165               0.999999985              -0.000978578               0.000166020               0.999999985              -0.000983871               0.000154614               0.999999985              -0.000987244               0.000139143               0.999999985              -0.000988468               0.000118331               0.999999985              -0.000987198               0.000091205               0.999999985              -0.000983261               0.000056269               0.999999985              -0.000841018               0.000390216               0.999999985              -0.000855494               0.000312778               0.999999985              -0.000855743               0.000281219               0.999999985              -0.000855130               0.000270750               0.999999985              -0.000856525               0.000270092               0.999999985              -0.000859990               0.000273458               0.999999985              -0.000864717               0.000277561               0.999999985              -0.000869810               0.000280420               0.999999985              -0.000874472               0.000280542               0.999999985              -0.000877926               0.000277241               0.999999985              -0.000879916               0.000270197               0.999999985              -0.000880172               0.000259121               0.999999985              -0.000878383               0.000243668               0.999999985              -0.000874156               0.000222936               0.999999985              -0.000867221               0.000195931               0.999999985              -0.000857608               0.000162096               0.999999985              -0.000845707               0.000120677               0.999999985              -0.000807624               0.000514733               0.999999985              -0.000797497               0.000415913               0.999999985              -0.000785514               0.000378836               0.999999985              -0.000778548               0.000368466               0.999999985              -0.000776061               0.000369730               0.999999985              -0.000776288               0.000375339               0.999999985              -0.000777507               0.000381269               0.999999985              -0.000778370               0.000385210               0.999999985              -0.000777796               0.000385505               0.999999985              -0.000775305               0.000381439               0.999999985              -0.000770407               0.000372931               0.999999985              -0.000762919               0.000359839               0.999999985              -0.000752637               0.000341629               0.999999985              -0.000739293               0.000317530               0.999999985              -0.000723009               0.000287238               0.999999985              -0.000704154               0.000250870               0.999999985              -0.000683401               0.000208696               0.999999985              -0.000766032               0.000634589               0.999999985              -0.000728241               0.000518454               0.999999985              -0.000704909               0.000478803               0.999999985              -0.000693073               0.000470211               0.999999985              -0.000687862               0.000474155               0.999999985              -0.000685599               0.000482224               0.999999985              -0.000683655               0.000489894               0.999999985              -0.000680219               0.000494595               0.999999985              -0.000674155               0.000494931               0.999999985              -0.000665002               0.000490277               0.999999985              -0.000652330               0.000480610               0.999999985              -0.000636142               0.000466088               0.999999985              -0.000616414               0.000445994               0.999999985              -0.000593183               0.000419966               0.999999985              -0.000566909               0.000388712               0.999999985              -0.000538320               0.000352786               0.999999985              -0.000508303               0.000313212               0.999999985              -0.000717036               0.000748728               0.999999985              -0.000651109               0.000620418               0.999999985              -0.000619110               0.000580757               0.999999985              -0.000604818               0.000574858               0.999999985              -0.000598534               0.000581720               0.999999985              -0.000594692               0.000592029               0.999999985              -0.000589846               0.000601024               0.999999985              -0.000581887               0.000606183               0.999999985              -0.000569781               0.000606290               0.999999985              -0.000553132               0.000601075               0.999999985              -0.000531937               0.000590410               0.999999985              -0.000506187               0.000574616               0.999999985              -0.000476246               0.000553246               0.999999985              -0.000442572               0.000526462               0.999999985              -0.000406097               0.000495562               0.999999985              -0.000367747               0.000461545               0.999999985              -0.000328379               0.000425660               0.999999985              -0.000661490               0.000856037               0.999999985              -0.000569654               0.000721679               0.999999985              -0.000532830               0.000683815               0.999999985              -0.000518964               0.000680703               0.999999985              -0.000513094               0.000690093               0.999999985              -0.000508157               0.000702238               0.999999985              -0.000500239               0.000712191               0.999999985              -0.000487212               0.000717361               0.999999985              -0.000468247               0.000717059               0.999999985              -0.000443243               0.000711176               0.999999985              -0.000412454               0.000699429               0.999999985              -0.000376361               0.000682280               0.999999985              -0.000335590               0.000659968               0.999999985              -0.000291144               0.000633138               0.999999985              -0.000244200               0.000603481               0.999999985              -0.000195636               0.000572044               0.999999985              -0.000146295               0.000539727               0.999999985              -0.000601137               0.000954521               0.999999985              -0.000486694               0.000822200               0.999999985              -0.000450538               0.000786445               0.999999985              -0.000439291               0.000785519               0.999999985              -0.000434716               0.000796879               0.999999985              -0.000428634               0.000810357               0.999999985              -0.000416935               0.000820935               0.999999985              -0.000397766               0.000826092               0.999999985              -0.000370711               0.000825276               0.999999985              -0.000336194               0.000818298               0.999999985              -0.000294809               0.000805373               0.999999985              -0.000247367               0.000787039               0.999999985              -0.000195018               0.000764123               0.999999985              -0.000139052               0.000738185               0.999999985              -0.000080670               0.000710775               0.999999985              -0.000021150               0.000683048               0.999999985               0.000038560               0.000655319               0.999999985              -0.000538683               0.001047897               0.999999985              -0.000417133               0.000934962               0.999999985              -0.000378261               0.000895350               0.999999985              -0.000366525               0.000889368               0.999999985              -0.000362762               0.000897697               0.999999985              -0.000358663               0.000910857               0.999999985              -0.000350108               0.000923818               0.999999985              -0.000334852               0.000933695               0.999999985              -0.000312253               0.000939105               0.999999985              -0.000282387               0.000939663               0.999999985              -0.000245856               0.000935352               0.999999985              -0.000202958               0.000926290               0.999999985              -0.000154213               0.000913151               0.999999985              -0.000100530               0.000896765               0.999999985              -0.000043104               0.000878436               0.999999985               0.000016518               0.000859210               0.999999985               0.000076771               0.000840149               0.999999985              -0.000470711               0.001133092               0.999999985              -0.000350363               0.001044231               0.999999985              -0.000309001               0.001007226               0.999999985              -0.000295788               0.000998658               0.999999985              -0.000291919               0.001004928               0.999999985              -0.000289013               0.001017973               0.999999985              -0.000282851               0.001032904               0.999999985              -0.000271133               0.001046901               0.999999985              -0.000252825               0.001058104               0.999999985              -0.000227754               0.001065581               0.999999985              -0.000196021               0.001069074               0.999999985              -0.000157822               0.001068653               0.999999985              -0.000113419               0.001064438               0.999999985              -0.000063025               0.001057037               0.999999985              -0.000007341               0.001047336               0.999999985               0.000052043               0.001036407               0.999999985               0.000113363               0.001025392               0.999999985              -0.000398633               0.001207949               0.999999985              -0.000286423               0.001146694               0.999999985              -0.000244420               0.001116942               0.999999985              -0.000229568               0.001109187               0.999999985              -0.000224843               0.001115058               0.999999985              -0.000222380               0.001128553               0.999999985              -0.000217818               0.001145558               0.999999985              -0.000209034               0.001163329               0.999999985              -0.000194824               0.001179857               0.999999985              -0.000174360               0.001193989               0.999999985              -0.000147477               0.001205022               0.999999985              -0.000114363               0.001212847               0.999999985              -0.000074784               0.001217444               0.999999985              -0.000028673               0.001218909               0.999999985               0.000023934               0.001217717               0.999999985               0.000082504               0.001214911               0.999999985               0.000145436               0.001211617               0.999999985              -0.000323073               0.001271196               0.999999985              -0.000225381               0.001238076               0.999999985              -0.000185509               0.001218943               0.999999985              -0.000169897               0.001214840               0.999999985              -0.000164217               0.001222236               0.999999985              -0.000161574               0.001237163               0.999999985              -0.000158102               0.001256617               0.999999985              -0.000151584               0.001278119               0.999999985              -0.000140797               0.001299926               0.999999985              -0.000124767               0.001320542               0.999999985              -0.000103021               0.001339054               0.999999985              -0.000075259               0.001355044               0.999999985              -0.000041326               0.001368398               0.999999985              -0.000000757               0.001379062               0.999999985               0.000047221               0.001387129               0.999999985               0.000103163               0.001393087               0.999999985               0.000166712               0.001397748               0.999999985              -0.000244692               0.001321803               0.999999985              -0.000166871               0.001314248               0.999999985              -0.000132582               0.001307044               0.999999985              -0.000117886               0.001308533               0.999999985              -0.000111817               0.001318902               0.999999985              -0.000109006               0.001336225               0.999999985              -0.000106205               0.001358445               0.999999985              -0.000101360               0.001383667               0.999999985              -0.000093492               0.001410342               0.999999985              -0.000081745               0.001437048               0.999999985              -0.000065395               0.001462690               0.999999985              -0.000043847               0.001486671               0.999999985              -0.000016800               0.001508649               0.999999985               0.000016545               0.001528477               0.999999985               0.000057321               0.001546102               0.999999985               0.000106823               0.001561376               0.999999985               0.000166277               0.001574639               0.999999985              -0.000164292               0.001358642               0.999999985              -0.000110282               0.001371539               0.999999985              -0.000084990               0.001375294               0.999999985              -0.000073412               0.001382747               0.999999985              -0.000068155               0.001396543               0.999999985              -0.000065634               0.001416487               0.999999985              -0.000063572               0.001441342               0.999999985              -0.000060246               0.001469744               0.999999985              -0.000055068               0.001500312               0.999999985              -0.000047471               0.001531907               0.999999985              -0.000036680               0.001563670               0.999999985              -0.000022031               0.001594811               0.999999985              -0.000003068               0.001624828               0.999999985               0.000020925               0.001653360               0.999999985               0.000051046               0.001680017               0.999999985               0.000088906               0.001704283               0.999999985               0.000136601               0.001725917               0.999999985              -0.000082513               0.001381022               0.999999985              -0.000054864               0.001407166               0.999999985              -0.000041410               0.001418654               0.999999985              -0.000034983               0.001430595               0.999999985              -0.000031908               0.001447142               0.999999985              -0.000030413               0.001469011               0.999999985              -0.000029282               0.001495706               0.999999985              -0.000027662               0.001526203               0.999999985              -0.000025117               0.001559304               0.999999985              -0.000021219               0.001594138               0.999999985              -0.000015930               0.001630001               0.999999985              -0.000008655               0.001666267               0.999999985               0.000001131               0.001702290               0.999999985               0.000013741               0.001737487               0.999999985               0.000029891               0.001771067               0.999999985               0.000050676               0.001802266               0.999999985               0.000077725               0.001830447               0.999999985               0.000000000               0.001388528               0.999999985               0.000000000               0.001419242               0.999999985              -0.000000000               0.001433556               0.999999985               0.000000000               0.001447179               0.999999985               0.000000000               0.001464682               0.999999985               0.000000000               0.001487281               0.999999985              -0.000000000               0.001514737               0.999999985               0.000000000               0.001546072               0.999999985              -0.000000000               0.001580108               0.999999985              -0.000000000               0.001615983               0.999999985              -0.000000000               0.001653165               0.999999985               0.000000000               0.001691291               0.999999985               0.000000000               0.001729591               0.999999985              -0.000000000               0.001767165               0.999999985               0.000000000               0.001803379               0.999999985               0.000000000               0.001837451               0.999999985              -0.000000000               0.001868260               0.999999985              -0.000885335               0.000000000               0.999999985              -0.000935739              -0.000000000               0.999999985              -0.000957120               0.000000000               0.999999985              -0.000969228               0.000000000               0.999999985              -0.000979322              -0.000000000               0.999999985              -0.000989977               0.000000000               0.999999985              -0.001001851              -0.000000000               0.999999985              -0.001014959              -0.000000000               0.999999985              -0.001028831              -0.000000000               0.999999985              -0.001042857              -0.000000000               0.999999985              -0.001056698              -0.000000000               0.999999985              -0.001069922              -0.000000000               0.999999985              -0.001082320              -0.000000000               0.999999985              -0.001093530               0.000000000               0.999999985              -0.001103048               0.000000000               0.999999985              -0.001110328              -0.000000000               0.999999985              -0.001114486              -0.000000000               0.999999985              -0.000880352              -0.000131637               0.999999985              -0.000926512              -0.000104690               0.999999985              -0.000945146              -0.000092491               0.999999985              -0.000955492              -0.000087679               0.999999985              -0.000964354              -0.000086636               0.999999985              -0.000973976              -0.000087264               0.999999985              -0.000984912              -0.000088319               0.999999985              -0.000996897              -0.000089077               0.999999985              -0.001009424              -0.000088905               0.999999985              -0.001022045              -0.000087630               0.999999985              -0.001034246              -0.000084918               0.999999985              -0.001045667              -0.000080576               0.999999985              -0.001056063              -0.000074517               0.999999985              -0.001065037              -0.000066189               0.999999985              -0.001072141              -0.000054775               0.999999985              -0.001076866              -0.000039378               0.999999985              -0.001078699              -0.000018634               0.999999985              -0.000865476              -0.000262116               0.999999985              -0.000899288              -0.000209014               0.999999985              -0.000910360              -0.000185946               0.999999985              -0.000916015              -0.000177441               0.999999985              -0.000921617              -0.000176043               0.999999985              -0.000928538              -0.000177674               0.999999985              -0.000936765              -0.000180136               0.999999985              -0.000945777              -0.000181738               0.999999985              -0.000955011              -0.000181755               0.999999985              -0.000963881              -0.000179276               0.999999985              -0.000971805              -0.000174165               0.999999985              -0.000978578              -0.000166020               0.999999985              -0.000983871              -0.000154614               0.999999985              -0.000987244              -0.000139143               0.999999985              -0.000988468              -0.000118331               0.999999985              -0.000987198              -0.000091205               0.999999985              -0.000983261              -0.000056269               0.999999985              -0.000841018              -0.000390216               0.999999985              -0.000855494              -0.000312778               0.999999985              -0.000855743              -0.000281219               0.999999985              -0.000855130              -0.000270750               0.999999985              -0.000856525              -0.000270092               0.999999985              -0.000859990              -0.000273458               0.999999985              -0.000864717              -0.000277561               0.999999985              -0.000869810              -0.000280420               0.999999985              -0.000874472              -0.000280542               0.999999985              -0.000877926              -0.000277241               0.999999985              -0.000879916              -0.000270197               0.999999985              -0.000880172              -0.000259121               0.999999985              -0.000878383              -0.000243668               0.999999985              -0.000874156              -0.000222936               0.999999985              -0.000867221              -0.000195931               0.999999985              -0.000857608              -0.000162096               0.999999985              -0.000845707              -0.000120677               0.999999985              -0.000807624              -0.000514733               0.999999985              -0.000797497              -0.000415913               0.999999985              -0.000785514              -0.000378836               0.999999985              -0.000778548              -0.000368466               0.999999985              -0.000776061              -0.000369730               0.999999985              -0.000776288              -0.000375339               0.999999985              -0.000777507              -0.000381269               0.999999985              -0.000778370              -0.000385210               0.999999985              -0.000777796              -0.000385505               0.999999985              -0.000775305              -0.000381439               0.999999985              -0.000770407              -0.000372931               0.999999985              -0.000762919              -0.000359839               0.999999985              -0.000752637              -0.000341629               0.999999985              -0.000739293              -0.000317530               0.999999985              -0.000723009              -0.000287238               0.999999985              -0.000704154              -0.000250870               0.999999985              -0.000683401              -0.000208696               0.999999985              -0.000766032              -0.000634589               0.999999985              -0.000728241              -0.000518454               0.999999985              -0.000704909              -0.000478803               0.999999985              -0.000693073              -0.000470211               0.999999985              -0.000687862              -0.000474155               0.999999985              -0.000685599              -0.000482224               0.999999985              -0.000683655              -0.000489894               0.999999985              -0.000680219              -0.000494595               0.999999985              -0.000674155              -0.000494931               0.999999985              -0.000665002              -0.000490277               0.999999985              -0.000652330              -0.000480610               0.999999985              -0.000636142              -0.000466088               0.999999985              -0.000616414              -0.000445994               0.999999985              -0.000593183              -0.000419966               0.999999985              -0.000566909              -0.000388712               0.999999985              -0.000538320              -0.000352786               0.999999985              -0.000508303              -0.000313212               0.999999985              -0.000717036              -0.000748728               0.999999985              -0.000651109              -0.000620418               0.999999985              -0.000619110              -0.000580757               0.999999985              -0.000604818              -0.000574858               0.999999985              -0.000598534              -0.000581720               0.999999985              -0.000594692              -0.000592029               0.999999985              -0.000589846              -0.000601024               0.999999985              -0.000581887              -0.000606183               0.999999985              -0.000569781              -0.000606290               0.999999985              -0.000553132              -0.000601075               0.999999985              -0.000531937              -0.000590410               0.999999985              -0.000506187              -0.000574616               0.999999985              -0.000476246              -0.000553246               0.999999985              -0.000442572              -0.000526462               0.999999985              -0.000406097              -0.000495562               0.999999985              -0.000367747              -0.000461545               0.999999985              -0.000328379              -0.000425660               0.999999985              -0.000661490              -0.000856037               0.999999985              -0.000569654              -0.000721679               0.999999985              -0.000532830              -0.000683815               0.999999985              -0.000518964              -0.000680703               0.999999985              -0.000513094              -0.000690093               0.999999985              -0.000508157              -0.000702238               0.999999985              -0.000500239              -0.000712191               0.999999985              -0.000487212              -0.000717361               0.999999985              -0.000468247              -0.000717059               0.999999985              -0.000443243              -0.000711176               0.999999985              -0.000412454              -0.000699429               0.999999985              -0.000376361              -0.000682280               0.999999985              -0.000335590              -0.000659968               0.999999985              -0.000291144              -0.000633138               0.999999985              -0.000244200              -0.000603481               0.999999985              -0.000195636              -0.000572044               0.999999985              -0.000146295              -0.000539727               0.999999985              -0.000601137              -0.000954521               0.999999985              -0.000486694              -0.000822200               0.999999985              -0.000450538              -0.000786445               0.999999985              -0.000439291              -0.000785519               0.999999985              -0.000434716              -0.000796879               0.999999985              -0.000428634              -0.000810357               0.999999985              -0.000416935              -0.000820935               0.999999985              -0.000397766              -0.000826092               0.999999985              -0.000370711              -0.000825276               0.999999985              -0.000336194              -0.000818298               0.999999985              -0.000294809              -0.000805373               0.999999985              -0.000247367              -0.000787039               0.999999985              -0.000195018              -0.000764123               0.999999985              -0.000139052              -0.000738185               0.999999985              -0.000080670              -0.000710775               0.999999985              -0.000021150              -0.000683048               0.999999985               0.000038560              -0.000655319               0.999999985              -0.000538683              -0.001047897               0.999999985              -0.000417133              -0.000934962               0.999999985              -0.000378261              -0.000895350               0.999999985              -0.000366525              -0.000889368               0.999999985              -0.000362762              -0.000897697               0.999999985              -0.000358663              -0.000910857               0.999999985              -0.000350108              -0.000923818               0.999999985              -0.000334852              -0.000933695               0.999999985              -0.000312253              -0.000939105               0.999999985              -0.000282387              -0.000939663               0.999999985              -0.000245856              -0.000935352               0.999999985              -0.000202958              -0.000926290               0.999999985              -0.000154213              -0.000913151               0.999999985              -0.000100530              -0.000896765               0.999999985              -0.000043104              -0.000878436               0.999999985               0.000016518              -0.000859210               0.999999985               0.000076771              -0.000840149               0.999999985              -0.000470711              -0.001133092               0.999999985              -0.000350363              -0.001044231               0.999999985              -0.000309001              -0.001007226               0.999999985              -0.000295788              -0.000998658               0.999999985              -0.000291919              -0.001004928               0.999999985              -0.000289013              -0.001017973               0.999999985              -0.000282851              -0.001032904               0.999999985              -0.000271133              -0.001046901               0.999999985              -0.000252825              -0.001058104               0.999999985              -0.000227754              -0.001065581               0.999999985              -0.000196021              -0.001069074               0.999999985              -0.000157822              -0.001068653               0.999999985              -0.000113419              -0.001064438               0.999999985              -0.000063025              -0.001057037               0.999999985              -0.000007341              -0.001047336               0.999999985               0.000052043              -0.001036407               0.999999985               0.000113363              -0.001025392               0.999999985              -0.000398633              -0.001207949               0.999999985              -0.000286423              -0.001146694               0.999999985              -0.000244420              -0.001116942               0.999999985              -0.000229568              -0.001109187               0.999999985              -0.000224843              -0.001115058               0.999999985              -0.000222380              -0.001128553               0.999999985              -0.000217818              -0.001145558               0.999999985              -0.000209034              -0.001163329               0.999999985              -0.000194824              -0.001179857               0.999999985              -0.000174360              -0.001193989               0.999999985              -0.000147477              -0.001205022               0.999999985              -0.000114363              -0.001212847               0.999999985              -0.000074784              -0.001217444               0.999999985              -0.000028673              -0.001218909               0.999999985               0.000023934              -0.001217717               0.999999985               0.000082504              -0.001214911               0.999999985               0.000145436              -0.001211617               0.999999985              -0.000323073              -0.001271196               0.999999985              -0.000225381              -0.001238076               0.999999985              -0.000185509              -0.001218943               0.999999985              -0.000169897              -0.001214840               0.999999985              -0.000164217              -0.001222236               0.999999985              -0.000161574              -0.001237163               0.999999985              -0.000158102              -0.001256617               0.999999985              -0.000151584              -0.001278119               0.999999985              -0.000140797              -0.001299926               0.999999985              -0.000124767              -0.001320542               0.999999985              -0.000103021              -0.001339054               0.999999985              -0.000075259              -0.001355044               0.999999985              -0.000041326              -0.001368398               0.999999985              -0.000000757              -0.001379062               0.999999985               0.000047221              -0.001387129               0.999999985               0.000103163              -0.001393087               0.999999985               0.000166712              -0.001397748               0.999999985              -0.000244692              -0.001321803               0.999999985              -0.000166871              -0.001314248               0.999999985              -0.000132582              -0.001307044               0.999999985              -0.000117886              -0.001308533               0.999999985              -0.000111817              -0.001318902               0.999999985              -0.000109006              -0.001336225               0.999999985              -0.000106205              -0.001358445               0.999999985              -0.000101360              -0.001383667               0.999999985              -0.000093492              -0.001410342               0.999999985              -0.000081745              -0.001437048               0.999999985              -0.000065395              -0.001462690               0.999999985              -0.000043847              -0.001486671               0.999999985              -0.000016800              -0.001508649               0.999999985               0.000016545              -0.001528477               0.999999985               0.000057321              -0.001546102               0.999999985               0.000106823              -0.001561376               0.999999985               0.000166277              -0.001574639               0.999999985              -0.000164292              -0.001358642               0.999999985              -0.000110282              -0.001371539               0.999999985              -0.000084990              -0.001375294               0.999999985              -0.000073412              -0.001382747               0.999999985              -0.000068155              -0.001396543               0.999999985              -0.000065634              -0.001416487               0.999999985              -0.000063572              -0.001441342               0.999999985              -0.000060246              -0.001469744               0.999999985              -0.000055068              -0.001500312               0.999999985              -0.000047471              -0.001531907               0.999999985              -0.000036680              -0.001563670               0.999999985              -0.000022031              -0.001594811               0.999999985              -0.000003068              -0.001624828               0.999999985               0.000020925              -0.001653360               0.999999985               0.000051046              -0.001680017               0.999999985               0.000088906              -0.001704283               0.999999985               0.000136601              -0.001725917               0.999999985              -0.000082513              -0.001381022               0.999999985              -0.000054864              -0.001407166               0.999999985              -0.000041410              -0.001418654               0.999999985              -0.000034983              -0.001430595               0.999999985              -0.000031908              -0.001447142               0.999999985              -0.000030413              -0.001469011               0.999999985              -0.000029282              -0.001495706               0.999999985              -0.000027662              -0.001526203               0.999999985              -0.000025117              -0.001559304               0.999999985              -0.000021219              -0.001594138               0.999999985              -0.000015930              -0.001630001               0.999999985              -0.000008655              -0.001666267               0.999999985               0.000001131              -0.001702290               0.999999985               0.000013741              -0.001737487               0.999999985               0.000029891              -0.001771067               0.999999985               0.000050676              -0.001802266               0.999999985               0.000077725              -0.001830447               0.999999985              -0.000000000              -0.001388528               0.999999985              -0.000000000              -0.001419242               0.999999985              -0.000000000              -0.001433556               0.999999985               0.000000000              -0.001447179               0.999999985              -0.000000000              -0.001464682               0.999999985              -0.000000000              -0.001487281               0.999999985              -0.000000000              -0.001514737               0.999999985               0.000000000              -0.001546072               0.999999985               0.000000000              -0.001580108               0.999999985               0.000000000              -0.001615983               0.999999985               0.000000000              -0.001653165               0.999999985              -0.000000000              -0.001691291               0.999999985              -0.000000000              -0.001729591               0.999999985               0.000000000              -0.001767165               0.999999985               0.000000000              -0.001803379               0.999999985               0.000000000              -0.001837451               0.999999985               0.000000000              -0.001868260               0.999999985               0.000885335               0.000000000               0.999999985               0.000935739               0.000000000               0.999999985               0.000957120               0.000000000               0.999999985               0.000969228               0.000000000               0.999999985               0.000979322               0.000000000               0.999999985               0.000989977              -0.000000000               0.999999985               0.001001851              -0.000000000               0.999999985               0.001014959              -0.000000000               0.999999985               0.001028831               0.000000000               0.999999985               0.001042857              -0.000000000               0.999999985               0.001056698               0.000000000               0.999999985               0.001069922               0.000000000               0.999999985               0.001082320               0.000000000               0.999999985               0.001093530               0.000000000               0.999999985               0.001103048               0.000000000               0.999999985               0.001110328               0.000000000               0.999999985               0.001114486               0.000000000               0.999999985               0.000880352              -0.000131637               0.999999985               0.000926512              -0.000104690               0.999999985               0.000945146              -0.000092491               0.999999985               0.000955492              -0.000087679               0.999999985               0.000964354              -0.000086636               0.999999985               0.000973976              -0.000087264               0.999999985               0.000984912              -0.000088319               0.999999985               0.000996897              -0.000089077               0.999999985               0.001009424              -0.000088905               0.999999985               0.001022045              -0.000087630               0.999999985               0.001034246              -0.000084918               0.999999985               0.001045667              -0.000080576               0.999999985               0.001056063              -0.000074517               0.999999985               0.001065037              -0.000066189               0.999999985               0.001072141              -0.000054775               0.999999985               0.001076866              -0.000039378               0.999999985               0.001078699              -0.000018634               0.999999985               0.000865476              -0.000262116               0.999999985               0.000899288              -0.000209014               0.999999985               0.000910360              -0.000185946               0.999999985               0.000916015              -0.000177441               0.999999985               0.000921617              -0.000176043               0.999999985               0.000928538              -0.000177674               0.999999985               0.000936765              -0.000180136               0.999999985               0.000945777              -0.000181738               0.999999985               0.000955011              -0.000181755               0.999999985               0.000963881              -0.000179276               0.999999985               0.000971805              -0.000174165               0.999999985               0.000978578              -0.000166020               0.999999985               0.000983871              -0.000154614               0.999999985               0.000987244              -0.000139143               0.999999985               0.000988468              -0.000118331               0.999999985               0.000987198              -0.000091205               0.999999985               0.000983261              -0.000056269               0.999999985               0.000841018              -0.000390216               0.999999985               0.000855494              -0.000312778               0.999999985               0.000855743              -0.000281219               0.999999985               0.000855130              -0.000270750               0.999999985               0.000856525              -0.000270092               0.999999985               0.000859990              -0.000273458               0.999999985               0.000864717              -0.000277561               0.999999985               0.000869810              -0.000280420               0.999999985               0.000874472              -0.000280542               0.999999985               0.000877926              -0.000277241               0.999999985               0.000879916              -0.000270197               0.999999985               0.000880172              -0.000259121               0.999999985               0.000878383              -0.000243668               0.999999985               0.000874156              -0.000222936               0.999999985               0.000867221              -0.000195931               0.999999985               0.000857608              -0.000162096               0.999999985               0.000845707              -0.000120677               0.999999985               0.000807624              -0.000514733               0.999999985               0.000797497              -0.000415913               0.999999985               0.000785514              -0.000378836               0.999999985               0.000778548              -0.000368466               0.999999985               0.000776061              -0.000369730               0.999999985               0.000776288              -0.000375339               0.999999985               0.000777507              -0.000381269               0.999999985               0.000778370              -0.000385210               0.999999985               0.000777796              -0.000385505               0.999999985               0.000775305              -0.000381439               0.999999985               0.000770407              -0.000372931               0.999999985               0.000762919              -0.000359839               0.999999985               0.000752637              -0.000341629               0.999999985               0.000739293              -0.000317530               0.999999985               0.000723009              -0.000287238               0.999999985               0.000704154              -0.000250870               0.999999985               0.000683401              -0.000208696               0.999999985               0.000766032              -0.000634589               0.999999985               0.000728241              -0.000518454               0.999999985               0.000704909              -0.000478803               0.999999985               0.000693073              -0.000470211               0.999999985               0.000687862              -0.000474155               0.999999985               0.000685599              -0.000482224               0.999999985               0.000683655              -0.000489894               0.999999985               0.000680219              -0.000494595               0.999999985               0.000674155              -0.000494931               0.999999985               0.000665002              -0.000490277               0.999999985               0.000652330              -0.000480610               0.999999985               0.000636142              -0.000466088               0.999999985               0.000616414              -0.000445994               0.999999985               0.000593183              -0.000419966               0.999999985               0.000566909              -0.000388712               0.999999985               0.000538320              -0.000352786               0.999999985               0.000508303              -0.000313212               0.999999985               0.000717036              -0.000748728               0.999999985               0.000651109              -0.000620418               0.999999985               0.000619110              -0.000580757               0.999999985               0.000604818              -0.000574858               0.999999985               0.000598534              -0.000581720               0.999999985               0.000594692              -0.000592029               0.999999985               0.000589846              -0.000601024               0.999999985               0.000581887              -0.000606183               0.999999985               0.000569781              -0.000606290               0.999999985               0.000553132              -0.000601075               0.999999985               0.000531937              -0.000590410               0.999999985               0.000506187              -0.000574616               0.999999985               0.000476246              -0.000553246               0.999999985               0.000442572              -0.000526462               0.999999985               0.000406097              -0.000495562               0.999999985               0.000367747              -0.000461545               0.999999985               0.000328379              -0.000425660               0.999999985               0.000661490              -0.000856037               0.999999985               0.000569654              -0.000721679               0.999999985               0.000532830              -0.000683815               0.999999985               0.000518964              -0.000680703               0.999999985               0.000513094              -0.000690093               0.999999985               0.000508157              -0.000702238               0.999999985               0.000500239              -0.000712191               0.999999985               0.000487212              -0.000717361               0.999999985               0.000468247              -0.000717059               0.999999985               0.000443243              -0.000711176               0.999999985               0.000412454              -0.000699429               0.999999985               0.000376361              -0.000682280               0.999999985               0.000335590              -0.000659968               0.999999985               0.000291144              -0.000633138               0.999999985               0.000244200              -0.000603481               0.999999985               0.000195636              -0.000572044               0.999999985               0.000146295              -0.000539727               0.999999985               0.000601137              -0.000954521               0.999999985               0.000486694              -0.000822200               0.999999985               0.000450538              -0.000786445               0.999999985               0.000439291              -0.000785519               0.999999985               0.000434716              -0.000796879               0.999999985               0.000428634              -0.000810357               0.999999985               0.000416935              -0.000820935               0.999999985               0.000397766              -0.000826092               0.999999985               0.000370711              -0.000825276               0.999999985               0.000336194              -0.000818298               0.999999985               0.000294809              -0.000805373               0.999999985               0.000247367              -0.000787039               0.999999985               0.000195018              -0.000764123               0.999999985               0.000139052              -0.000738185               0.999999985               0.000080670              -0.000710775               0.999999985               0.000021150              -0.000683048               0.999999985              -0.000038560              -0.000655319               0.999999985               0.000538683              -0.001047897               0.999999985               0.000417133              -0.000934962               0.999999985               0.000378261              -0.000895350               0.999999985               0.000366525              -0.000889368               0.999999985               0.000362762              -0.000897697               0.999999985               0.000358663              -0.000910857               0.999999985               0.000350108              -0.000923818               0.999999985               0.000334852              -0.000933695               0.999999985               0.000312253              -0.000939105               0.999999985               0.000282387              -0.000939663               0.999999985               0.000245856              -0.000935352               0.999999985               0.000202958              -0.000926290               0.999999985               0.000154213              -0.000913151               0.999999985               0.000100530              -0.000896765               0.999999985               0.000043104              -0.000878436               0.999999985              -0.000016518              -0.000859210               0.999999985              -0.000076771              -0.000840149               0.999999985               0.000470711              -0.001133092               0.999999985               0.000350363              -0.001044231               0.999999985               0.000309001              -0.001007226               0.999999985               0.000295788              -0.000998658               0.999999985               0.000291919              -0.001004928               0.999999985               0.000289013              -0.001017973               0.999999985               0.000282851              -0.001032904               0.999999985               0.000271133              -0.001046901               0.999999985               0.000252825              -0.001058104               0.999999985               0.000227754              -0.001065581               0.999999985               0.000196021              -0.001069074               0.999999985               0.000157822              -0.001068653               0.999999985               0.000113419              -0.001064438               0.999999985               0.000063025              -0.001057037               0.999999985               0.000007341              -0.001047336               0.999999985              -0.000052043              -0.001036407               0.999999985              -0.000113363              -0.001025392               0.999999985               0.000398633              -0.001207949               0.999999985               0.000286423              -0.001146694               0.999999985               0.000244420              -0.001116942               0.999999985               0.000229568              -0.001109187               0.999999985               0.000224843              -0.001115058               0.999999985               0.000222380              -0.001128553               0.999999985               0.000217818              -0.001145558               0.999999985               0.000209034              -0.001163329               0.999999985               0.000194824              -0.001179857               0.999999985               0.000174360              -0.001193989               0.999999985               0.000147477              -0.001205022               0.999999985               0.000114363              -0.001212847               0.999999985               0.000074784              -0.001217444               0.999999985               0.000028673              -0.001218909               0.999999985              -0.000023934              -0.001217717               0.999999985              -0.000082504              -0.001214911               0.999999985              -0.000145436              -0.001211617               0.999999985               0.000323073              -0.001271196               0.999999985               0.000225381              -0.001238076               0.999999985               0.000185509              -0.001218943               0.999999985               0.000169897              -0.001214840               0.999999985               0.000164217              -0.001222236               0.999999985               0.000161574              -0.001237163               0.999999985               0.000158102              -0.001256617               0.999999985               0.000151584              -0.001278119               0.999999985               0.000140797              -0.001299926               0.999999985               0.000124767              -0.001320542               0.999999985               0.000103021              -0.001339054               0.999999985               0.000075259              -0.001355044               0.999999985               0.000041326              -0.001368398               0.999999985               0.000000757              -0.001379062               0.999999985              -0.000047221              -0.001387129               0.999999985              -0.000103163              -0.001393087               0.999999985              -0.000166712              -0.001397748               0.999999985               0.000244692              -0.001321803               0.999999985               0.000166871              -0.001314248               0.999999985               0.000132582              -0.001307044               0.999999985               0.000117886              -0.001308533               0.999999985               0.000111817              -0.001318902               0.999999985               0.000109006              -0.001336225               0.999999985               0.000106205              -0.001358445               0.999999985               0.000101360              -0.001383667               0.999999985               0.000093492              -0.001410342               0.999999985               0.000081745              -0.001437048               0.999999985               0.000065395              -0.001462690               0.999999985               0.000043847              -0.001486671               0.999999985               0.000016800              -0.001508649               0.999999985              -0.000016545              -0.001528477               0.999999985              -0.000057321              -0.001546102               0.999999985              -0.000106823              -0.001561376               0.999999985              -0.000166277              -0.001574639               0.999999985               0.000164292              -0.001358642               0.999999985               0.000110282              -0.001371539               0.999999985               0.000084990              -0.001375294               0.999999985               0.000073412              -0.001382747               0.999999985               0.000068155              -0.001396543               0.999999985               0.000065634              -0.001416487               0.999999985               0.000063572              -0.001441342               0.999999985               0.000060246              -0.001469744               0.999999985               0.000055068              -0.001500312               0.999999985               0.000047471              -0.001531907               0.999999985               0.000036680              -0.001563670               0.999999985               0.000022031              -0.001594811               0.999999985               0.000003068              -0.001624828               0.999999985              -0.000020925              -0.001653360               0.999999985              -0.000051046              -0.001680017               0.999999985              -0.000088906              -0.001704283               0.999999985              -0.000136601              -0.001725917               0.999999985               0.000082513              -0.001381022               0.999999985               0.000054864              -0.001407166               0.999999985               0.000041410              -0.001418654               0.999999985               0.000034983              -0.001430595               0.999999985               0.000031908              -0.001447142               0.999999985               0.000030413              -0.001469011               0.999999985               0.000029282              -0.001495706               0.999999985               0.000027662              -0.001526203               0.999999985               0.000025117              -0.001559304               0.999999985               0.000021219              -0.001594138               0.999999985               0.000015930              -0.001630001               0.999999985               0.000008655              -0.001666267               0.999999985              -0.000001131              -0.001702290               0.999999985              -0.000013741              -0.001737487               0.999999985              -0.000029891              -0.001771067               0.999999985              -0.000050676              -0.001802266               0.999999985              -0.000077725              -0.001830447               0.999999985              -0.000000000              -0.001388528               0.999999985              -0.000000000              -0.001419242               0.999999985              -0.000000000              -0.001433556               0.999999985               0.000000000              -0.001447179               0.999999985              -0.000000000              -0.001464682               0.999999985              -0.000000000              -0.001487281               0.999999985              -0.000000000              -0.001514737               0.999999985               0.000000000              -0.001546072               0.999999985               0.000000000              -0.001580108               0.999999985               0.000000000              -0.001615983               0.999999985               0.000000000              -0.001653165               0.999999985              -0.000000000              -0.001691291               0.999999985              -0.000000000              -0.001729591               0.999999985               0.000000000              -0.001767165               0.999999985               0.000000000              -0.001803379               0.999999985               0.000000000              -0.001837451               0.999999985               0.000000000              -0.001868260               0.999999985               0.000885335               0.000000000               0.999999985               0.000935739               0.000000000               0.999999985               0.000957120               0.000000000               0.999999985               0.000969228               0.000000000               0.999999985               0.000979322               0.000000000               0.999999985               0.000989977              -0.000000000               0.999999985               0.001001851              -0.000000000               0.999999985               0.001014959              -0.000000000               0.999999985               0.001028831               0.000000000               0.999999985               0.001042857              -0.000000000               0.999999985               0.001056698               0.000000000               0.999999985               0.001069922               0.000000000               0.999999985               0.001082320               0.000000000               0.999999985               0.001093530               0.000000000               0.999999985               0.001103048               0.000000000               0.999999985               0.001110328               0.000000000               0.999999985               0.001114486               0.000000000               0.999999985               0.000880352               0.000131637               0.999999985               0.000926512               0.000104690               0.999999985               0.000945146               0.000092491               0.999999985               0.000955492               0.000087679               0.999999985               0.000964354               0.000086636               0.999999985               0.000973976               0.000087264               0.999999985               0.000984912               0.000088319               0.999999985               0.000996897               0.000089077               0.999999985               0.001009424               0.000088905               0.999999985               0.001022045               0.000087630               0.999999985               0.001034246               0.000084918               0.999999985               0.001045667               0.000080576               0.999999985               0.001056063               0.000074517               0.999999985               0.001065037               0.000066189               0.999999985               0.001072141               0.000054775               0.999999985               0.001076866               0.000039378               0.999999985               0.001078699               0.000018634               0.999999985               0.000865476               0.000262116               0.999999985               0.000899288               0.000209014               0.999999985               0.000910360               0.000185946               0.999999985               0.000916015               0.000177441               0.999999985               0.000921617               0.000176043               0.999999985               0.000928538               0.000177674               0.999999985               0.000936765               0.000180136               0.999999985               0.000945777               0.000181738               0.999999985               0.000955011               0.000181755               0.999999985               0.000963881               0.000179276               0.999999985               0.000971805               0.000174165               0.999999985               0.000978578               0.000166020               0.999999985               0.000983871               0.000154614               0.999999985               0.000987244               0.000139143               0.999999985               0.000988468               0.000118331               0.999999985               0.000987198               0.000091205               0.999999985               0.000983261               0.000056269               0.999999985               0.000841018               0.000390216               0.999999985               0.000855494               0.000312778               0.999999985               0.000855743               0.000281219               0.999999985               0.000855130               0.000270750               0.999999985               0.000856525               0.000270092               0.999999985               0.000859990               0.000273458               0.999999985               0.000864717               0.000277561               0.999999985               0.000869810               0.000280420               0.999999985               0.000874472               0.000280542               0.999999985               0.000877926               0.000277241               0.999999985               0.000879916               0.000270197               0.999999985               0.000880172               0.000259121               0.999999985               0.000878383               0.000243668               0.999999985               0.000874156               0.000222936               0.999999985               0.000867221               0.000195931               0.999999985               0.000857608               0.000162096               0.999999985               0.000845707               0.000120677               0.999999985               0.000807624               0.000514733               0.999999985               0.000797497               0.000415913               0.999999985               0.000785514               0.000378836               0.999999985               0.000778548               0.000368466               0.999999985               0.000776061               0.000369730               0.999999985               0.000776288               0.000375339               0.999999985               0.000777507               0.000381269               0.999999985               0.000778370               0.000385210               0.999999985               0.000777796               0.000385505               0.999999985               0.000775305               0.000381439               0.999999985               0.000770407               0.000372931               0.999999985               0.000762919               0.000359839               0.999999985               0.000752637               0.000341629               0.999999985               0.000739293               0.000317530               0.999999985               0.000723009               0.000287238               0.999999985               0.000704154               0.000250870               0.999999985               0.000683401               0.000208696               0.999999985               0.000766032               0.000634589               0.999999985               0.000728241               0.000518454               0.999999985               0.000704909               0.000478803               0.999999985               0.000693073               0.000470211               0.999999985               0.000687862               0.000474155               0.999999985               0.000685599               0.000482224               0.999999985               0.000683655               0.000489894               0.999999985               0.000680219               0.000494595               0.999999985               0.000674155               0.000494931               0.999999985               0.000665002               0.000490277               0.999999985               0.000652330               0.000480610               0.999999985               0.000636142               0.000466088               0.999999985               0.000616414               0.000445994               0.999999985               0.000593183               0.000419966               0.999999985               0.000566909               0.000388712               0.999999985               0.000538320               0.000352786               0.999999985               0.000508303               0.000313212               0.999999985               0.000717036               0.000748728               0.999999985               0.000651109               0.000620418               0.999999985               0.000619110               0.000580757               0.999999985               0.000604818               0.000574858               0.999999985               0.000598534               0.000581720               0.999999985               0.000594692               0.000592029               0.999999985               0.000589846               0.000601024               0.999999985               0.000581887               0.000606183               0.999999985               0.000569781               0.000606290               0.999999985               0.000553132               0.000601075               0.999999985               0.000531937               0.000590410               0.999999985               0.000506187               0.000574616               0.999999985               0.000476246               0.000553246               0.999999985               0.000442572               0.000526462               0.999999985               0.000406097               0.000495562               0.999999985               0.000367747               0.000461545               0.999999985               0.000328379               0.000425660               0.999999985               0.000661490               0.000856037               0.999999985               0.000569654               0.000721679               0.999999985               0.000532830               0.000683815               0.999999985               0.000518964               0.000680703               0.999999985               0.000513094               0.000690093               0.999999985               0.000508157               0.000702238               0.999999985               0.000500239               0.000712191               0.999999985               0.000487212               0.000717361               0.999999985               0.000468247               0.000717059               0.999999985               0.000443243               0.000711176               0.999999985               0.000412454               0.000699429               0.999999985               0.000376361               0.000682280               0.999999985               0.000335590               0.000659968               0.999999985               0.000291144               0.000633138               0.999999985               0.000244200               0.000603481               0.999999985               0.000195636               0.000572044               0.999999985               0.000146295               0.000539727               0.999999985               0.000601137               0.000954521               0.999999985               0.000486694               0.000822200               0.999999985               0.000450538               0.000786445               0.999999985               0.000439291               0.000785519               0.999999985               0.000434716               0.000796879               0.999999985               0.000428634               0.000810357               0.999999985               0.000416935               0.000820935               0.999999985               0.000397766               0.000826092               0.999999985               0.000370711               0.000825276               0.999999985               0.000336194               0.000818298               0.999999985               0.000294809               0.000805373               0.999999985               0.000247367               0.000787039               0.999999985               0.000195018               0.000764123               0.999999985               0.000139052               0.000738185               0.999999985               0.000080670               0.000710775               0.999999985               0.000021150               0.000683048               0.999999985              -0.000038560               0.000655319               0.999999985               0.000538683               0.001047897               0.999999985               0.000417133               0.000934962               0.999999985               0.000378261               0.000895350               0.999999985               0.000366525               0.000889368               0.999999985               0.000362762               0.000897697               0.999999985               0.000358663               0.000910857               0.999999985               0.000350108               0.000923818               0.999999985               0.000334852               0.000933695               0.999999985               0.000312253               0.000939105               0.999999985               0.000282387               0.000939663               0.999999985               0.000245856               0.000935352               0.999999985               0.000202958               0.000926290               0.999999985               0.000154213               0.000913151               0.999999985               0.000100530               0.000896765               0.999999985               0.000043104               0.000878436               0.999999985              -0.000016518               0.000859210               0.999999985              -0.000076771               0.000840149               0.999999985               0.000470711               0.001133092               0.999999985               0.000350363               0.001044231               0.999999985               0.000309001               0.001007226               0.999999985               0.000295788               0.000998658               0.999999985               0.000291919               0.001004928               0.999999985               0.000289013               0.001017973               0.999999985               0.000282851               0.001032904               0.999999985               0.000271133               0.001046901               0.999999985               0.000252825               0.001058104               0.999999985               0.000227754               0.001065581               0.999999985               0.000196021               0.001069074               0.999999985               0.000157822               0.001068653               0.999999985               0.000113419               0.001064438               0.999999985               0.000063025               0.001057037               0.999999985               0.000007341               0.001047336               0.999999985              -0.000052043               0.001036407               0.999999985              -0.000113363               0.001025392               0.999999985               0.000398633               0.001207949               0.999999985               0.000286423               0.001146694               0.999999985               0.000244420               0.001116942               0.999999985               0.000229568               0.001109187               0.999999985               0.000224843               0.001115058               0.999999985               0.000222380               0.001128553               0.999999985               0.000217818               0.001145558               0.999999985               0.000209034               0.001163329               0.999999985               0.000194824               0.001179857               0.999999985               0.000174360               0.001193989               0.999999985               0.000147477               0.001205022               0.999999985               0.000114363               0.001212847               0.999999985               0.000074784               0.001217444               0.999999985               0.000028673               0.001218909               0.999999985              -0.000023934               0.001217717               0.999999985              -0.000082504               0.001214911               0.999999985              -0.000145436               0.001211617               0.999999985               0.000323073               0.001271196               0.999999985               0.000225381               0.001238076               0.999999985               0.000185509               0.001218943               0.999999985               0.000169897               0.001214840               0.999999985               0.000164217               0.001222236               0.999999985               0.000161574               0.001237163               0.999999985               0.000158102               0.001256617               0.999999985               0.000151584               0.001278119               0.999999985               0.000140797               0.001299926               0.999999985               0.000124767               0.001320542               0.999999985               0.000103021               0.001339054               0.999999985               0.000075259               0.001355044               0.999999985               0.000041326               0.001368398               0.999999985               0.000000757               0.001379062               0.999999985              -0.000047221               0.001387129               0.999999985              -0.000103163               0.001393087               0.999999985              -0.000166712               0.001397748               0.999999985               0.000244692               0.001321803               0.999999985               0.000166871               0.001314248               0.999999985               0.000132582               0.001307044               0.999999985               0.000117886               0.001308533               0.999999985               0.000111817               0.001318902               0.999999985               0.000109006               0.001336225               0.999999985               0.000106205               0.001358445               0.999999985               0.000101360               0.001383667               0.999999985               0.000093492               0.001410342               0.999999985               0.000081745               0.001437048               0.999999985               0.000065395               0.001462690               0.999999985               0.000043847               0.001486671               0.999999985               0.000016800               0.001508649               0.999999985              -0.000016545               0.001528477               0.999999985              -0.000057321               0.001546102               0.999999985              -0.000106823               0.001561376               0.999999985              -0.000166277               0.001574639               0.999999985               0.000164292               0.001358642               0.999999985               0.000110282               0.001371539               0.999999985               0.000084990               0.001375294               0.999999985               0.000073412               0.001382747               0.999999985               0.000068155               0.001396543               0.999999985               0.000065634               0.001416487               0.999999985               0.000063572               0.001441342               0.999999985               0.000060246               0.001469744               0.999999985               0.000055068               0.001500312               0.999999985               0.000047471               0.001531907               0.999999985               0.000036680               0.001563670               0.999999985               0.000022031               0.001594811               0.999999985               0.000003068               0.001624828               0.999999985              -0.000020925               0.001653360               0.999999985              -0.000051046               0.001680017               0.999999985              -0.000088906               0.001704283               0.999999985              -0.000136601               0.001725917               0.999999985               0.000082513               0.001381022               0.999999985               0.000054864               0.001407166               0.999999985               0.000041410               0.001418654               0.999999985               0.000034983               0.001430595               0.999999985               0.000031908               0.001447142               0.999999985               0.000030413               0.001469011               0.999999985               0.000029282               0.001495706               0.999999985               0.000027662               0.001526203               0.999999985               0.000025117               0.001559304               0.999999985               0.000021219               0.001594138               0.999999985               0.000015930               0.001630001               0.999999985               0.000008655               0.001666267               0.999999985              -0.000001131               0.001702290               0.999999985              -0.000013741               0.001737487               0.999999985              -0.000029891               0.001771067               0.999999985              -0.000050676               0.001802266               0.999999985              -0.000077725               0.001830447               0.999999985               0.000000000               0.001388528               0.999999985               0.000000000               0.001419242               0.999999985              -0.000000000               0.001433556               0.999999985               0.000000000               0.001447179               0.999999985               0.000000000               0.001464682               0.999999985               0.000000000               0.001487281               0.999999985              -0.000000000               0.001514737               0.999999985               0.000000000               0.001546072               0.999999985              -0.000000000               0.001580108               0.999999985              -0.000000000               0.001615983               0.999999985              -0.000000000               0.001653165               0.999999985               0.000000000               0.001691291               0.999999985               0.000000000               0.001729591               0.999999985              -0.000000000               0.001767165               0.999999985               0.000000000               0.001803379               0.999999985               0.000000000               0.001837451               0.999999985              -0.000000000               0.001868260               0.999999985 </DataArray>
<DataArray type="Float64"                                    Name="defo"                                                      NumberOfComponents=" 3" format="ascii">
             -0.000885335               0.000000000               0.999999985              -0.000935739              -0.000000000               0.999999985              -0.000957120               0.000000000               0.999999985              -0.000969228               0.000000000               0.999999985              -0.000979322              -0.000000000               0.999999985              -0.000989977               0.000000000               0.999999985              -0.001001851              -0.000000000               0.999999985              -0.001014959              -0.000000000               0.999999985              -0.001028831              -0.000000000               0.999999985              -0.001042857              -0.000000000               0.999999985              -0.001056698              -0.000000000               0.999999985              -0.001069922              -0.000000000               0.999999985              -0.001082320              -0.000000000               0.999999985              -0.001093530               0.000000000               0.999999985              -0.001103048               0.000000000               0.999999985              -0.001110328              -0.000000000               0.999999985              -0.001114486              -0.000000000               0.999999985              -0.000880352               0.000131637               0.999999985              -0.000926512               0.000104690               0.999999985              -0.000945146               0.000092491               0.999999985              -0.000955492               0.000087679               0.999999985              -0.000964354               0.000086636               0.999999985              -0.000973976               0.000087264               0.999999985              -0.000984912               0.000088319               0.999999985              -0.000996897               0.000089077               0.999999985              -0.001009424               0.000088905               0.999999985              -0.001022045               0.000087630               0.999999985              -0.001034246               0.000084918               0.999999985              -0.001045667               0.000080576               0.999999985              -0.001056063               0.000074517               0.999999985              -0.001065037               0.000066189               0.999999985              -0.001072141               0.000054775               0.999999985              -0.001076866               0.000039378               0.999999985              -0.001078699               0.000018634               0.999999985              -0.000865476               0.000262116               0.999999985              -0.000899288               0.000209014               0.999999985              -0.000910360               0.000185946               0.999999985              -0.000916015               0.000177441               0.999999985              -0.000921617               0.000176043               0.999999985              -0.000928538               0.000177674               0.999999985              -0.000936765               0.000180136               0.999999985              -0.000945777               0.000181738               0.999999985              -0.000955011               0.000181755               0.999999985              -0.000963881               0.000179276               0.999999985              -0.000971805               0.000174165               0.999999985              -0.000978578               0.000166020               0.999999985              -0.000983871               0.000154614               0.999999985              -0.000987244               0.000139143               0.999999985              -0.000988468               0.000118331               0.999999985              -0.000987198               0.000091205               0.999999985              -0.000983261               0.000056269               0.999999985              -0.000841018               0.000390216               0.999999985              -0.000855494               0.000312778               0.999999985              -0.000855743               0.000281219               0.999999985              -0.000855130               0.000270750               0.999999985              -0.000856525               0.000270092               0.999999985              -0.000859990               0.000273458               0.999999985              -0.000864717               0.000277561               0.999999985              -0.000869810               0.000280420               0.999999985              -0.000874472               0.000280542               0.999999985              -0.000877926               0.000277241               0.999999985              -0.000879916               0.000270197               0.999999985              -0.000880172               0.000259121               0.999999985              -0.000878383               0.000243668               0.999999985              -0.000874156               0.000222936               0.999999985              -0.000867221               0.000195931               0.999999985              -0.000857608               0.000162096               0.999999985              -0.000845707               0.000120677               0.999999985              -0.000807624               0.000514733               0.999999985              -0.000797497               0.000415913               0.999999985              -0.000785514               0.000378836               0.999999985              -0.000778548               0.000368466               0.999999985              -0.000776061               0.000369730               0.999999985              -0.000776288               0.000375339               0.999999985              -0.000777507               0.000381269               0.999999985              -0.000778370               0.000385210               0.999999985              -0.000777796               0.000385505               0.999999985              -0.000775305               0.000381439               0.999999985              -0.000770407               0.000372931               0.999999985              -0.000762919               0.000359839               0.999999985              -0.000752637               0.000341629               0.999999985              -0.000739293               0.000317530               0.999999985              -0.000723009               0.000287238               0.999999985              -0.000704154               0.000250870               0.999999985              -0.000683401               0.000208696               0.999999985              -0.000766032               0.000634589               0.999999985              -0.000728241               0.000518454               0.999999985              -0.000704909               0.000478803               0.999999985              -0.000693073               0.000470211               0.999999985              -0.000687862               0.000474155               0.999999985              -0.000685599               0.000482224               0.999999985              -0.000683655               0.000489894               0.999999985              -0.000680219               0.000494595               0.999999985              -0.000674155               0.000494931               0.999999985              -0.000665002               0.000490277               0.999999985              -0.000652330               0.000480610               0.999999985              -0.000636142               0.000466088               0.999999985              -0.000616414               0.000445994               0.999999985              -0.000593183               0.000419966               0.999999985              -0.000566909               0.000388712               0.999999985              -0.000538320               0.000352786               0.999999985              -0.000508303               0.000313212               0.999999985              -0.000717036               0.000748728               0.999999985              -0.000651109               0.000620418               0.999999985              -0.000619110               0.000580757               0.999999985              -0.000604818               0.000574858               0.999999985              -0.000598534               0.000581720               0.999999985              -0.000594692               0.000592029               0.999999985              -0.000589846               0.000601024               0.999999985              -0.000581887               0.000606183               0.999999985              -0.000569781               0.000606290               0.999999985              -0.000553132               0.000601075               0.999999985              -0.000531937               0.000590410               0.999999985              -0.000506187               0.000574616               0.999999985              -0.000476246               0.000553246               0.999999985              -0.000442572               0.000526462               0.999999985              -0.000406097               0.000495562               0.999999985              -0.000367747               0.000461545               0.999999985              -0.000328379               0.000425660               0.999999985              -0.000661490               0.000856037               0.999999985              -0.000569654               0.000721679               0.999999985              -0.000532830               0.000683815               0.999999985              -0.000518964               0.000680703               0.999999985              -0.000513094               0.000690093               0.999999985              -0.000508157               0.000702238               0.999999985              -0.000500239               0.000712191               0.999999985              -0.000487212               0.000717361               0.999999985              -0.000468247               0.000717059               0.999999985              -0.000443243               0.000711176               0.999999985              -0.000412454               0.000699429               0.999999985              -0.000376361               0.000682280               0.999999985              -0.000335590               0.000659968               0.999999985              -0.000291144               0.000633138               0.999999985              -0.000244200               0.000603481               0.999999985              -0.000195636               0.000572044               0.999999985              -0.000146295               0.000539727               0.999999985              -0.000601137               0.000954521               0.999999985              -0.000486694               0.000822200               0.999999985              -0.000450538               0.000786445               0.999999985              -0.000439291               0.000785519               0.999999985              -0.000434716               0.000796879               0.999999985              -0.000428634               0.000810357               0.999999985              -0.000416935               0.000820935               0.999999985              -0.000397766               0.000826092               0.999999985              -0.000370711               0.000825276               0.999999985              -0.000336194               0.000818298               0.999999985              -0.000294809               0.000805373               0.999999985              -0.000247367               0.000787039               0.999999985              -0.000195018               0.000764123               0.999999985              -0.000139052               0.000738185               0.999999985              -0.000080670               0.000710775               0.999999985              -0.000021150               0.000683048               0.999999985               0.000038560               0.000655319               0.999999985              -0.000538683               0.001047897               0.999999985              -0.000417133               0.000934962               0.999999985              -0.000378261               0.000895350               0.999999985              -0.000366525               0.000889368               0.999999985              -0.000362762               0.000897697               0.999999985              -0.000358663               0.000910857               0.999999985              -0.000350108               0.000923818               0.999999985              -0.000334852               0.000933695               0.999999985              -0.000312253               0.000939105               0.999999985              -0.000282387               0.000939663               0.999999985              -0.000245856               0.000935352               0.999999985              -0.000202958               0.000926290               0.999999985              -0.000154213               0.000913151               0.999999985              -0.000100530               0.000896765               0.999999985              -0.000043104               0.000878436               0.999999985               0.000016518               0.000859210               0.999999985               0.000076771               0.000840149               0.999999985              -0.000470711               0.001133092               0.999999985              -0.000350363               0.001044231               0.999999985              -0.000309001               0.001007226               0.999999985              -0.000295788               0.000998658               0.999999985              -0.000291919               0.001004928               0.999999985              -0.000289013               0.001017973               0.999999985              -0.000282851               0.001032904               0.999999985              -0.000271133               0.001046901               0.999999985              -0.000252825               0.001058104               0.999999985              -0.000227754               0.001065581               0.999999985              -0.000196021               0.001069074               0.999999985              -0.000157822               0.001068653               0.999999985              -0.000113419               0.001064438               0.999999985              -0.000063025               0.001057037               0.999999985              -0.000007341               0.001047336               0.999999985               0.000052043               0.001036407               0.999999985               0.000113363               0.001025392               0.999999985              -0.000398633               0.001207949               0.999999985              -0.000286423               0.001146694               0.999999985              -0.000244420               0.001116942               0.999999985              -0.000229568               0.001109187               0.999999985              -0.000224843               0.001115058               0.999999985              -0.000222380               0.001128553               0.999999985              -0.000217818               0.001145558               0.999999985              -0.000209034               0.001163329               0.999999985              -0.000194824               0.001179857               0.999999985              -0.000174360               0.001193989               0.999999985              -0.000147477               0.001205022               0.999999985              -0.000114363               0.001212847               0.999999985              -0.000074784               0.001217444               0.999999985              -0.000028673               0.001218909               0.999999985               0.000023934               0.001217717               0.999999985               0.000082504               0.001214911               0.999999985               0.000145436               0.001211617               0.999999985              -0.000323073               0.001271196               0.999999985              -0.000225381               0.001238076               0.999999985              -0.000185509               0.001218943               0.999999985              -0.000169897               0.001214840               0.999999985              -0.000164217               0.001222236               0.999999985              -0.000161574               0.001237163               0.999999985              -0.000158102               0.001256617               0.999999985              -0.000151584               0.001278119               0.999999985              -0.000140797               0.001299926               0.999999985              -0.000124767               0.001320542               0.999999985              -0.000103021               0.001339054               0.999999985              -0.000075259               0.001355044               0.999999985              -0.000041326               0.001368398               0.999999985              -0.000000757               0.001379062               0.999999985               0.000047221               0.001387129               0.999999985               0.000103163               0.001393087               0.999999985               0.000166712               0.001397748               0.999999985              -0.000244692               0.001321803               0.999999985              -0.000166871               0.001314248               0.999999985              -0.000132582               0.001307044               0.999999985              -0.000117886               0.001308533               0.999999985              -0.000111817               0.001318902               0.999999985              -0.000109006               0.001336225               0.999999985              -0.000106205               0.001358445               0.999999985              -0.000101360               0.001383667               0.999999985              -0.000093492               0.001410342               0.999999985              -0.000081745               0.001437048               0.999999985              -0.000065395               0.001462690               0.999999985              -0.000043847               0.001486671               0.999999985              -0.000016800               0.001508649               0.999999985               0.000016545               0.001528477               0.999999985               0.000057321               0.001546102               0.999999985               0.000106823               0.001561376               0.999999985               0.000166277               0.001574639               0.999999985              -0.000164292               0.001358642               0.999999985              -0.000110282               0.001371539               0.999999985              -0.000084990               0.001375294               0.999999985              -0.000073412               0.001382747               0.999999985              -0.000068155               0.001396543               0.999999985              -0.000065634               0.001416487               0.999999985              -0.000063572               0.001441342               0.999999985              -0.000060246               0.001469744               0.999999985              -0.000055068               0.001500312               0.999999985              -0.000047471               0.001531907               0.999999985              -0.000036680               0.001563670               0.999999985              -0.000022031               0.001594811               0.999999985              -0.000003068               0.001624828               0.999999985               0.000020925               0.001653360               0.999999985               0.000051046               0.001680017               0.999999985               0.000088906               0.001704283               0.999999985               0.000136601               0.001725917               0.999999985              -0.000082513               0.001381022               0.999999985              -0.000054864               0.001407166               0.999999985              -0.000041410               0.001418654               0.999999985              -0.000034983               0.001430595               0.999999985              -0.000031908               0.001447142               0.999999985              -0.000030413               0.001469011               0.999999985              -0.000029282               0.001495706               0.999999985              -0.000027662               0.001526203               0.999999985              -0.000025117               0.001559304               0.999999985              -0.000021219               0.001594138               0.999999985              -0.000015930               0.001630001               0.999999985              -0.000008655               0.001666267               0.999999985               0.000001131               0.001702290               0.999999985               0.000013741               0.001737487               0.999999985               0.000029891               0.001771067               0.999999985               0.000050676               0.001802266               0.999999985               0.000077725               0.001830447               0.999999985               0.000000000               0.001388528               0.999999985               0.000000000               0.001419242               0.999999985              -0.000000000               0.001433556               0.999999985               0.000000000               0.001447179               0.999999985               0.000000000               0.001464682               0.999999985               0.000000000               0.001487281               0.999999985              -0.000000000               0.001514737               0.999999985               0.000000000               0.001546072               0.999999985              -0.000000000               0.001580108               0.999999985              -0.000000000               0.001615983               0.999999985              -0.000000000               0.001653165               0.999999985               0.000000000               0.001691291               0.999999985               0.000000000               0.001729591               0.999999985              -0.000000000               0.001767165               0.999999985               0.000000000               0.001803379               0.999999985               0.000000000               0.001837451               0.999999985              -0.000000000               0.001868260               0.999999985              -0.000885335               0.000000000               0.999999985              -0.000935739              -0.000000000               0.999999985              -0.000957120               0.000000000               0.999999985              -0.000969228               0.000000000               0.999999985              -0.000979322              -0.000000000               0.999999985              -0.000989977               0.000000000               0.999999985              -0.001001851              -0.000000000               0.999999985              -0.001014959              -0.000000000               0.999999985              -0.001028831              -0.000000000               0.999999985              -0.001042857              -0.000000000               0.999999985              -0.001056698              -0.000000000               0.999999985              -0.001069922              -0.000000000               0.999999985              -0.001082320              -0.000000000               0.999999985              -0.001093530               0.000000000               0.999999985              -0.001103048               0.000000000               0.999999985              -0.001110328              -0.000000000               0.999999985              -0.001114486              -0.000000000               0.999999985              -0.000880352              -0.000131637               0.999999985              -0.000926512              -0.000104690               0.999999985              -0.000945146              -0.000092491               0.999999985              -0.000955492              -0.000087679               0.999999985              -0.000964354              -0.000086636               0.999999985              -0.000973976              -0.000087264               0.999999985              -0.000984912              -0.000088319               0.999999985              -0.000996897              -0.000089077               0.999999985              -0.001009424              -0.000088905               0.999999985              -0.001022045              -0.000087630               0.999999985              -0.001034246              -0.000084918               0.999999985              -0.001045667              -0.000080576               0.999999985              -0.001056063              -0.000074517               0.999999985              -0.001065037              -0.000066189               0.999999985              -0.001072141              -0.000054775               0.999999985              -0.001076866              -0.000039378               0.999999985              -0.001078699              -0.000018634               0.999999985              -0.000865476              -0.000262116               0.999999985              -0.000899288              -0.000209014               0.999999985              -0.000910360              -0.000185946               0.999999985              -0.000916015              -0.000177441               0.999999985              -0.000921617              -0.000176043               0.999999985              -0.000928538              -0.000177674               0.999999985              -0.000936765              -0.000180136               0.999999985              -0.000945777              -0.000181738               0.999999985              -0.000955011              -0.000181755               0.999999985              -0.000963881              -0.000179276               0.999999985              -0.000971805              -0.000174165               0.999999985              -0.000978578              -0.000166020               0.999999985              -0.000983871              -0.000154614               0.999999985              -0.000987244              -0.000139143               0.999999985              -0.000988468              -0.000118331               0.999999985              -0.000987198              -0.000091205               0.999999985              -0.000983261              -0.000056269               0.999999985              -0.000841018              -0.000390216               0.999999985              -0.000855494              -0.000312778               0.999999985              -0.000855743              -0.000281219               0.999999985              -0.000855130              -0.000270750               0.999999985              -0.000856525              -0.000270092               0.999999985              -0.000859990              -0.000273458               0.999999985              -0.000864717              -0.000277561               0.999999985              -0.000869810              -0.000280420               0.999999985              -0.000874472              -0.000280542               0.999999985              -0.000877926              -0.000277241               0.999999985              -0.000879916              -0.000270197               0.999999985              -0.000880172              -0.000259121               0.999999985              -0.000878383              -0.000243668               0.999999985              -0.000874156              -0.000222936               0.999999985              -0.000867221              -0.000195931               0.999999985              -0.000857608              -0.000162096               0.999999985              -0.000845707              -0.000120677               0.999999985              -0.000807624              -0.000514733               0.999999985              -0.000797497              -0.000415913               0.999999985              -0.000785514              -0.000378836               0.999999985              -0.000778548              -0.000368466               0.999999985              -0.000776061              -0.000369730               0.999999985              -0.000776288              -0.000375339               0.999999985              -0.000777507              -0.000381269               0.999999985              -0.000778370              -0.000385210               0.999999985              -0.000777796              -0.000385505               0.999999985              -0.000775305              -0.000381439               0.999999985              -0.000770407              -0.000372931               0.999999985              -0.000762919              -0.000359839               0.999999985              -0.000752637              -0.000341629               0.999999985              -0.000739293              -0.000317530               0.999999985              -0.000723009              -0.000287238               0.999999985              -0.000704154              -0.000250870               0.999999985              -0.000683401              -0.000208696               0.999999985              -0.000766032              -0.000634589               0.999999985              -0.000728241              -0.000518454               0.999999985              -0.000704909              -0.000478803               0.999999985              -0.000693073              -0.000470211               0.999999985              -0.000687862              -0.000474155               0.999999985              -0.000685599              -0.000482224               0.999999985              -0.000683655              -0.000489894               0.999999985              -0.000680219              -0.000494595               0.999999985              -0.000674155              -0.000494931               0.999999985              -0.000665002              -0.000490277               0.999999985              -0.000652330              -0.000480610               0.999999985              -0.000636142              -0.000466088               0.999999985              -0.000616414              -0.000445994               0.999999985              -0.000593183              -0.000419966               0.999999985              -0.000566909              -0.000388712               0.999999985              -0.000538320              -0.000352786               0.999999985              -0.000508303              -0.000313212               0.999999985              -0.000717036              -0.000748728               0.999999985              -0.000651109              -0.000620418               0.999999985              -0.000619110              -0.000580757               0.999999985              -0.000604818              -0.000574858               0.999999985              -0.000598534              -0.000581720               0.999999985              -0.000594692              -0.000592029               0.999999985              -0.000589846              -0.000601024               0.999999985              -0.000581887              -0.000606183               0.999999985              -0.000569781              -0.000606290               0.999999985              -0.000553132              -0.000601075               0.999999985              -0.000531937              -0.000590410               0.999999985              -0.000506187              -0.000574616               0.999999985              -0.000476246              -0.000553246               0.999999985              -0.000442572              -0.000526462               0.999999985              -0.000406097              -0.000495562               0.999999985              -0.000367747              -0.000461545               0.999999985              -0.000328379              -0.000425660               0.999999985              -0.000661490              -0.000856037               0.999999985              -0.000569654              -0.000721679               0.999999985              -0.000532830              -0.000683815               0.999999985              -0.000518964              -0.000680703               0.999999985              -0.000513094              -0.000690093               0.999999985              -0.000508157              -0.000702238               0.999999985              -0.000500239              -0.000712191               0.999999985              -0.000487212              -0.000717361               0.999999985              -0.000468247              -0.000717059               0.999999985              -0.000443243              -0.000711176               0.999999985              -0.000412454              -0.000699429               0.999999985              -0.000376361              -0.000682280               0.999999985              -0.000335590              -0.000659968               0.999999985              -0.000291144              -0.000633138               0.999999985              -0.000244200              -0.000603481               0.999999985              -0.000195636              -0.000572044               0.999999985              -0.000146295              -0.000539727               0.999999985              -0.000601137              -0.000954521               0.999999985              -0.000486694              -0.000822200               0.999999985              -0.000450538              -0.000786445               0.999999985              -0.000439291              -0.000785519               0.999999985              -0.000434716              -0.000796879               0.999999985              -0.000428634              -0.000810357               0.999999985              -0.000416935              -0.000820935               0.999999985              -0.000397766              -0.000826092               0.999999985              -0.000370711              -0.000825276               0.999999985              -0.000336194              -0.000818298               0.999999985              -0.000294809              -0.000805373               0.999999985              -0.000247367              -0.000787039               0.999999985              -0.000195018              -0.000764123               0.999999985              -0.000139052              -0.000738185               0.999999985              -0.000080670              -0.000710775               0.999999985              -0.000021150              -0.000683048               0.999999985               0.000038560              -0.000655319               0.999999985              -0.000538683              -0.001047897               0.999999985              -0.000417133              -0.000934962               0.999999985              -0.000378261              -0.000895350               0.999999985              -0.000366525              -0.000889368               0.999999985              -0.000362762              -0.000897697               0.999999985              -0.000358663              -0.000910857               0.999999985              -0.000350108              -0.000923818               0.999999985              -0.000334852              -0.000933695               0.999999985              -0.000312253              -0.000939105               0.999999985              -0.000282387              -0.000939663               0.999999985              -0.000245856              -0.000935352               0.999999985              -0.000202958              -0.000926290               0.999999985              -0.000154213              -0.000913151               0.999999985              -0.000100530              -0.000896765               0.999999985              -0.000043104              -0.000878436               0.999999985               0.000016518              -0.000859210               0.999999985               0.000076771              -0.000840149               0.999999985              -0.000470711              -0.001133092               0.999999985              -0.000350363              -0.001044231               0.999999985              -0.000309001              -0.001007226               0.999999985              -0.000295788              -0.000998658               0.999999985              -0.000291919              -0.001004928               0.999999985              -0.000289013              -0.001017973               0.999999985              -0.000282851              -0.001032904               0.999999985              -0.000271133              -0.001046901               0.999999985              -0.000252825              -0.001058104               0.999999985              -0.000227754              -0.001065581               0.999999985              -0.000196021              -0.001069074               0.999999985              -0.000157822              -0.001068653               0.999999985              -0.000113419              -0.001064438               0.999999985              -0.000063025              -0.001057037               0.999999985              -0.000007341              -0.001047336               0.999999985               0.000052043              -0.001036407               0.999999985               0.000113363              -0.001025392               0.999999985              -0.000398633              -0.001207949               0.999999985              -0.000286423              -0.001146694               0.999999985              -0.000244420              -0.001116942               0.999999985              -0.000229568              -0.001109187               0.999999985              -0.000224843              -0.001115058               0.999999985              -0.000222380              -0.001128553               0.999999985              -0.000217818              -0.001145558               0.999999985              -0.000209034              -0.001163329               0.999999985              -0.000194824              -0.001179857               0.999999985              -0.000174360              -0.001193989               0.999999985              -0.000147477              -0.001205022               0.999999985              -0.000114363              -0.001212847               0.999999985              -0.000074784              -0.001217444               0.999999985              -0.000028673              -0.001218909               0.999999985               0.000023934              -0.001217717               0.999999985               0.000082504              -0.001214911               0.999999985               0.000145436              -0.001211617               0.999999985              -0.000323073              -0.001271196               0.999999985              -0.000225381              -0.001238076               0.999999985              -0.000185509              -0.001218943               0.999999985              -0.000169897              -0.001214840               0.999999985              -0.000164217              -0.001222236               0.999999985              -0.000161574              -0.001237163               0.999999985              -0.000158102              -0.001256617               0.999999985              -0.000151584              -0.001278119               0.999999985              -0.000140797              -0.001299926               0.999999985              -0.000124767              -0.001320542               0.999999985              -0.000103021              -0.001339054               0.999999985              -0.000075259              -0.001355044               0.999999985              -0.000041326              -0.001368398               0.999999985              -0.000000757              -0.001379062               0.999999985               0.000047221              -0.001387129               0.999999985               0.000103163              -0.001393087               0.999999985               0.000166712              -0.001397748               0.999999985              -0.000244692              -0.001321803               0.999999985              -0.000166871              -0.001314248               0.999999985              -0.000132582              -0.001307044               0.999999985              -0.000117886              -0.001308533               0.999999985              -0.000111817              -0.001318902               0.999999985              -0.000109006              -0.001336225               0.999999985              -0.000106205              -0.001358445               0.999999985              -0.000101360              -0.001383667               0.999999985              -0.000093492              -0.001410342               0.999999985              -0.000081745              -0.001437048               0.999999985              -0.000065395              -0.001462690               0.999999985              -0.000043847              -0.001486671               0.999999985              -0.000016800              -0.001508649               0.999999985               0.000016545              -0.001528477               0.999999985               0.000057321              -0.001546102               0.999999985               0.000106823              -0.001561376               0.999999985               0.000166277              -0.001574639               0.999999985              -0.000164292              -0.001358642               0.999999985              -0.000110282              -0.001371539               0.999999985              -0.000084990              -0.001375294               0.999999985              -0.000073412              -0.001382747               0.999999985              -0.000068155              -0.001396543               0.999999985              -0.000065634              -0.001416487               0.999999985              -0.000063572              -0.001441342               0.999999985              -0.000060246              -0.001469744               0.999999985              -0.000055068              -0.001500312               0.999999985              -0.000047471              -0.001531907               0.999999985              -0.000036680              -0.001563670               0.999999985              -0.000022031              -0.001594811               0.999999985              -0.000003068              -0.001624828               0.999999985               0.000020925              -0.001653360               0.999999985               0.000051046              -0.001680017               0.999999985               0.000088906              -0.001704283               0.999999985               0.000136601              -0.001725917               0.999999985              -0.000082513              -0.001381022               0.999999985              -0.000054864              -0.001407166               0.999999985              -0.000041410              -0.001418654               0.999999985              -0.000034983              -0.001430595               0.999999985              -0.000031908              -0.001447142               0.999999985              -0.000030413              -0.001469011               0.999999985              -0.000029282              -0.001495706               0.999999985              -0.000027662              -0.001526203               0.999999985              -0.000025117              -0.001559304               0.999999985              -0.000021219              -0.001594138               0.999999985              -0.000015930              -0.001630001               0.999999985              -0.000008655              -0.001666267               0.999999985               0.000001131              -0.001702290               0.999999985               0.000013741              -0.001737487               0.999999985               0.000029891              -0.001771067               0.999999985               0.000050676              -0.001802266               0.999999985               0.000077725              -0.001830447               0.999999985              -0.000000000              -0.001388528               0.999999985              -0.000000000              -0.001419242               0.999999985              -0.000000000              -0.001433556               0.999999985               0.000000000              -0.001447179               0.999999985              -0.000000000              -0.001464682               0.999999985              -0.000000000              -0.001487281               0.999999985              -0.000000000              -0.001514737               0.999999985               0.000000000              -0.001546072               0.999999985               0.000000000              -0.001580108               0.999999985               0.000000000              -0.001615983               0.999999985               0.000000000              -0.001653165               0.999999985              -0.000000000              -0.001691291               0.999999985              -0.000000000              -0.001729591               0.999999985               0.000000000              -0.001767165               0.999999985               0.000000000              -0.001803379               0.999999985               0.000000000              -0.001837451               0.999999985               0.000000000              -0.001868260               0.999999985               0.000885335               0.000000000               0.999999985               0.000935739               0.000000000               0.999999985               0.000957120               0.000000000               0.999999985               0.000969228               0.000000000               0.999999985               0.000979322               0.000000000               0.999999985               0.000989977              -0.000000000               0.999999985               0.001001851              -0.000000000               0.999999985               0.001014959              -0.000000000               0.999999985               0.001028831               0.000000000               0.999999985               0.001042857              -0.000000000               0.999999985               0.001056698               0.000000000               0.999999985               0.001069922               0.000000000               0.999999985               0.001082320               0.000000000               0.999999985               0.001093530               0.000000000               0.999999985               0.001103048               0.000000000               0.999999985               0.001110328               0.000000000               0.999999985               0.001114486               0.000000000               0.999999985               0.000880352              -0.000131637               0.999999985               0.000926512              -0.000104690               0.999999985               0.000945146              -0.000092491               0.999999985               0.000955492              -0.000087679               0.999999985               0.000964354              -0.000086636               0.999999985               0.000973976              -0.000087264               0.999999985               0.000984912              -0.000088319               0.999999985               0.000996897              -0.000089077               0.999999985               0.001009424              -0.000088905               0.999999985               0.001022045              -0.000087630               0.999999985               0.001034246              -0.000084918               0.999999985               0.001045667              -0.000080576               0.999999985               0.001056063              -0.000074517               0.999999985               0.001065037              -0.000066189               0.999999985               0.001072141              -0.000054775               0.999999985               0.001076866              -0.000039378               0.999999985               0.001078699              -0.000018634               0.999999985               0.000865476              -0.000262116               0.999999985               0.000899288              -0.000209014               0.999999985               0.000910360              -0.000185946               0.999999985               0.000916015              -0.000177441               0.999999985               0.000921617              -0.000176043               0.999999985               0.000928538              -0.000177674               0.999999985               0.000936765              -0.000180136               0.999999985               0.000945777              -0.000181738               0.999999985               0.000955011              -0.000181755               0.999999985               0.000963881              -0.000179276               0.999999985               0.000971805              -0.000174165               0.999999985               0.000978578              -0.000166020               0.999999985               0.000983871              -0.000154614               0.999999985               0.000987244              -0.000139143               0.999999985               0.000988468              -0.000118331               0.999999985               0.000987198              -0.000091205               0.999999985               0.000983261              -0.000056269               0.999999985               0.000841018              -0.000390216               0.999999985               0.000855494              -0.000312778               0.999999985               0.000855743              -0.000281219               0.999999985               0.000855130              -0.000270750               0.999999985               0.000856525              -0.000270092               0.999999985               0.000859990              -0.000273458               0.999999985               0.000864717              -0.000277561               0.999999985               0.000869810              -0.000280420               0.999999985               0.000874472              -0.000280542               0.999999985               0.000877926              -0.000277241               0.999999985               0.000879916              -0.000270197               0.999999985               0.000880172              -0.000259121               0.999999985               0.000878383              -0.000243668               0.999999985               0.000874156              -0.000222936               0.999999985               0.000867221              -0.000195931               0.999999985               0.000857608              -0.000162096               0.999999985               0.000845707              -0.000120677               0.999999985               0.000807624              -0.000514733               0.999999985               0.000797497              -0.000415913               0.999999985               0.000785514              -0.000378836               0.999999985               0.000778548              -0.000368466               0.999999985               0.000776061              -0.000369730               0.999999985               0.000776288              -0.000375339               0.999999985               0.000777507              -0.000381269               0.999999985               0.000778370              -0.000385210               0.999999985               0.000777796              -0.000385505               0.999999985               0.000775305              -0.000381439               0.999999985               0.000770407              -0.000372931               0.999999985               0.000762919              -0.000359839               0.999999985               0.000752637              -0.000341629               0.999999985               0.000739293              -0.000317530               0.999999985               0.000723009              -0.000287238               0.999999985               0.000704154              -0.000250870               0.999999985               0.000683401              -0.000208696               0.999999985               0.000766032              -0.000634589               0.999999985               0.000728241              -0.000518454               0.999999985               0.000704909              -0.000478803               0.999999985               0.000693073              -0.000470211               0.999999985               0.000687862              -0.000474155               0.999999985               0.000685599              -0.000482224               0.999999985               0.000683655              -0.000489894               0.999999985               0.000680219              -0.000494595               0.999999985               0.000674155              -0.000494931               0.999999985               0.000665002              -0.000490277               0.999999985               0.000652330              -0.000480610               0.999999985               0.000636142              -0.000466088               0.999999985               0.000616414              -0.000445994               0.999999985               0.000593183              -0.000419966               0.999999985               0.000566909              -0.000388712               0.999999985               0.000538320              -0.000352786               0.999999985               0.000508303              -0.000313212               0.999999985               0.000717036              -0.000748728               0.999999985               0.000651109              -0.000620418               0.999999985               0.000619110              -0.000580757               0.999999985               0.000604818              -0.000574858               0.999999985               0.000598534              -0.000581720               0.999999985               0.000594692              -0.000592029               0.999999985               0.000589846              -0.000601024               0.999999985               0.000581887              -0.000606183               0.999999985               0.000569781              -0.000606290               0.999999985               0.000553132              -0.000601075               0.999999985               0.000531937              -0.000590410               0.999999985               0.000506187              -0.000574616               0.999999985               0.000476246              -0.000553246               0.999999985               0.000442572              -0.000526462               0.999999985               0.000406097              -0.000495562               0.999999985               0.000367747              -0.000461545               0.999999985               0.000328379              -0.000425660               0.999999985               0.000661490              -0.000856037               0.999999985               0.000569654              -0.000721679               0.999999985               0.000532830              -0.000683815               0.999999985               0.000518964              -0.000680703               0.999999985               0.000513094              -0.000690093               0.999999985               0.000508157              -0.000702238               0.999999985               0.000500239              -0.000712191               0.999999985               0.000487212              -0.000717361               0.999999985               0.000468247              -0.000717059               0.999999985               0.000443243              -0.000711176               0.999999985               0.000412454              -0.000699429               0.999999985               0.000376361              -0.000682280               0.999999985               0.000335590              -0.000659968               0.999999985               0.000291144              -0.000633138               0.999999985               0.000244200              -0.000603481               0.999999985               0.000195636              -0.000572044               0.999999985               0.000146295              -0.000539727               0.999999985               0.000601137              -0.000954521               0.999999985               0.000486694              -0.000822200               0.999999985               0.000450538              -0.000786445               0.999999985               0.000439291              -0.000785519               0.999999985               0.000434716              -0.000796879               0.999999985               0.000428634              -0.000810357               0.999999985               0.000416935              -0.000820935               0.999999985               0.000397766              -0.000826092               0.999999985               0.000370711              -0.000825276               0.999999985               0.000336194              -0.000818298               0.999999985               0.000294809              -0.000805373               0.999999985               0.000247367              -0.000787039               0.999999985               0.000195018              -0.000764123               0.999999985               0.000139052              -0.000738185               0.999999985               0.000080670              -0.000710775               0.999999985               0.000021150              -0.000683048               0.999999985              -0.000038560              -0.000655319               0.999999985               0.000538683              -0.001047897               0.999999985               0.000417133              -0.000934962               0.999999985               0.000378261              -0.000895350               0.999999985               0.000366525              -0.000889368               0.999999985               0.000362762              -0.000897697               0.999999985               0.000358663              -0.000910857               0.999999985               0.000350108              -0.000923818               0.999999985               0.000334852              -0.000933695               0.999999985               0.000312253              -0.000939105               0.999999985               0.000282387              -0.000939663               0.999999985               0.000245856              -0.000935352               0.999999985               0.000202958              -0.000926290               0.999999985               0.000154213              -0.000913151               0.999999985               0.000100530              -0.000896765               0.999999985               0.000043104              -0.000878436               0.999999985              -0.000016518              -0.000859210               0.999999985              -0.000076771              -0.000840149               0.999999985               0.000470711              -0.001133092               0.999999985               0.000350363              -0.001044231               0.999999985               0.000309001              -0.001007226               0.999999985               0.000295788              -0.000998658               0.999999985               0.000291919              -0.001004928               0.999999985               0.000289013              -0.001017973               0.999999985               0.000282851              -0.001032904               0.999999985               0.000271133              -0.001046901               0.999999985               0.000252825              -0.001058104               0.999999985               0.000227754              -0.001065581               0.999999985               0.000196021              -0.001069074               0.999999985               0.000157822              -0.001068653               0.999999985               0.000113419              -0.001064438               0.999999985               0.000063025              -0.001057037               0.999999985               0.000007341              -0.001047336               0.999999985              -0.000052043              -0.001036407               0.999999985              -0.000113363              -0.001025392               0.999999985               0.000398633              -0.001207949               0.999999985               0.000286423              -0.001146694               0.999999985               0.000244420              -0.001116942               0.999999985               0.000229568              -0.001109187               0.999999985               0.000224843              -0.001115058               0.999999985               0.000222380              -0.001128553               0.999999985               0.000217818              -0.001145558               0.999999985               0.000209034              -0.001163329               0.999999985               0.000194824              -0.001179857               0.999999985               0.000174360              -0.001193989               0.999999985               0.000147477              -0.001205022               0.999999985               0.000114363              -0.001212847               0.999999985               0.000074784              -0.001217444               0.999999985               0.000028673              -0.001218909               0.999999985              -0.000023934              -0.001217717               0.999999985              -0.000082504              -0.001214911               0.999999985              -0.000145436              -0.001211617               0.999999985               0.000323073              -0.001271196               0.999999985               0.000225381              -0.001238076               0.999999985               0.000185509              -0.001218943               0.999999985               0.000169897              -0.001214840               0.999999985               0.000164217              -0.001222236               0.999999985               0.000161574              -0.001237163               0.999999985               0.000158102              -0.001256617               0.999999985               0.000151584              -0.001278119               0.999999985               0.000140797              -0.001299926               0.999999985               0.000124767              -0.001320542               0.999999985               0.000103021              -0.001339054               0.999999985               0.000075259              -0.001355044               0.999999985               0.000041326              -0.001368398               0.999999985               0.000000757              -0.001379062               0.999999985              -0.000047221              -0.001387129               0.999999985              -0.000103163              -0.001393087               0.999999985              -0.000166712              -0.001397748               0.999999985               0.000244692              -0.001321803               0.999999985               0.000166871              -0.001314248               0.999999985               0.000132582              -0.001307044               0.999999985               0.000117886              -0.001308533               0.999999985               0.000111817              -0.001318902               0.999999985               0.000109006              -0.001336225               0.999999985               0.000106205              -0.001358445               0.999999985               0.000101360              -0.001383667               0.999999985               0.000093492              -0.001410342               0.999999985               0.000081745              -0.001437048               0.999999985               0.000065395              -0.001462690               0.999999985               0.000043847              -0.001486671               0.999999985               0.000016800              -0.001508649               0.999999985              -0.000016545              -0.001528477               0.999999985              -0.000057321              -0.001546102               0.999999985              -0.000106823              -0.001561376               0.999999985              -0.000166277              -0.001574639               0.999999985               0.000164292              -0.001358642               0.999999985               0.000110282              -0.001371539               0.999999985               0.000084990              -0.001375294               0.999999985               0.000073412              -0.001382747               0.999999985               0.000068155              -0.001396543               0.999999985               0.000065634              -0.001416487               0.999999985               0.000063572              -0.001441342               0.999999985               0.000060246              -0.001469744               0.999999985               0.000055068              -0.001500312               0.999999985               0.000047471              -0.001531907               0.999999985               0.000036680              -0.001563670               0.999999985               0.000022031              -0.001594811               0.999999985               0.000003068              -0.001624828               0.999999985              -0.000020925              -0.001653360               0.999999985              -0.000051046              -0.001680017               0.999999985              -0.000088906              -0.001704283               0.999999985              -0.000136601              -0.001725917               0.999999985               0.000082513              -0.001381022               0.999999985               0.000054864              -0.001407166               0.999999985               0.000041410              -0.001418654               0.999999985               0.000034983              -0.001430595               0.999999985               0.000031908              -0.001447142               0.999999985               0.000030413              -0.001469011               0.999999985               0.000029282              -0.001495706               0.999999985               0.000027662              -0.001526203               0.999999985               0.000025117              -0.001559304               0.999999985               0.000021219              -0.001594138               0.999999985               0.000015930              -0.001630001               0.999999985               0.000008655              -0.001666267               0.999999985              -0.000001131              -0.001702290               0.999999985              -0.000013741              -0.001737487               0.999999985              -0.000029891              -0.001771067               0.999999985              -0.000050676              -0.001802266               0.999999985              -0.000077725              -0.001830447               0.999999985              -0.000000000              -0.001388528               0.999999985              -0.000000000              -0.001419242               0.999999985              -0.000000000              -0.001433556               0.999999985               0.000000000              -0.001447179               0.999999985              -0.000000000              -0.001464682               0.999999985              -0.000000000              -0.001487281               0.999999985              -0.000000000              -0.001514737               0.999999985               0.000000000              -0.001546072               0.999999985               0.000000000              -0.001580108               0.999999985               0.000000000              -0.001615983               0.999999985               0.000000000              -0.001653165               0.999999985              -0.000000000              -0.001691291               0.999999985              -0.000000000              -0.001729591               0.999999985               0.000000000              -0.001767165               0.999999985               0.000000000              -0.001803379               0.999999985               0.000000000              -0.001837451               0.999999985               0.000000000              -0.001868260               0.999999985               0.000885335               0.000000000               0.999999985               0.000935739               0.000000000               0.999999985               0.000957120               0.000000000               0.999999985               0.000969228               0.000000000               0.999999985               0.000979322               0.000000000               0.999999985               0.000989977              -0.000000000               0.999999985               0.001001851              -0.000000000               0.999999985               0.001014959              -0.000000000               0.999999985               0.001028831               0.000000000               0.999999985               0.001042857              -0.000000000               0.999999985               0.001056698               0.000000000               0.999999985               0.001069922               0.000000000               0.999999985               0.001082320               0.000000000               0.999999985               0.001093530               0.000000000               0.999999985               0.001103048               0.000000000               0.999999985               0.001110328               0.000000000               0.999999985               0.001114486               0.000000000               0.999999985               0.000880352               0.000131637               0.999999985               0.000926512               0.000104690               0.999999985               0.000945146               0.000092491               0.999999985               0.000955492               0.000087679               0.999999985               0.000964354               0.000086636               0.999999985               0.000973976               0.000087264               0.999999985               0.000984912               0.000088319               0.999999985               0.000996897               0.000089077               0.999999985               0.001009424               0.000088905               0.999999985               0.001022045               0.000087630               0.999999985               0.001034246               0.000084918               0.999999985               0.001045667               0.000080576               0.999999985               0.001056063               0.000074517               0.999999985               0.001065037               0.000066189               0.999999985               0.001072141               0.000054775               0.999999985               0.001076866               0.000039378               0.999999985               0.001078699               0.000018634               0.999999985               0.000865476               0.000262116               0.999999985               0.000899288               0.000209014               0.999999985               0.000910360               0.000185946               0.999999985               0.000916015               0.000177441               0.999999985               0.000921617               0.000176043               0.999999985               0.000928538               0.000177674               0.999999985               0.000936765               0.000180136               0.999999985               0.000945777               0.000181738               0.999999985               0.000955011               0.000181755               0.999999985               0.000963881               0.000179276               0.999999985               0.000971805               0.000174165               0.999999985               0.000978578               0.000166020               0.999999985               0.000983871               0.000154614               0.999999985               0.000987244               0.000139143               0.999999985               0.000988468               0.000118331               0.999999985               0.000987198               0.000091205               0.999999985               0.000983261               0.000056269               0.999999985               0.000841018               0.000390216               0.999999985               0.000855494               0.000312778               0.999999985               0.000855743               0.000281219               0.999999985               0.000855130               0.000270750               0.999999985               0.000856525               0.000270092               0.999999985               0.000859990               0.000273458               0.999999985               0.000864717               0.000277561               0.999999985               0.000869810               0.000280420               0.999999985               0.000874472               0.000280542               0.999999985               0.000877926               0.000277241               0.999999985               0.000879916               0.000270197               0.999999985               0.000880172               0.000259121               0.999999985               0.000878383               0.000243668               0.999999985               0.000874156               0.000222936               0.999999985               0.000867221               0.000195931               0.999999985               0.000857608               0.000162096               0.999999985               0.000845707               0.000120677               0.999999985               0.000807624               0.000514733               0.999999985               0.000797497               0.000415913               0.999999985               0.000785514               0.000378836               0.999999985               0.000778548               0.000368466               0.999999985               0.000776061               0.000369730               0.999999985               0.000776288               0.000375339               0.999999985               0.000777507               0.000381269               0.999999985               0.000778370               0.000385210               0.999999985               0.000777796               0.000385505               0.999999985               0.000775305               0.000381439               0.999999985               0.000770407               0.000372931               0.999999985               0.000762919               0.000359839               0.999999985               0.000752637               0.000341629               0.999999985               0.000739293               0.000317530               0.999999985               0.000723009               0.000287238               0.999999985               0.000704154               0.000250870               0.999999985               0.000683401               0.000208696               0.999999985               0.000766032               0.000634589               0.999999985               0.000728241               0.000518454               0.999999985               0.000704909               0.000478803               0.999999985               0.000693073               0.000470211               0.999999985               0.000687862               0.000474155               0.999999985               0.000685599               0.000482224               0.999999985               0.000683655               0.000489894               0.999999985               0.000680219               0.000494595               0.999999985               0.000674155               0.000494931               0.999999985               0.000665002               0.000490277               0.999999985               0.000652330               0.000480610               0.999999985               0.000636142               0.000466088               0.999999985               0.000616414               0.000445994               0.999999985               0.000593183               0.000419966               0.999999985               0.000566909               0.000388712               0.999999985               0.000538320               0.000352786               0.999999985               0.000508303               0.000313212               0.999999985               0.000717036               0.000748728               0.999999985               0.000651109               0.000620418               0.999999985               0.000619110               0.000580757               0.999999985               0.000604818               0.000574858               0.999999985               0.000598534               0.000581720               0.999999985               0.000594692               0.000592029               0.999999985               0.000589846               0.000601024               0.999999985               0.000581887               0.000606183               0.999999985               0.000569781               0.000606290               0.999999985               0.000553132               0.000601075               0.999999985               0.000531937               0.000590410               0.999999985               0.000506187               0.000574616               0.999999985               0.000476246               0.000553246               0.999999985               0.000442572               0.000526462               0.999999985               0.000406097               0.000495562               0.999999985               0.000367747               0.000461545               0.999999985               0.000328379               0.000425660               0.999999985               0.000661490               0.000856037               0.999999985               0.000569654               0.000721679               0.999999985               0.000532830               0.000683815               0.999999985               0.000518964               0.000680703               0.999999985               0.000513094               0.000690093               0.999999985               0.000508157               0.000702238               0.999999985               0.000500239               0.000712191               0.999999985               0.000487212               0.000717361               0.999999985               0.000468247               0.000717059               0.999999985               0.000443243               0.000711176               0.999999985               0.000412454               0.000699429               0.999999985               0.000376361               0.000682280               0.999999985               0.000335590               0.000659968               0.999999985               0.000291144               0.000633138               0.999999985               0.000244200               0.000603481               0.999999985               0.000195636               0.000572044               0.999999985               0.000146295               0.000539727               0.999999985               0.000601137               0.000954521               0.999999985               0.000486694               0.000822200               0.999999985               0.000450538               0.000786445               0.999999985               0.000439291               0.000785519               0.999999985               0.000434716               0.000796879               0.999999985               0.000428634               0.000810357               0.999999985               0.000416935               0.000820935               0.999999985               0.000397766               0.000826092               0.999999985               0.000370711               0.000825276               0.999999985               0.000336194               0.000818298               0.999999985               0.000294809               0.000805373               0.999999985               0.000247367               0.000787039               0.999999985               0.000195018               0.000764123               0.999999985               0.000139052               0.000738185               0.999999985               0.000080670               0.000710775               0.999999985               0.000021150               0.000683048               0.999999985              -0.000038560               0.000655319               0.999999985               0.000538683               0.001047897               0.999999985               0.000417133               0.000934962               0.999999985               0.000378261               0.000895350               0.999999985               0.000366525               0.000889368               0.999999985               0.000362762               0.000897697               0.999999985               0.000358663               0.000910857               0.999999985               0.000350108               0.000923818               0.999999985               0.000334852               0.000933695               0.999999985               0.000312253               0.000939105               0.999999985               0.000282387               0.000939663               0.999999985               0.000245856               0.000935352               0.999999985               0.000202958               0.000926290               0.999999985               0.000154213               0.000913151               0.999999985               0.000100530               0.000896765               0.999999985               0.000043104               0.000878436               0.999999985              -0.000016518               0.000859210               0.999999985              -0.000076771               0.000840149               0.999999985               0.000470711               0.001133092               0.999999985               0.000350363               0.001044231               0.999999985               0.000309001               0.001007226               0.999999985               0.000295788               0.000998658               0.999999985               0.000291919               0.001004928               0.999999985               0.000289013               0.001017973               0.999999985               0.000282851               0.001032904               0.999999985               0.000271133               0.001046901               0.999999985               0.000252825               0.001058104               0.999999985               0.000227754               0.001065581               0.999999985               0.000196021               0.001069074               0.999999985               0.000157822               0.001068653               0.999999985               0.000113419               0.001064438               0.999999985               0.000063025               0.001057037               0.999999985               0.000007341               0.001047336               0.999999985              -0.000052043               0.001036407               0.999999985              -0.000113363               0.001025392               0.999999985               0.000398633               0.001207949               0.999999985               0.000286423               0.001146694               0.999999985               0.000244420               0.001116942               0.999999985               0.000229568               0.001109187               0.999999985               0.000224843               0.001115058               0.999999985               0.000222380               0.001128553               0.999999985               0.000217818               0.001145558               0.999999985               0.000209034               0.001163329               0.999999985               0.000194824               0.001179857               0.999999985               0.000174360               0.001193989               0.999999985               0.000147477               0.001205022               0.999999985               0.000114363               0.001212847               0.999999985               0.000074784               0.001217444               0.999999985               0.000028673               0.001218909               0.999999985              -0.000023934               0.001217717               0.999999985              -0.000082504               0.001214911               0.999999985              -0.000145436               0.001211617               0.999999985               0.000323073               0.001271196               0.999999985               0.000225381               0.001238076               0.999999985               0.000185509               0.001218943               0.999999985               0.000169897               0.001214840               0.999999985               0.000164217               0.001222236               0.999999985               0.000161574               0.001237163               0.999999985               0.000158102               0.001256617               0.999999985               0.000151584               0.001278119               0.999999985               0.000140797               0.001299926               0.999999985               0.000124767               0.001320542               0.999999985               0.000103021               0.001339054               0.999999985               0.000075259               0.001355044               0.999999985               0.000041326               0.001368398               0.999999985               0.000000757               0.001379062               0.999999985              -0.000047221               0.001387129               0.999999985              -0.000103163               0.001393087               0.999999985              -0.000166712               0.001397748               0.999999985               0.000244692               0.001321803               0.999999985               0.000166871               0.001314248               0.999999985               0.000132582               0.001307044               0.999999985               0.000117886               0.001308533               0.999999985               0.000111817               0.001318902               0.999999985               0.000109006               0.001336225               0.999999985               0.000106205               0.001358445               0.999999985               0.000101360               0.001383667               0.999999985               0.000093492               0.001410342               0.999999985               0.000081745               0.001437048               0.999999985               0.000065395               0.001462690               0.999999985               0.000043847               0.001486671               0.999999985               0.000016800               0.001508649               0.999999985              -0.000016545               0.001528477               0.999999985              -0.000057321               0.001546102               0.999999985              -0.000106823               0.001561376               0.999999985              -0.000166277               0.001574639               0.999999985               0.000164292               0.001358642               0.999999985               0.000110282               0.001371539               0.999999985               0.000084990               0.001375294               0.999999985               0.000073412               0.001382747               0.999999985               0.000068155               0.001396543               0.999999985               0.000065634               0.001416487               0.999999985               0.000063572               0.001441342               0.999999985               0.000060246               0.001469744               0.999999985               0.000055068               0.001500312               0.999999985               0.000047471               0.001531907               0.999999985               0.000036680               0.001563670               0.999999985               0.000022031               0.001594811               0.999999985               0.000003068               0.001624828               0.999999985              -0.000020925               0.001653360               0.999999985              -0.000051046               0.001680017               0.999999985              -0.000088906               0.001704283               0.999999985              -0.000136601               0.001725917               0.999999985               0.000082513               0.001381022               0.999999985               0.000054864               0.001407166               0.999999985               0.000041410               0.001418654               0.999999985               0.000034983               0.001430595               0.999999985               0.000031908               0.001447142               0.999999985               0.000030413               0.001469011               0.999999985               0.000029282               0.001495706               0.999999985               0.000027662               0.001526203               0.999999985               0.000025117               0.001559304               0.999999985               0.000021219               0.001594138               0.999999985               0.000015930               0.001630001               0.999999985               0.000008655               0.001666267               0.999999985              -0.000001131               0.001702290               0.999999985              -0.000013741               0.001737487               0.999999985              -0.000029891               0.001771067               0.999999985              -0.000050676               0.001802266               0.999999985              -0.000077725               0.001830447               0.999999985               0.000000000               0.001388528               0.999999985               0.000000000               0.001419242               0.999999985              -0.000000000               0.001433556               0.999999985               0.000000000               0.001447179               0.999999985               0.000000000               0.001464682               0.999999985               0.000000000               0.001487281               0.999999985              -0.000000000               0.001514737               0.999999985               0.000000000               0.001546072               0.999999985              -0.000000000               0.001580108               0.999999985              -0.000000000               0.001615983               0.999999985              -0.000000000               0.001653165               0.999999985               0.000000000               0.001691291               0.999999985               0.000000000               0.001729591               0.999999985              -0.000000000               0.001767165               0.999999985               0.000000000               0.001803379               0.999999985               0.000000000               0.001837451               0.999999985              -0.000000000               0.001868260               0.999999985 </DataArray>
<DataArray type="Float64"                                    Name="stress"                                                      NumberOfComponents="10" format="ascii">
              0.002232825               0.023903525              -0.000000000              -0.002150626               0.008684637               0.006534011               0.000000000               0.000000000               0.000000000               0.000000000               0.002134341               0.018370211               0.000000000              -0.001495895               0.006621974               0.005126079               0.000000000               0.000000000               0.000000000               0.000000000               0.002727365               0.013886512               0.000000000              -0.000713050               0.004866474               0.004153424               0.000000000               0.000000000               0.000000000               0.000000000               0.002491770               0.011371762              -0.000000000              -0.000487055               0.003952901               0.003465846               0.000000000               0.000000000               0.000000000               0.000000000               0.002032148               0.009793652               0.000000000              -0.000462150               0.003418568               0.002956418               0.000000000               0.000000000               0.000000000               0.000000000               0.001556194               0.008687163               0.000000000              -0.000502321               0.003063132               0.002560811               0.000000000               0.000000000               0.000000000               0.000000000               0.001131494               0.007825834              -0.000000000              -0.000553918               0.002793224               0.002239307               0.000000000               0.000000000               0.000000000               0.000000000               0.000782813               0.007096145               0.000000000              -0.000593462               0.002563179               0.001969717               0.000000000               0.000000000               0.000000000               0.000000000               0.000515914               0.006433708              -0.000000000              -0.000610744               0.002348129               0.001737385               0.000000000               0.000000000               0.000000000               0.000000000               0.000315244               0.005806312               0.000000000              -0.000607571               0.002137942               0.001530371               0.000000000               0.000000000               0.000000000               0.000000000               0.000163864               0.005188443               0.000000000              -0.000587105               0.001925165               0.001338061               0.000000000               0.000000000               0.000000000               0.000000000               0.000046475               0.004565139              -0.000000000              -0.000553213               0.001706102               0.001152889               0.000000000               0.000000000               0.000000000               0.000000000              -0.000041053               0.003928399               0.000000000              -0.000506444               0.001478268               0.000971824               0.000000000               0.000000000               0.000000000               0.000000000              -0.000089793               0.003259286               0.000000000              -0.000441082               0.001233445               0.000792363               0.000000000               0.000000000               0.000000000               0.000000000              -0.000100309               0.002527923              -0.000000000              -0.000353605               0.000960501               0.000606896               0.000000000               0.000000000               0.000000000               0.000000000              -0.000065918               0.001705106              -0.000000000              -0.000237857               0.000647649               0.000409792               0.000000000               0.000000000               0.000000000               0.000000000              -0.000103383               0.001073714              -0.000000000              -0.000172983               0.000415562               0.000242579               0.000000000               0.000000000               0.000000000               0.000000000               0.002297408               0.023394089              -0.001576754              -0.002062728               0.008485528               0.006422799               0.000000000               0.000000000               0.000000000               0.000000000               0.002068868               0.018048498              -0.000705756              -0.001480233               0.006509517               0.005029284               0.000000000               0.000000000               0.000000000               0.000000000               0.002523295               0.013763111               0.000154494              -0.000774151               0.004845708               0.004071557               0.000000000               0.000000000               0.000000000               0.000000000               0.002237099               0.011350277               0.000508374              -0.000579871               0.003976678               0.003396807               0.000000000               0.000000000               0.000000000               0.000000000               0.001770973               0.009819267               0.000643685              -0.000563292               0.003460820               0.002897528               0.000000000               0.000000000               0.000000000               0.000000000               0.001307697               0.008732949               0.000680520              -0.000601231               0.003111364               0.002510133               0.000000000               0.000000000               0.000000000               0.000000000               0.000908739               0.007883969               0.000673314              -0.000644718               0.002842869               0.002198151               0.000000000               0.000000000               0.000000000               0.000000000               0.000591038               0.007160448               0.000646945              -0.000673415               0.002611264               0.001937849               0.000000000               0.000000000               0.000000000               0.000000000               0.000349343               0.006505355               0.000613334              -0.000682164               0.002395818               0.001713654               0.000000000               0.000000000               0.000000000               0.000000000               0.000171106               0.005880932               0.000578159              -0.000670950               0.002183941               0.001512991               0.000000000               0.000000000               0.000000000               0.000000000               0.000042686               0.005271519               0.000542512              -0.000642931               0.001971466               0.001328535               0.000000000               0.000000000               0.000000000               0.000000000              -0.000053640               0.004662419               0.000507166              -0.000602916               0.001755096               0.001152180               0.000000000               0.000000000               0.000000000               0.000000000              -0.000116479               0.004046630               0.000464976              -0.000549507               0.001532032               0.000982525               0.000000000               0.000000000               0.000000000               0.000000000              -0.000140947               0.003409194               0.000401671              -0.000479003               0.001296054               0.000817051               0.000000000               0.000000000               0.000000000               0.000000000              -0.000127941               0.002728620               0.000309987              -0.000389054               0.001039215               0.000650161               0.000000000               0.000000000               0.000000000               0.000000000              -0.000075691               0.001989631               0.000178644              -0.000277087               0.000755566               0.000478479               0.000000000               0.000000000               0.000000000               0.000000000              -0.000098083               0.001439665               0.000110770              -0.000216739               0.000552130               0.000335391               0.000000000               0.000000000               0.000000000               0.000000000               0.002441616               0.021932380              -0.002914207              -0.001825938               0.007919366               0.006093428               0.000000000               0.000000000               0.000000000               0.000000000               0.001855071               0.017135774              -0.001300904              -0.001446317               0.006193973               0.004747656               0.000000000               0.000000000               0.000000000               0.000000000               0.001930331               0.013412818               0.000274928              -0.000952726               0.004788470               0.003835744               0.000000000               0.000000000               0.000000000               0.000000000               0.001520439               0.011275711               0.000897948              -0.000839297               0.004038298               0.003199001               0.000000000               0.000000000               0.000000000               0.000000000               0.001051045               0.009874414               0.001125279              -0.000840158               0.003571491               0.002731333               0.000000000               0.000000000               0.000000000               0.000000000               0.000640385               0.008849465               0.001181162              -0.000866037               0.003238471               0.002372434               0.000000000               0.000000000               0.000000000               0.000000000               0.000316608               0.008028999               0.001160033              -0.000884895               0.002971271               0.002086376               0.000000000               0.000000000               0.000000000               0.000000000               0.000076353               0.007321725               0.001104914              -0.000886581               0.002736078               0.001849496               0.000000000               0.000000000               0.000000000               0.000000000              -0.000093321               0.006675792               0.001036076              -0.000869468               0.002515064               0.001645597               0.000000000               0.000000000               0.000000000               0.000000000              -0.000203020               0.006065668               0.000966468              -0.000834339               0.002299982               0.001465643               0.000000000               0.000000000               0.000000000               0.000000000              -0.000272088               0.005479967               0.000898538              -0.000787027               0.002088980               0.001301952               0.000000000               0.000000000               0.000000000               0.000000000              -0.000311867               0.004910123               0.000828247              -0.000730714               0.001880263               0.001149549               0.000000000               0.000000000               0.000000000               0.000000000              -0.000311585               0.004352142               0.000745000              -0.000660861               0.001670986               0.001010126               0.000000000               0.000000000               0.000000000               0.000000000              -0.000275320               0.003797309               0.000627594              -0.000577907               0.001458393               0.000880485               0.000000000               0.000000000               0.000000000               0.000000000              -0.000208231               0.003243436               0.000470534              -0.000483515               0.001242306               0.000758791               0.000000000               0.000000000               0.000000000               0.000000000              -0.000111460               0.002699288               0.000262932              -0.000379208               0.001026156               0.000646948               0.000000000               0.000000000               0.000000000               0.000000000              -0.000095267               0.002328574               0.000156597              -0.000326796               0.000885116               0.000558319               0.000000000               0.000000000               0.000000000               0.000000000               0.002547750               0.019710025              -0.003835229              -0.001508345               0.007072724               0.005564378               0.000000000               0.000000000               0.000000000               0.000000000               0.001465569               0.015770117              -0.001712552              -0.001421674               0.005730544               0.004308870               0.000000000               0.000000000               0.000000000               0.000000000               0.001016207               0.012888226               0.000331094              -0.001229948               0.004706015               0.003476067               0.000000000               0.000000000               0.000000000               0.000000000               0.000471768               0.011143271               0.001091848              -0.001215993               0.004119717               0.002903724               0.000000000               0.000000000               0.000000000               0.000000000               0.000035702               0.009924559               0.001348911              -0.001227179               0.003717213               0.002490034               0.000000000               0.000000000               0.000000000               0.000000000              -0.000274783               0.008981706               0.001396606              -0.001225754               0.003402456               0.002176702               0.000000000               0.000000000               0.000000000               0.000000000              -0.000477523               0.008193694               0.001355478              -0.001203280               0.003132297               0.001929017               0.000000000               0.000000000               0.000000000               0.000000000              -0.000595720               0.007501652               0.001273788              -0.001161099               0.002887559               0.001726460               0.000000000               0.000000000               0.000000000               0.000000000              -0.000649412               0.006866034               0.001178418              -0.001101781               0.002655915               0.001554134               0.000000000               0.000000000               0.000000000               0.000000000              -0.000658115               0.006276897               0.001085161              -0.001031403               0.002436079               0.001404676               0.000000000               0.000000000               0.000000000               0.000000000              -0.000642363               0.005726131               0.000996081              -0.000956650               0.002227575               0.001270924               0.000000000               0.000000000               0.000000000               0.000000000              -0.000600430               0.005212509               0.000904473              -0.000876723               0.002029727               0.001153003               0.000000000               0.000000000               0.000000000               0.000000000              -0.000521849               0.004730186               0.000795036              -0.000786965               0.001839034               0.001052069               0.000000000               0.000000000               0.000000000               0.000000000              -0.000408007               0.004279268               0.000651635              -0.000687910               0.001655711               0.000967802               0.000000000               0.000000000               0.000000000               0.000000000              -0.000272157               0.003873354               0.000474309              -0.000586227               0.001486514               0.000900287               0.000000000               0.000000000               0.000000000               0.000000000              -0.000133596               0.003527827               0.000257995              -0.000491076               0.001339622               0.000848547               0.000000000               0.000000000               0.000000000               0.000000000              -0.000086345               0.003324385               0.000148142              -0.000447927               0.001257426               0.000809500               0.000000000               0.000000000               0.000000000               0.000000000               0.002478524               0.017004880              -0.004256021              -0.001196164               0.006066957               0.004870793               0.000000000               0.000000000               0.000000000               0.000000000               0.000889216               0.014134513              -0.001921035              -0.001433356               0.005189242               0.003755886               0.000000000               0.000000000               0.000000000               0.000000000              -0.000097603               0.012249893               0.000290145              -0.001567834               0.004605868               0.003038034               0.000000000               0.000000000               0.000000000               0.000000000              -0.000723127               0.010937895               0.001052627              -0.001638406               0.004192064               0.002553658               0.000000000               0.000000000               0.000000000               0.000000000              -0.001069346               0.009910620               0.001285117              -0.001639828               0.003850116               0.002210288               0.000000000               0.000000000               0.000000000               0.000000000              -0.001231410               0.009050116               0.001310611              -0.001593040               0.003547688               0.001954649               0.000000000               0.000000000               0.000000000               0.000000000              -0.001273757               0.008295794               0.001253240              -0.001514630               0.003270113               0.001755484               0.000000000               0.000000000               0.000000000               0.000000000              -0.001237838               0.007615760               0.001161467              -0.001416156               0.003010613               0.001594457               0.000000000               0.000000000               0.000000000               0.000000000              -0.001158001               0.006997786               0.001057819              -0.001308970               0.002768895               0.001459925               0.000000000               0.000000000               0.000000000               0.000000000              -0.001051233               0.006436780               0.000960377              -0.001198807               0.002545174               0.001346367               0.000000000               0.000000000               0.000000000               0.000000000              -0.000928511               0.005930276               0.000873803              -0.001089474               0.002339897               0.001250423               0.000000000               0.000000000               0.000000000               0.000000000              -0.000793989               0.005475122               0.000781914              -0.000982134               0.002152400               0.001170266               0.000000000               0.000000000               0.000000000               0.000000000              -0.000636924               0.005064106               0.000667709              -0.000871858               0.001978638               0.001106780               0.000000000               0.000000000               0.000000000               0.000000000              -0.000463048               0.004705196               0.000528935              -0.000761791               0.001822313               0.001060522               0.000000000               0.000000000               0.000000000               0.000000000              -0.000289795               0.004419865               0.000370044              -0.000661155               0.001693658               0.001032504               0.000000000               0.000000000               0.000000000               0.000000000              -0.000136684               0.004220329               0.000192161              -0.000578796               0.001599694               0.001020898               0.000000000               0.000000000               0.000000000               0.000000000              -0.000075804               0.004128869               0.000103557              -0.000544534               0.001557787               0.001013253               0.000000000               0.000000000               0.000000000               0.000000000               0.002111065               0.014105486              -0.004188696              -0.000971537               0.005025626               0.004054089               0.000000000               0.000000000               0.000000000               0.000000000               0.000127902               0.012408060              -0.001956798              -0.001503042               0.004636992               0.003133951               0.000000000               0.000000000               0.000000000               0.000000000              -0.001283211               0.011548458               0.000124267              -0.001924757               0.004491033               0.002566277               0.000000000               0.000000000               0.000000000               0.000000000              -0.001879338               0.010638932               0.000786898              -0.002034613               0.004224479               0.002189866               0.000000000               0.000000000               0.000000000               0.000000000              -0.002065558               0.009782260               0.000970070              -0.001997362               0.003926508               0.001929146               0.000000000               0.000000000               0.000000000               0.000000000              -0.002041147               0.008995227               0.000979532              -0.001889829               0.003628322               0.001738493               0.000000000               0.000000000               0.000000000               0.000000000              -0.001902491               0.008274501               0.000923426              -0.001747742               0.003340720               0.001592978               0.000000000               0.000000000               0.000000000               0.000000000              -0.001705108               0.007616830               0.000844998              -0.001591516               0.003069423               0.001477907               0.000000000               0.000000000               0.000000000               0.000000000              -0.001488791               0.007025562               0.000761658              -0.001436488               0.002820660               0.001384172               0.000000000               0.000000000               0.000000000               0.000000000              -0.001267750               0.006502823               0.000685419              -0.001288256               0.002597005               0.001308749               0.000000000               0.000000000               0.000000000               0.000000000              -0.001047210               0.006040236               0.000620568              -0.001147730               0.002395969               0.001248238               0.000000000               0.000000000               0.000000000               0.000000000              -0.000836149               0.005631215               0.000547190              -0.001017455               0.002216205               0.001198749               0.000000000               0.000000000               0.000000000               0.000000000              -0.000624870               0.005276514               0.000448156              -0.000893888               0.002056783               0.001162895               0.000000000               0.000000000               0.000000000               0.000000000              -0.000421088               0.004989739               0.000338305              -0.000781623               0.001923771               0.001142147               0.000000000               0.000000000               0.000000000               0.000000000              -0.000243907               0.004786220               0.000224142              -0.000689741               0.001825304               0.001135563               0.000000000               0.000000000               0.000000000               0.000000000              -0.000107247               0.004669209               0.000107114              -0.000623867               0.001764343               0.001140476               0.000000000               0.000000000               0.000000000               0.000000000              -0.000053263               0.004630806               0.000051432              -0.000598823               0.001743194               0.001144371               0.000000000               0.000000000               0.000000000               0.000000000               0.001369961               0.011254508              -0.003721119              -0.000893079               0.004049157               0.003156078               0.000000000               0.000000000               0.000000000               0.000000000              -0.000782333               0.010735222              -0.001879225              -0.001635275               0.004123463               0.002488188               0.000000000               0.000000000               0.000000000               0.000000000              -0.002414872               0.010819078              -0.000171303              -0.002257956               0.004358975               0.002101019               0.000000000               0.000000000               0.000000000               0.000000000              -0.002853913               0.010242819               0.000343407              -0.002350564               0.004197760               0.001847196               0.000000000               0.000000000               0.000000000               0.000000000              -0.002820769               0.009524285               0.000486708              -0.002248319               0.003924169               0.001675851               0.000000000               0.000000000               0.000000000               0.000000000              -0.002590459               0.008803982               0.000502931              -0.002071915               0.003625269               0.001553355               0.000000000               0.000000000               0.000000000               0.000000000              -0.002271349               0.008123778               0.000474215              -0.001867223               0.003330307               0.001463083               0.000000000               0.000000000               0.000000000               0.000000000              -0.001925361               0.007498775               0.000433536              -0.001659353               0.003052684               0.001393331               0.000000000               0.000000000               0.000000000               0.000000000              -0.001588369               0.006944017               0.000393649              -0.001463637               0.002802528               0.001338891               0.000000000               0.000000000               0.000000000               0.000000000              -0.001277007               0.006458951               0.000355920              -0.001286244               0.002581710               0.001295467               0.000000000               0.000000000               0.000000000               0.000000000              -0.000990338               0.006030600               0.000323243              -0.001125199               0.002385246               0.001260047               0.000000000               0.000000000               0.000000000               0.000000000              -0.000730569               0.005654739               0.000281639              -0.000980803               0.002211829               0.001231025               0.000000000               0.000000000               0.000000000               0.000000000              -0.000498497               0.005342661               0.000216406              -0.000854767               0.002065791               0.001211025               0.000000000               0.000000000               0.000000000               0.000000000              -0.000303346               0.005106683               0.000148740              -0.000752088               0.001952907               0.001200819               0.000000000               0.000000000               0.000000000               0.000000000              -0.000157275               0.004949536               0.000087782              -0.000677668               0.001875718               0.001198050               0.000000000               0.000000000               0.000000000               0.000000000              -0.000062189               0.004864411               0.000034033              -0.000631371               0.001831911               0.001200540               0.000000000               0.000000000               0.000000000               0.000000000              -0.000031974               0.004835213               0.000012852              -0.000616390               0.001817185               0.001200795               0.000000000               0.000000000               0.000000000               0.000000000               0.000284625               0.008625989              -0.002968838              -0.000971514               0.003199138               0.002227624               0.000000000               0.000000000               0.000000000               0.000000000              -0.001786042               0.009214853              -0.001748113              -0.001821619               0.003678793               0.001857174               0.000000000               0.000000000               0.000000000               0.000000000              -0.003378593               0.010063609              -0.000586287              -0.002524917               0.004196142               0.001671224               0.000000000               0.000000000               0.000000000               0.000000000              -0.003550606               0.009740380              -0.000208769              -0.002549018               0.004096434               0.001547415               0.000000000               0.000000000               0.000000000               0.000000000              -0.003269229               0.009139094              -0.000067475              -0.002368342               0.003835781               0.001467440               0.000000000               0.000000000               0.000000000               0.000000000              -0.002840116               0.008488751              -0.000011632              -0.002126132               0.003538266               0.001412134               0.000000000               0.000000000               0.000000000               0.000000000              -0.002367157               0.007861123               0.000009799              -0.001870319               0.003243788               0.001373468               0.000000000               0.000000000               0.000000000               0.000000000              -0.001905113               0.007283618               0.000023164              -0.001624866               0.002969470               0.001344605               0.000000000               0.000000000               0.000000000               0.000000000              -0.001485157               0.006770285               0.000038408              -0.001403216               0.002724478               0.001321262               0.000000000               0.000000000               0.000000000               0.000000000              -0.001117943               0.006313492               0.000048011              -0.001208412               0.002507280               0.001298868               0.000000000               0.000000000               0.000000000               0.000000000              -0.000801635               0.005911002               0.000052454              -0.001039486               0.002316810               0.001277324               0.000000000               0.000000000               0.000000000               0.000000000              -0.000533447               0.005563557               0.000049157              -0.000895485               0.002152995               0.001257510               0.000000000               0.000000000               0.000000000               0.000000000              -0.000316499               0.005286860               0.000030262              -0.000779542               0.002022116               0.001242574               0.000000000               0.000000000               0.000000000               0.000000000              -0.000159188               0.005094232               0.000013002              -0.000696473               0.001930218               0.001233745               0.000000000               0.000000000               0.000000000               0.000000000              -0.000062358               0.004977053               0.000005970              -0.000645514               0.001874173               0.001228658               0.000000000               0.000000000               0.000000000               0.000000000              -0.000016573               0.004920600               0.000000639              -0.000621288               0.001847280               0.001225991               0.000000000               0.000000000               0.000000000               0.000000000              -0.000011555               0.004901947               0.000000620              -0.000617075               0.001839657               0.001222583               0.000000000               0.000000000               0.000000000               0.000000000              -0.000996201               0.006406133              -0.002059151              -0.001174340               0.002526802               0.001352462               0.000000000               0.000000000               0.000000000               0.000000000              -0.002761965               0.007852482              -0.001610001              -0.002017293               0.003289898               0.001272606               0.000000000               0.000000000               0.000000000               0.000000000              -0.004129106               0.009295150              -0.001088115              -0.002710302               0.004001786               0.001291484               0.000000000               0.000000000               0.000000000               0.000000000              -0.004021760               0.009234678              -0.000796527              -0.002662488               0.003965691               0.001303203               0.000000000               0.000000000               0.000000000               0.000000000              -0.003532752               0.008781122              -0.000622744              -0.002422416               0.003734483               0.001312067               0.000000000               0.000000000               0.000000000               0.000000000              -0.002944962               0.008226331              -0.000505976              -0.002132647               0.003452965               0.001320318               0.000000000               0.000000000               0.000000000               0.000000000              -0.002353895               0.007667441              -0.000420128              -0.001841136               0.003169500               0.001328364               0.000000000               0.000000000               0.000000000               0.000000000              -0.001808115               0.007145404              -0.000348452              -0.001571215               0.002905516               0.001334301               0.000000000               0.000000000               0.000000000               0.000000000              -0.001334368               0.006666439              -0.000283248              -0.001333689               0.002666687               0.001332998               0.000000000               0.000000000               0.000000000               0.000000000              -0.000936614               0.006227694              -0.000227844              -0.001129689               0.002452440               0.001322751               0.000000000               0.000000000               0.000000000               0.000000000              -0.000603826               0.005840067              -0.000182150              -0.000956441               0.002265483               0.001309042               0.000000000               0.000000000               0.000000000               0.000000000              -0.000341990               0.005505684              -0.000141571              -0.000816455               0.002107361               0.001290906               0.000000000               0.000000000               0.000000000               0.000000000              -0.000152711               0.005247926              -0.000104971              -0.000713256               0.001987043               0.001273787               0.000000000               0.000000000               0.000000000               0.000000000              -0.000032069               0.005083311              -0.000065562              -0.000647438               0.001910233               0.001262795               0.000000000               0.000000000               0.000000000               0.000000000               0.000023770               0.004996320              -0.000025502              -0.000615625               0.001870632               0.001255007               0.000000000               0.000000000               0.000000000               0.000000000               0.000030919               0.004962964               0.000000686              -0.000608774               0.001857229               0.001248455               0.000000000               0.000000000               0.000000000               0.000000000               0.000022878               0.004958023               0.000008851              -0.000611172               0.001856382               0.001245210               0.000000000               0.000000000               0.000000000               0.000000000              -0.002471060               0.004344942              -0.001110173              -0.001469762               0.001938220               0.000468458               0.000000000               0.000000000               0.000000000               0.000000000              -0.003576169               0.006258352              -0.001460278              -0.002123352               0.002793880               0.000670528               0.000000000               0.000000000               0.000000000               0.000000000              -0.004572681               0.008130843              -0.001613382              -0.002731104               0.003620622               0.000889518               0.000000000               0.000000000               0.000000000               0.000000000              -0.004318334               0.008475735              -0.001413353              -0.002678836               0.003718162               0.001039326               0.000000000               0.000000000               0.000000000               0.000000000              -0.003748312               0.008308465              -0.001204024              -0.002444169               0.003584183               0.001140014               0.000000000               0.000000000               0.000000000               0.000000000              -0.003109517               0.007962622              -0.001025725              -0.002161392               0.003374645               0.001213253               0.000000000               0.000000000               0.000000000               0.000000000              -0.002482178               0.007553604              -0.000874307              -0.001875013               0.003142847               0.001267834               0.000000000               0.000000000               0.000000000               0.000000000              -0.001904176               0.007132367              -0.000745266              -0.001605608               0.002912634               0.001307026               0.000000000               0.000000000               0.000000000               0.000000000              -0.001397493               0.006719265              -0.000633207              -0.001363965               0.002694388               0.001330423               0.000000000               0.000000000               0.000000000               0.000000000              -0.000968015               0.006326852              -0.000535225              -0.001153859               0.002493549               0.001339690               0.000000000               0.000000000               0.000000000               0.000000000              -0.000614181               0.005959434              -0.000444398              -0.000975245               0.002311540               0.001336295               0.000000000               0.000000000               0.000000000               0.000000000              -0.000333121               0.005630524              -0.000352693              -0.000828734               0.002153067               0.001324333               0.000000000               0.000000000               0.000000000               0.000000000              -0.000126733               0.005358965              -0.000258705              -0.000717394               0.002025435               0.001308041               0.000000000               0.000000000               0.000000000               0.000000000               0.000003508               0.005162124              -0.000163324              -0.000643948               0.001935340               0.001291392               0.000000000               0.000000000               0.000000000               0.000000000               0.000065034               0.005042593              -0.000078870              -0.000605935               0.001882826               0.001276891               0.000000000               0.000000000               0.000000000               0.000000000               0.000079156               0.004996360              -0.000023064              -0.000594860               0.001863723               0.001268863               0.000000000               0.000000000               0.000000000               0.000000000               0.000072509               0.004989482              -0.000002088              -0.000596493               0.001861975               0.001265482               0.000000000               0.000000000               0.000000000               0.000000000              -0.004333181               0.002484392              -0.000192695              -0.001935488               0.001473284              -0.000462205               0.000000000               0.000000000               0.000000000               0.000000000              -0.004491358               0.004647846              -0.001245852              -0.002265235               0.002304344               0.000039109               0.000000000               0.000000000               0.000000000               0.000000000              -0.004928210               0.006746837              -0.002033622              -0.002691427               0.003146065               0.000454638               0.000000000               0.000000000               0.000000000               0.000000000              -0.004543248               0.007478341              -0.001996395              -0.002638505               0.003372257               0.000733752               0.000000000               0.000000000               0.000000000               0.000000000              -0.003932938               0.007641062              -0.001790721              -0.002429979               0.003356988               0.000927009               0.000000000               0.000000000               0.000000000               0.000000000              -0.003276806               0.007546351              -0.001570627              -0.002172091               0.003239455               0.001067364               0.000000000               0.000000000               0.000000000               0.000000000              -0.002638938               0.007328108              -0.001367571              -0.001905611               0.003077882               0.001172271               0.000000000               0.000000000               0.000000000               0.000000000              -0.002039067               0.007048328              -0.001190944              -0.001645687               0.002897981               0.001252294               0.000000000               0.000000000               0.000000000               0.000000000              -0.001498186               0.006733117              -0.001038229              -0.001403456               0.002712168               0.001308712               0.000000000               0.000000000               0.000000000               0.000000000              -0.001031480               0.006406547              -0.000900360              -0.001187620               0.002531368               0.001343747               0.000000000               0.000000000               0.000000000               0.000000000              -0.000641602               0.006085405              -0.000768189              -0.001001274               0.002362206               0.001360932               0.000000000               0.000000000               0.000000000               0.000000000              -0.000319246               0.005781549              -0.000636503              -0.000842409               0.002207967               0.001365558               0.000000000               0.000000000               0.000000000               0.000000000              -0.000066028               0.005504927              -0.000496866              -0.000712875               0.002072582               0.001359708               0.000000000               0.000000000               0.000000000               0.000000000               0.000113765               0.005276752              -0.000347719              -0.000616931               0.001964543               0.001347613               0.000000000               0.000000000               0.000000000               0.000000000               0.000213158               0.005111910              -0.000203930              -0.000559053               0.001890304               0.001331251               0.000000000               0.000000000               0.000000000               0.000000000               0.000235164               0.005026528              -0.000087092              -0.000540128               0.001855535               0.001315407               0.000000000               0.000000000               0.000000000               0.000000000               0.000212361               0.004994560              -0.000031746              -0.000544683               0.001846398               0.001301715               0.000000000               0.000000000               0.000000000               0.000000000              -0.006457771               0.000980705               0.000605972              -0.002544249               0.001174977              -0.001369273               0.000000000               0.000000000               0.000000000               0.000000000              -0.005548110               0.003131803              -0.000954604              -0.002472012               0.001867925              -0.000604087               0.000000000               0.000000000               0.000000000               0.000000000              -0.005217286               0.005166438              -0.002238935              -0.002602281               0.002589555              -0.000012727               0.000000000               0.000000000               0.000000000               0.000000000              -0.004613869               0.006165061              -0.002401722              -0.002500828               0.002888608               0.000387780               0.000000000               0.000000000               0.000000000               0.000000000              -0.003949361               0.006627905              -0.002254216              -0.002309493               0.002979110               0.000669617               0.000000000               0.000000000               0.000000000               0.000000000              -0.003286451               0.006797385              -0.002031221              -0.002082088               0.002959801               0.000877713               0.000000000               0.000000000               0.000000000               0.000000000              -0.002648069               0.006802069              -0.001806810              -0.001843280               0.002881760               0.001038480               0.000000000               0.000000000               0.000000000               0.000000000              -0.002047913               0.006698224              -0.001604967              -0.001605242               0.002767799               0.001162557               0.000000000               0.000000000               0.000000000               0.000000000              -0.001493425               0.006523241              -0.001424295              -0.001375437               0.002632871               0.001257434               0.000000000               0.000000000               0.000000000               0.000000000              -0.000999083               0.006302567              -0.001257012              -0.001162475               0.002488326               0.001325851               0.000000000               0.000000000               0.000000000               0.000000000              -0.000568971               0.006062131              -0.001100218              -0.000971129               0.002344399               0.001373271               0.000000000               0.000000000               0.000000000               0.000000000              -0.000200457               0.005819974              -0.000942977              -0.000802667               0.002207527               0.001404861               0.000000000               0.000000000               0.000000000               0.000000000               0.000106581               0.005581155              -0.000774551              -0.000657675               0.002079591               0.001421916               0.000000000               0.000000000               0.000000000               0.000000000               0.000347174               0.005358414              -0.000588540              -0.000539610               0.001965990               0.001426380               0.000000000               0.000000000               0.000000000               0.000000000               0.000507286               0.005180138              -0.000385518              -0.000457284               0.001879123               0.001421839               0.000000000               0.000000000               0.000000000               0.000000000               0.000565044               0.005066130              -0.000184574              -0.000421374               0.001829151               0.001407777               0.000000000               0.000000000               0.000000000               0.000000000               0.000544061               0.005012529              -0.000082010              -0.000422542               0.001811674               0.001389132               0.000000000               0.000000000               0.000000000               0.000000000              -0.008701099              -0.000090938               0.001159434              -0.003251542               0.001053527              -0.002198015               0.000000000               0.000000000               0.000000000               0.000000000              -0.006683368               0.001791553              -0.000637863              -0.002730204               0.001507242              -0.001222962               0.000000000               0.000000000               0.000000000               0.000000000              -0.005459246               0.003523401              -0.002199121              -0.002487638               0.002003665              -0.000483973               0.000000000               0.000000000               0.000000000               0.000000000              -0.004555138               0.004645476              -0.002535002              -0.002288857               0.002311427               0.000022571               0.000000000               0.000000000               0.000000000               0.000000000              -0.003801274               0.005342806              -0.002472969              -0.002093324               0.002478691               0.000385367               0.000000000               0.000000000               0.000000000               0.000000000              -0.003125744               0.005759289              -0.002287532              -0.001892061               0.002550430               0.000658369               0.000000000               0.000000000               0.000000000               0.000000000              -0.002496120               0.005990191              -0.002074636              -0.001684815               0.002558315               0.000873499               0.000000000               0.000000000               0.000000000               0.000000000              -0.001910841               0.006085199              -0.001871371              -0.001477212               0.002520783               0.001043571               0.000000000               0.000000000               0.000000000               0.000000000              -0.001362777               0.006078142              -0.001685709              -0.001270807               0.002449629               0.001178822               0.000000000               0.000000000               0.000000000               0.000000000              -0.000851026               0.005991294              -0.001513445              -0.001068044               0.002353092               0.001285048               0.000000000               0.000000000               0.000000000               0.000000000              -0.000380621               0.005859186              -0.001349827              -0.000875130               0.002244752               0.001369622               0.000000000               0.000000000               0.000000000               0.000000000               0.000043004               0.005707209              -0.001186450              -0.000697273               0.002134808               0.001437535               0.000000000               0.000000000               0.000000000               0.000000000               0.000422499               0.005546206              -0.001012171              -0.000534838               0.002026996               0.001492158               0.000000000               0.000000000               0.000000000               0.000000000               0.000749119               0.005381583              -0.000809350              -0.000391778               0.001924435               0.001532658               0.000000000               0.000000000               0.000000000               0.000000000               0.001006583               0.005228319              -0.000566574              -0.000276071               0.001834779               0.001558708               0.000000000               0.000000000               0.000000000               0.000000000               0.001167764               0.005102569              -0.000290369              -0.000199909               0.001767476               0.001567567               0.000000000               0.000000000               0.000000000               0.000000000               0.001214508               0.005044095              -0.000145596              -0.000175071               0.001739705               0.001564634               0.000000000               0.000000000               0.000000000               0.000000000              -0.010843525              -0.000764283               0.001366330              -0.003970784               0.001068826              -0.002901958               0.000000000               0.000000000               0.000000000               0.000000000              -0.007800847               0.000697644              -0.000356799              -0.003012520               0.001236713              -0.001775807               0.000000000               0.000000000               0.000000000               0.000000000              -0.005670274               0.001984876              -0.001910927              -0.002374459               0.001453101              -0.000921358               0.000000000               0.000000000               0.000000000               0.000000000              -0.004413680               0.003102609              -0.002336423              -0.002042953               0.001715175              -0.000327778               0.000000000               0.000000000               0.000000000               0.000000000              -0.003534396               0.003949269              -0.002352461              -0.001819054               0.001922760               0.000103706               0.000000000               0.000000000               0.000000000               0.000000000              -0.002828380               0.004562611              -0.002224890              -0.001630966               0.002064509               0.000433544               0.000000000               0.000000000               0.000000000               0.000000000              -0.002207514               0.004991596              -0.002048043              -0.001451765               0.002147769               0.000696005               0.000000000               0.000000000               0.000000000               0.000000000              -0.001641099               0.005272279              -0.001868448              -0.001274445               0.002182223               0.000907778               0.000000000               0.000000000               0.000000000               0.000000000              -0.001106133               0.005430255              -0.001703047              -0.001093580               0.002174593               0.001081013               0.000000000               0.000000000               0.000000000               0.000000000              -0.000588336               0.005490366              -0.001549245              -0.000906920               0.002132410               0.001225490               0.000000000               0.000000000               0.000000000               0.000000000              -0.000087206               0.005487008              -0.001401489              -0.000718577               0.002068510               0.001349933               0.000000000               0.000000000               0.000000000               0.000000000               0.000394254               0.005447559              -0.001255967              -0.000533099               0.001993534               0.001460435               0.000000000               0.000000000               0.000000000               0.000000000               0.000853917               0.005387157              -0.001099480              -0.000353176               0.001913426               0.001560250               0.000000000               0.000000000               0.000000000               0.000000000               0.001289636               0.005312931              -0.000909105              -0.000180503               0.001831127               0.001650624               0.000000000               0.000000000               0.000000000               0.000000000               0.001691095               0.005218562              -0.000666814              -0.000018160               0.001745556               0.001727396               0.000000000               0.000000000               0.000000000               0.000000000               0.002037446               0.005111961              -0.000360097               0.000125046               0.001662288               0.001787334               0.000000000               0.000000000               0.000000000               0.000000000               0.002236930               0.005075834              -0.000198736               0.000204367               0.001623805               0.001828173               0.000000000               0.000000000               0.000000000               0.000000000              -0.012630631              -0.001116036               0.001195034              -0.004596979               0.001160306              -0.003436673               0.000000000               0.000000000               0.000000000               0.000000000              -0.008763937              -0.000095421              -0.000156436              -0.003274546               0.001059701              -0.002214845               0.000000000               0.000000000               0.000000000               0.000000000              -0.005849581               0.000728769              -0.001407535              -0.002284686               0.001004478              -0.001280209               0.000000000               0.000000000               0.000000000               0.000000000              -0.004251328               0.001755999              -0.001799201              -0.001813745               0.001189906              -0.000623839               0.000000000               0.000000000               0.000000000               0.000000000              -0.003230796               0.002669980              -0.001854922              -0.001545293               0.001405081              -0.000140213               0.000000000               0.000000000               0.000000000               0.000000000              -0.002481396               0.003414505              -0.001782260              -0.001357334               0.001590601               0.000233267               0.000000000               0.000000000               0.000000000               0.000000000              -0.001861414               0.003992360              -0.001657259              -0.001197073               0.001729797               0.000532724               0.000000000               0.000000000               0.000000000               0.000000000              -0.001306454               0.004419134              -0.001523014              -0.001042310               0.001820466               0.000778156               0.000000000               0.000000000               0.000000000               0.000000000              -0.000787552               0.004715866              -0.001399035              -0.000884814               0.001866877               0.000982063               0.000000000               0.000000000               0.000000000               0.000000000              -0.000279579               0.004917630              -0.001283280              -0.000719545               0.001879041               0.001159497               0.000000000               0.000000000               0.000000000               0.000000000               0.000237463               0.005051787              -0.001171970              -0.000542424               0.001864720               0.001322296               0.000000000               0.000000000               0.000000000               0.000000000               0.000764236               0.005135241              -0.001062757              -0.000355316               0.001830168               0.001474852               0.000000000               0.000000000               0.000000000               0.000000000               0.001298426               0.005182879              -0.000946821              -0.000160950               0.001781259               0.001620309               0.000000000               0.000000000               0.000000000               0.000000000               0.001846107               0.005197039              -0.000804407               0.000042659               0.001718109               0.001760768               0.000000000               0.000000000               0.000000000               0.000000000               0.002407605               0.005164788              -0.000610990               0.000257251               0.001635828               0.001893079               0.000000000               0.000000000               0.000000000               0.000000000               0.002982607               0.005092855              -0.000341880               0.000481866               0.001536979               0.002018845               0.000000000               0.000000000               0.000000000               0.000000000               0.003387159               0.005092493              -0.000200774               0.000633617               0.001486275               0.002119892               0.000000000               0.000000000               0.000000000               0.000000000              -0.013826592              -0.001254909               0.000694382              -0.005028105               0.001257724              -0.003770382               0.000000000               0.000000000               0.000000000               0.000000000              -0.009423265              -0.000566902              -0.000048030              -0.003462859               0.000965312              -0.002497547               0.000000000               0.000000000               0.000000000               0.000000000              -0.005972892              -0.000094920              -0.000746579              -0.002227968               0.000711011              -0.001516957               0.000000000               0.000000000               0.000000000               0.000000000              -0.004123117               0.000829707              -0.000980788              -0.001649880               0.000826523              -0.000823357               0.000000000               0.000000000               0.000000000               0.000000000              -0.002990209               0.001757435              -0.001025449              -0.001341005               0.001032806              -0.000308199               0.000000000               0.000000000               0.000000000               0.000000000              -0.002202101               0.002572951              -0.000994403              -0.001147404               0.001240109               0.000092705               0.000000000               0.000000000               0.000000000               0.000000000              -0.001581779               0.003243931              -0.000931782              -0.000998656               0.001414185               0.000415528               0.000000000               0.000000000               0.000000000               0.000000000              -0.001039069               0.003764440              -0.000861251              -0.000860204               0.001541535               0.000681331               0.000000000               0.000000000               0.000000000               0.000000000              -0.000533572               0.004157091              -0.000792241              -0.000719724               0.001625591               0.000905867               0.000000000               0.000000000               0.000000000               0.000000000              -0.000033910               0.004461928              -0.000729658              -0.000570456               0.001677446               0.001106990               0.000000000               0.000000000               0.000000000               0.000000000               0.000485282               0.004704564              -0.000671461              -0.000406089               0.001703535               0.001297446               0.000000000               0.000000000               0.000000000               0.000000000               0.001036638               0.004891962              -0.000611971              -0.000222756               0.001704890               0.001482134               0.000000000               0.000000000               0.000000000               0.000000000               0.001624718               0.005024311              -0.000549952              -0.000018770               0.001681010               0.001662240               0.000000000               0.000000000               0.000000000               0.000000000               0.002257220               0.005098486              -0.000474325               0.000209145               0.001629763               0.001838908               0.000000000               0.000000000               0.000000000               0.000000000               0.002948557               0.005110176              -0.000367691               0.000466932               0.001547731               0.002014663               0.000000000               0.000000000               0.000000000               0.000000000               0.003725376               0.005069588              -0.000210711               0.000763310               0.001435409               0.002198719               0.000000000               0.000000000               0.000000000               0.000000000               0.004320097               0.005102862              -0.000128970               0.000982169               0.001373547               0.002355716               0.000000000               0.000000000               0.000000000               0.000000000              -0.014248951              -0.001288043              -0.000000000              -0.005182348               0.001298093              -0.003884255               0.000000000               0.000000000               0.000000000               0.000000000              -0.009657844              -0.000721964               0.000000000              -0.003531444               0.000936487              -0.002594957               0.000000000               0.000000000               0.000000000               0.000000000              -0.006016190              -0.000381099              -0.000000000              -0.002208432               0.000609107              -0.001599326               0.000000000               0.000000000               0.000000000               0.000000000              -0.004073776               0.000496750               0.000000000              -0.001589758               0.000695498              -0.000894260               0.000000000               0.000000000               0.000000000               0.000000000              -0.002898162               0.001423686               0.000000000              -0.001264769               0.000896146              -0.000368624               0.000000000               0.000000000               0.000000000               0.000000000              -0.002093839               0.002266055              -0.000000000              -0.001068444               0.001111492               0.000043048               0.000000000               0.000000000               0.000000000               0.000000000              -0.001472877               0.002971094              -0.000000000              -0.000923713               0.001298259               0.000374546               0.000000000               0.000000000               0.000000000               0.000000000              -0.000939664               0.003521687               0.000000000              -0.000792583               0.001438078               0.000645495               0.000000000               0.000000000               0.000000000               0.000000000              -0.000441297               0.003943492              -0.000000000              -0.000658421               0.001533958               0.000875537               0.000000000               0.000000000               0.000000000               0.000000000               0.000059613               0.004283099               0.000000000              -0.000513031               0.001598696               0.001085665               0.000000000               0.000000000               0.000000000               0.000000000               0.000578308               0.004569596               0.000000000              -0.000354333               0.001641295               0.001286961               0.000000000               0.000000000               0.000000000               0.000000000               0.001135023               0.004801314              -0.000000000              -0.000174530               0.001658599               0.001484068               0.000000000               0.000000000               0.000000000               0.000000000               0.001740444               0.004961664              -0.000000000               0.000032458               0.001643052               0.001675510               0.000000000               0.000000000               0.000000000               0.000000000               0.002404533               0.005056071              -0.000000000               0.000269689               0.001595444               0.001865132               0.000000000               0.000000000               0.000000000               0.000000000               0.003150547               0.005093028               0.000000000               0.000544821               0.001516052               0.002060873               0.000000000               0.000000000               0.000000000               0.000000000               0.004011211               0.005067340              -0.000000000               0.000870778               0.001398837               0.002269615               0.000000000               0.000000000               0.000000000               0.000000000               0.004684762               0.005111476              -0.000000000               0.001117840               0.001331195               0.002449035               0.000000000               0.000000000               0.000000000               0.000000000               0.000000000               0.000000000               0.000000000               0.000000000               0.000000000               0.000000000               0.000000000               0.000000000               0.000000000               0.000000000               0.000000000               0.000000000               0.000000000               0.000000000               0.000000000               0.000000000               0.000000000               0.000000000               0.000000000               0.000000000               0.000000000               0.000000000               0.000000000               0.000000000               0.000000000               0.000000000               0.000000000               0.000000000               0.000000000               0.000000000               0.000000000               0.000000000               0.000000000               0.000000000               0.000000000               0.000000000               0.000000000               0.000000000               0.000000000               0.000000000               0.000000000               0.000000000               0.000000000               0.000000000               0.000000000               0.000000000               0.000000000               0.000000000               0.000000000               0.000000000               0.000000000               0.000000000               0.000000000               0.000000000               0.000000000               0.000000000               0.000000000               0.000000000               0.000000000               0.000000000               0.000000000               0.000000000               0.000000000               0.000000000               0.000000000               0.000000000               0.000000000               0.000000000               0.000000000               0.000000000               0.000000000               0.000000000               0.000000000               0.000000000               0.000000000               0.000000000               0.000000000               0.000000000               0.000000000               0.000000000               0.000000000               0.000000000               0.000000000               0.000000000               0.000000000               0.000000000               0.000000000               0.000000000               0.000000000               0.000000000               0.000000000               0.000000000               0.000000000               0.000000000               0.000000000               0.000000000               0.000000000               0.000000000               0.000000000               0.000000000               0.000000000               0.000000000               0.000000000               0.000000000               0.000000000               0.000000000               0.000000000               0.000000000               0.000000000               0.000000000               0.000000000               0.000000000               0.000000000               0.000000000               0.000000000               0.000000000               0.000000000               0.000000000               0.000000000               0.000000000               0.000000000               0.000000000               0.000000000               0.000000000               0.000000000               0.000000000               0.000000000               0.000000000               0.000000000               0.000000000               0.000000000               0.000000000               0.000000000               0.000000000               0.000000000               0.000000000               0.000000000               0.000000000               0.000000000               0.000000000               0.000000000               0.000000000               0.000000000               0.000000000               0.000000000               0.000000000               0.000000000               0.000000000               0.000000000               0.000000000               0.000000000               0.000000000               0.000000000               0.000000000               0.000000000               0.000000000               0.000000000               0.000000000               0.000000000               0.000000000               0.000000000               0.000000000               0.000000000               0.000000000               0.000000000               0.000000000               0.000000000               0.000000000               0.000000000               0.000000000               0.002297408               0.023394089               0.001576754              -0.002062728               0.008485528               0.006422799               0.000000000               0.000000000               0.000000000               0.000000000               0.002068868               0.018048498               0.000705756              -0.001480233               0.006509517               0.005029284               0.000000000               0.000000000               0.000000000               0.000000000               0.002523295               0.013763111              -0.000154494              -0.000774151               0.004845708               0.004071557               0.000000000               0.000000000               0.000000000               0.000000000               0.002237099               0.011350277              -0.000508374              -0.000579871               0.003976678               0.003396807               0.000000000               0.000000000               0.000000000               0.000000000               0.001770973               0.009819267              -0.000643685              -0.000563292               0.003460820               0.002897528               0.000000000               0.000000000               0.000000000               0.000000000               0.001307697               0.008732949              -0.000680520              -0.000601231               0.003111364               0.002510133               0.000000000               0.000000000               0.000000000               0.000000000               0.000908739               0.007883969              -0.000673314              -0.000644718               0.002842869               0.002198151               0.000000000               0.000000000               0.000000000               0.000000000               0.000591038               0.007160448              -0.000646945              -0.000673415               0.002611264               0.001937849               0.000000000               0.000000000               0.000000000               0.000000000               0.000349343               0.006505355              -0.000613334              -0.000682164               0.002395818               0.001713654               0.000000000               0.000000000               0.000000000               0.000000000               0.000171106               0.005880932              -0.000578159              -0.000670950               0.002183941               0.001512991               0.000000000               0.000000000               0.000000000               0.000000000               0.000042686               0.005271519              -0.000542512              -0.000642931               0.001971466               0.001328535               0.000000000               0.000000000               0.000000000               0.000000000              -0.000053640               0.004662419              -0.000507166              -0.000602916               0.001755096               0.001152180               0.000000000               0.000000000               0.000000000               0.000000000              -0.000116479               0.004046630              -0.000464976              -0.000549507               0.001532032               0.000982525               0.000000000               0.000000000               0.000000000               0.000000000              -0.000140947               0.003409194              -0.000401671              -0.000479003               0.001296054               0.000817051               0.000000000               0.000000000               0.000000000               0.000000000              -0.000127941               0.002728620              -0.000309987              -0.000389054               0.001039215               0.000650161               0.000000000               0.000000000               0.000000000               0.000000000              -0.000075691               0.001989631              -0.000178644              -0.000277087               0.000755566               0.000478479               0.000000000               0.000000000               0.000000000               0.000000000              -0.000098083               0.001439665              -0.000110770              -0.000216739               0.000552130               0.000335391               0.000000000               0.000000000               0.000000000               0.000000000               0.002441616               0.021932380               0.002914207              -0.001825938               0.007919366               0.006093428               0.000000000               0.000000000               0.000000000               0.000000000               0.001855071               0.017135774               0.001300904              -0.001446317               0.006193973               0.004747656               0.000000000               0.000000000               0.000000000               0.000000000               0.001930331               0.013412818              -0.000274928              -0.000952726               0.004788470               0.003835744               0.000000000               0.000000000               0.000000000               0.000000000               0.001520439               0.011275711              -0.000897948              -0.000839297               0.004038298               0.003199001               0.000000000               0.000000000               0.000000000               0.000000000               0.001051045               0.009874414              -0.001125279              -0.000840158               0.003571491               0.002731333               0.000000000               0.000000000               0.000000000               0.000000000               0.000640385               0.008849465              -0.001181162              -0.000866037               0.003238471               0.002372434               0.000000000               0.000000000               0.000000000               0.000000000               0.000316608               0.008028999              -0.001160033              -0.000884895               0.002971271               0.002086376               0.000000000               0.000000000               0.000000000               0.000000000               0.000076353               0.007321725              -0.001104914              -0.000886581               0.002736078               0.001849496               0.000000000               0.000000000               0.000000000               0.000000000              -0.000093321               0.006675792              -0.001036076              -0.000869468               0.002515064               0.001645597               0.000000000               0.000000000               0.000000000               0.000000000              -0.000203020               0.006065668              -0.000966468              -0.000834339               0.002299982               0.001465643               0.000000000               0.000000000               0.000000000               0.000000000              -0.000272088               0.005479967              -0.000898538              -0.000787027               0.002088980               0.001301952               0.000000000               0.000000000               0.000000000               0.000000000              -0.000311867               0.004910123              -0.000828247              -0.000730714               0.001880263               0.001149549               0.000000000               0.000000000               0.000000000               0.000000000              -0.000311585               0.004352142              -0.000745000              -0.000660861               0.001670986               0.001010126               0.000000000               0.000000000               0.000000000               0.000000000              -0.000275320               0.003797309              -0.000627594              -0.000577907               0.001458393               0.000880485               0.000000000               0.000000000               0.000000000               0.000000000              -0.000208231               0.003243436              -0.000470534              -0.000483515               0.001242306               0.000758791               0.000000000               0.000000000               0.000000000               0.000000000              -0.000111460               0.002699288              -0.000262932              -0.000379208               0.001026156               0.000646948               0.000000000               0.000000000               0.000000000               0.000000000              -0.000095267               0.002328574              -0.000156597              -0.000326796               0.000885116               0.000558319               0.000000000               0.000000000               0.000000000               0.000000000               0.002547750               0.019710025               0.003835229              -0.001508345               0.007072724               0.005564378               0.000000000               0.000000000               0.000000000               0.000000000               0.001465569               0.015770117               0.001712552              -0.001421674               0.005730544               0.004308870               0.000000000               0.000000000               0.000000000               0.000000000               0.001016207               0.012888226              -0.000331094              -0.001229948               0.004706015               0.003476067               0.000000000               0.000000000               0.000000000               0.000000000               0.000471768               0.011143271              -0.001091848              -0.001215993               0.004119717               0.002903724               0.000000000               0.000000000               0.000000000               0.000000000               0.000035702               0.009924559              -0.001348911              -0.001227179               0.003717213               0.002490034               0.000000000               0.000000000               0.000000000               0.000000000              -0.000274783               0.008981706              -0.001396606              -0.001225754               0.003402456               0.002176702               0.000000000               0.000000000               0.000000000               0.000000000              -0.000477523               0.008193694              -0.001355478              -0.001203280               0.003132297               0.001929017               0.000000000               0.000000000               0.000000000               0.000000000              -0.000595720               0.007501652              -0.001273788              -0.001161099               0.002887559               0.001726460               0.000000000               0.000000000               0.000000000               0.000000000              -0.000649412               0.006866034              -0.001178418              -0.001101781               0.002655915               0.001554134               0.000000000               0.000000000               0.000000000               0.000000000              -0.000658115               0.006276897              -0.001085161              -0.001031403               0.002436079               0.001404676               0.000000000               0.000000000               0.000000000               0.000000000              -0.000642363               0.005726131              -0.000996081              -0.000956650               0.002227575               0.001270924               0.000000000               0.000000000               0.000000000               0.000000000              -0.000600430               0.005212509              -0.000904473              -0.000876723               0.002029727               0.001153003               0.000000000               0.000000000               0.000000000               0.000000000              -0.000521849               0.004730186              -0.000795036              -0.000786965               0.001839034               0.001052069               0.000000000               0.000000000               0.000000000               0.000000000              -0.000408007               0.004279268              -0.000651635              -0.000687910               0.001655711               0.000967802               0.000000000               0.000000000               0.000000000               0.000000000              -0.000272157               0.003873354              -0.000474309              -0.000586227               0.001486514               0.000900287               0.000000000               0.000000000               0.000000000               0.000000000              -0.000133596               0.003527827              -0.000257995              -0.000491076               0.001339622               0.000848547               0.000000000               0.000000000               0.000000000               0.000000000              -0.000086345               0.003324385              -0.000148142              -0.000447927               0.001257426               0.000809500               0.000000000               0.000000000               0.000000000               0.000000000               0.002478524               0.017004880               0.004256021              -0.001196164               0.006066957               0.004870793               0.000000000               0.000000000               0.000000000               0.000000000               0.000889216               0.014134513               0.001921035              -0.001433356               0.005189242               0.003755886               0.000000000               0.000000000               0.000000000               0.000000000              -0.000097603               0.012249893              -0.000290145              -0.001567834               0.004605868               0.003038034               0.000000000               0.000000000               0.000000000               0.000000000              -0.000723127               0.010937895              -0.001052627              -0.001638406               0.004192064               0.002553658               0.000000000               0.000000000               0.000000000               0.000000000              -0.001069346               0.009910620              -0.001285117              -0.001639828               0.003850116               0.002210288               0.000000000               0.000000000               0.000000000               0.000000000              -0.001231410               0.009050116              -0.001310611              -0.001593040               0.003547688               0.001954649               0.000000000               0.000000000               0.000000000               0.000000000              -0.001273757               0.008295794              -0.001253240              -0.001514630               0.003270113               0.001755484               0.000000000               0.000000000               0.000000000               0.000000000              -0.001237838               0.007615760              -0.001161467              -0.001416156               0.003010613               0.001594457               0.000000000               0.000000000               0.000000000               0.000000000              -0.001158001               0.006997786              -0.001057819              -0.001308970               0.002768895               0.001459925               0.000000000               0.000000000               0.000000000               0.000000000              -0.001051233               0.006436780              -0.000960377              -0.001198807               0.002545174               0.001346367               0.000000000               0.000000000               0.000000000               0.000000000              -0.000928511               0.005930276              -0.000873803              -0.001089474               0.002339897               0.001250423               0.000000000               0.000000000               0.000000000               0.000000000              -0.000793989               0.005475122              -0.000781914              -0.000982134               0.002152400               0.001170266               0.000000000               0.000000000               0.000000000               0.000000000              -0.000636924               0.005064106              -0.000667709              -0.000871858               0.001978638               0.001106780               0.000000000               0.000000000               0.000000000               0.000000000              -0.000463048               0.004705196              -0.000528935              -0.000761791               0.001822313               0.001060522               0.000000000               0.000000000               0.000000000               0.000000000              -0.000289795               0.004419865              -0.000370044              -0.000661155               0.001693658               0.001032504               0.000000000               0.000000000               0.000000000               0.000000000              -0.000136684               0.004220329              -0.000192161              -0.000578796               0.001599694               0.001020898               0.000000000               0.000000000               0.000000000               0.000000000              -0.000075804               0.004128869              -0.000103557              -0.000544534               0.001557787               0.001013253               0.000000000               0.000000000               0.000000000               0.000000000               0.002111065               0.014105486               0.004188696              -0.000971537               0.005025626               0.004054089               0.000000000               0.000000000               0.000000000               0.000000000               0.000127902               0.012408060               0.001956798              -0.001503042               0.004636992               0.003133951               0.000000000               0.000000000               0.000000000               0.000000000              -0.001283211               0.011548458              -0.000124267              -0.001924757               0.004491033               0.002566277               0.000000000               0.000000000               0.000000000               0.000000000              -0.001879338               0.010638932              -0.000786898              -0.002034613               0.004224479               0.002189866               0.000000000               0.000000000               0.000000000               0.000000000              -0.002065558               0.009782260              -0.000970070              -0.001997362               0.003926508               0.001929146               0.000000000               0.000000000               0.000000000               0.000000000              -0.002041147               0.008995227              -0.000979532              -0.001889829               0.003628322               0.001738493               0.000000000               0.000000000               0.000000000               0.000000000              -0.001902491               0.008274501              -0.000923426              -0.001747742               0.003340720               0.001592978               0.000000000               0.000000000               0.000000000               0.000000000              -0.001705108               0.007616830              -0.000844998              -0.001591516               0.003069423               0.001477907               0.000000000               0.000000000               0.000000000               0.000000000              -0.001488791               0.007025562              -0.000761658              -0.001436488               0.002820660               0.001384172               0.000000000               0.000000000               0.000000000               0.000000000              -0.001267750               0.006502823              -0.000685419              -0.001288256               0.002597005               0.001308749               0.000000000               0.000000000               0.000000000               0.000000000              -0.001047210               0.006040236              -0.000620568              -0.001147730               0.002395969               0.001248238               0.000000000               0.000000000               0.000000000               0.000000000              -0.000836149               0.005631215              -0.000547190              -0.001017455               0.002216205               0.001198749               0.000000000               0.000000000               0.000000000               0.000000000              -0.000624870               0.005276514              -0.000448156              -0.000893888               0.002056783               0.001162895               0.000000000               0.000000000               0.000000000               0.000000000              -0.000421088               0.004989739              -0.000338305              -0.000781623               0.001923771               0.001142147               0.000000000               0.000000000               0.000000000               0.000000000              -0.000243907               0.004786220              -0.000224142              -0.000689741               0.001825304               0.001135563               0.000000000               0.000000000               0.000000000               0.000000000              -0.000107247               0.004669209              -0.000107114              -0.000623867               0.001764343               0.001140476               0.000000000               0.000000000               0.000000000               0.000000000              -0.000053263               0.004630806              -0.000051432              -0.000598823               0.001743194               0.001144371               0.000000000               0.000000000               0.000000000               0.000000000               0.001369961               0.011254508               0.003721119              -0.000893079               0.004049157               0.003156078               0.000000000               0.000000000               0.000000000               0.000000000              -0.000782333               0.010735222               0.001879225              -0.001635275               0.004123463               0.002488188               0.000000000               0.000000000               0.000000000               0.000000000              -0.002414872               0.010819078               0.000171303              -0.002257956               0.004358975               0.002101019               0.000000000               0.000000000               0.000000000               0.000000000              -0.002853913               0.010242819              -0.000343407              -0.002350564               0.004197760               0.001847196               0.000000000               0.000000000               0.000000000               0.000000000              -0.002820769               0.009524285              -0.000486708              -0.002248319               0.003924169               0.001675851               0.000000000               0.000000000               0.000000000               0.000000000              -0.002590459               0.008803982              -0.000502931              -0.002071915               0.003625269               0.001553355               0.000000000               0.000000000               0.000000000               0.000000000              -0.002271349               0.008123778              -0.000474215              -0.001867223               0.003330307               0.001463083               0.000000000               0.000000000               0.000000000               0.000000000              -0.001925361               0.007498775              -0.000433536              -0.001659353               0.003052684               0.001393331               0.000000000               0.000000000               0.000000000               0.000000000              -0.001588369               0.006944017              -0.000393649              -0.001463637               0.002802528               0.001338891               0.000000000               0.000000000               0.000000000               0.000000000              -0.001277007               0.006458951              -0.000355920              -0.001286244               0.002581710               0.001295467               0.000000000               0.000000000               0.000000000               0.000000000              -0.000990338               0.006030600              -0.000323243              -0.001125199               0.002385246               0.001260047               0.000000000               0.000000000               0.000000000               0.000000000              -0.000730569               0.005654739              -0.000281639              -0.000980803               0.002211829               0.001231025               0.000000000               0.000000000               0.000000000               0.000000000              -0.000498497               0.005342661              -0.000216406              -0.000854767               0.002065791               0.001211025               0.000000000               0.000000000               0.000000000               0.000000000              -0.000303346               0.005106683              -0.000148740              -0.000752088               0.001952907               0.001200819               0.000000000               0.000000000               0.000000000               0.000000000              -0.000157275               0.004949536              -0.000087782              -0.000677668               0.001875718               0.001198050               0.000000000               0.000000000               0.000000000               0.000000000              -0.000062189               0.004864411              -0.000034033              -0.000631371               0.001831911               0.001200540               0.000000000               0.000000000               0.000000000               0.000000000              -0.000031974               0.004835213              -0.000012852              -0.000616390               0.001817185               0.001200795               0.000000000               0.000000000               0.000000000               0.000000000               0.000284625               0.008625989               0.002968838              -0.000971514               0.003199138               0.002227624               0.000000000               0.000000000               0.000000000               0.000000000              -0.001786042               0.009214853               0.001748113              -0.001821619               0.003678793               0.001857174               0.000000000               0.000000000               0.000000000               0.000000000              -0.003378593               0.010063609               0.000586287              -0.002524917               0.004196142               0.001671224               0.000000000               0.000000000               0.000000000               0.000000000              -0.003550606               0.009740380               0.000208769              -0.002549018               0.004096434               0.001547415               0.000000000               0.000000000               0.000000000               0.000000000              -0.003269229               0.009139094               0.000067475              -0.002368342               0.003835781               0.001467440               0.000000000               0.000000000               0.000000000               0.000000000              -0.002840116               0.008488751               0.000011632              -0.002126132               0.003538266               0.001412134               0.000000000               0.000000000               0.000000000               0.000000000              -0.002367157               0.007861123              -0.000009799              -0.001870319               0.003243788               0.001373468               0.000000000               0.000000000               0.000000000               0.000000000              -0.001905113               0.007283618              -0.000023164              -0.001624866               0.002969470               0.001344605               0.000000000               0.000000000               0.000000000               0.000000000              -0.001485157               0.006770285              -0.000038408              -0.001403216               0.002724478               0.001321262               0.000000000               0.000000000               0.000000000               0.000000000              -0.001117943               0.006313492              -0.000048011              -0.001208412               0.002507280               0.001298868               0.000000000               0.000000000               0.000000000               0.000000000              -0.000801635               0.005911002              -0.000052454              -0.001039486               0.002316810               0.001277324               0.000000000               0.000000000               0.000000000               0.000000000              -0.000533447               0.005563557              -0.000049157              -0.000895485               0.002152995               0.001257510               0.000000000               0.000000000               0.000000000               0.000000000              -0.000316499               0.005286860              -0.000030262              -0.000779542               0.002022116               0.001242574               0.000000000               0.000000000               0.000000000               0.000000000              -0.000159188               0.005094232              -0.000013002              -0.000696473               0.001930218               0.001233745               0.000000000               0.000000000               0.000000000               0.000000000              -0.000062358               0.004977053              -0.000005970              -0.000645514               0.001874173               0.001228658               0.000000000               0.000000000               0.000000000               0.000000000              -0.000016573               0.004920600              -0.000000639              -0.000621288               0.001847280               0.001225991               0.000000000               0.000000000               0.000000000               0.000000000              -0.000011555               0.004901947              -0.000000620              -0.000617075               0.001839657               0.001222583               0.000000000               0.000000000               0.000000000               0.000000000              -0.000996201               0.006406133               0.002059151              -0.001174340               0.002526802               0.001352462               0.000000000               0.000000000               0.000000000               0.000000000              -0.002761965               0.007852482               0.001610001              -0.002017293               0.003289898               0.001272606               0.000000000               0.000000000               0.000000000               0.000000000              -0.004129106               0.009295150               0.001088115              -0.002710302               0.004001786               0.001291484               0.000000000               0.000000000               0.000000000               0.000000000              -0.004021760               0.009234678               0.000796527              -0.002662488               0.003965691               0.001303203               0.000000000               0.000000000               0.000000000               0.000000000              -0.003532752               0.008781122               0.000622744              -0.002422416               0.003734483               0.001312067               0.000000000               0.000000000               0.000000000               0.000000000              -0.002944962               0.008226331               0.000505976              -0.002132647               0.003452965               0.001320318               0.000000000               0.000000000               0.000000000               0.000000000              -0.002353895               0.007667441               0.000420128              -0.001841136               0.003169500               0.001328364               0.000000000               0.000000000               0.000000000               0.000000000              -0.001808115               0.007145404               0.000348452              -0.001571215               0.002905516               0.001334301               0.000000000               0.000000000               0.000000000               0.000000000              -0.001334368               0.006666439               0.000283248              -0.001333689               0.002666687               0.001332998               0.000000000               0.000000000               0.000000000               0.000000000              -0.000936614               0.006227694               0.000227844              -0.001129689               0.002452440               0.001322751               0.000000000               0.000000000               0.000000000               0.000000000              -0.000603826               0.005840067               0.000182150              -0.000956441               0.002265483               0.001309042               0.000000000               0.000000000               0.000000000               0.000000000              -0.000341990               0.005505684               0.000141571              -0.000816455               0.002107361               0.001290906               0.000000000               0.000000000               0.000000000               0.000000000              -0.000152711               0.005247926               0.000104971              -0.000713256               0.001987043               0.001273787               0.000000000               0.000000000               0.000000000               0.000000000              -0.000032069               0.005083311               0.000065562              -0.000647438               0.001910233               0.001262795               0.000000000               0.000000000               0.000000000               0.000000000               0.000023770               0.004996320               0.000025502              -0.000615625               0.001870632               0.001255007               0.000000000               0.000000000               0.000000000               0.000000000               0.000030919               0.004962964              -0.000000686              -0.000608774               0.001857229               0.001248455               0.000000000               0.000000000               0.000000000               0.000000000               0.000022878               0.004958023              -0.000008851              -0.000611172               0.001856382               0.001245210               0.000000000               0.000000000               0.000000000               0.000000000              -0.002471060               0.004344942               0.001110173              -0.001469762               0.001938220               0.000468458               0.000000000               0.000000000               0.000000000               0.000000000              -0.003576169               0.006258352               0.001460278              -0.002123352               0.002793880               0.000670528               0.000000000               0.000000000               0.000000000               0.000000000              -0.004572681               0.008130843               0.001613382              -0.002731104               0.003620622               0.000889518               0.000000000               0.000000000               0.000000000               0.000000000              -0.004318334               0.008475735               0.001413353              -0.002678836               0.003718162               0.001039326               0.000000000               0.000000000               0.000000000               0.000000000              -0.003748312               0.008308465               0.001204024              -0.002444169               0.003584183               0.001140014               0.000000000               0.000000000               0.000000000               0.000000000              -0.003109517               0.007962622               0.001025725              -0.002161392               0.003374645               0.001213253               0.000000000               0.000000000               0.000000000               0.000000000              -0.002482178               0.007553604               0.000874307              -0.001875013               0.003142847               0.001267834               0.000000000               0.000000000               0.000000000               0.000000000              -0.001904176               0.007132367               0.000745266              -0.001605608               0.002912634               0.001307026               0.000000000               0.000000000               0.000000000               0.000000000              -0.001397493               0.006719265               0.000633207              -0.001363965               0.002694388               0.001330423               0.000000000               0.000000000               0.000000000               0.000000000              -0.000968015               0.006326852               0.000535225              -0.001153859               0.002493549               0.001339690               0.000000000               0.000000000               0.000000000               0.000000000              -0.000614181               0.005959434               0.000444398              -0.000975245               0.002311540               0.001336295               0.000000000               0.000000000               0.000000000               0.000000000              -0.000333121               0.005630524               0.000352693              -0.000828734               0.002153067               0.001324333               0.000000000               0.000000000               0.000000000               0.000000000              -0.000126733               0.005358965               0.000258705              -0.000717394               0.002025435               0.001308041               0.000000000               0.000000000               0.000000000               0.000000000               0.000003508               0.005162124               0.000163324              -0.000643948               0.001935340               0.001291392               0.000000000               0.000000000               0.000000000               0.000000000               0.000065034               0.005042593               0.000078870              -0.000605935               0.001882826               0.001276891               0.000000000               0.000000000               0.000000000               0.000000000               0.000079156               0.004996360               0.000023064              -0.000594860               0.001863723               0.001268863               0.000000000               0.000000000               0.000000000               0.000000000               0.000072509               0.004989482               0.000002088              -0.000596493               0.001861975               0.001265482               0.000000000               0.000000000               0.000000000               0.000000000              -0.004333181               0.002484392               0.000192695              -0.001935488               0.001473284              -0.000462205               0.000000000               0.000000000               0.000000000               0.000000000              -0.004491358               0.004647846               0.001245852              -0.002265235               0.002304344               0.000039109               0.000000000               0.000000000               0.000000000               0.000000000              -0.004928210               0.006746837               0.002033622              -0.002691427               0.003146065               0.000454638               0.000000000               0.000000000               0.000000000               0.000000000              -0.004543248               0.007478341               0.001996395              -0.002638505               0.003372257               0.000733752               0.000000000               0.000000000               0.000000000               0.000000000              -0.003932938               0.007641062               0.001790721              -0.002429979               0.003356988               0.000927009               0.000000000               0.000000000               0.000000000               0.000000000              -0.003276806               0.007546351               0.001570627              -0.002172091               0.003239455               0.001067364               0.000000000               0.000000000               0.000000000               0.000000000              -0.002638938               0.007328108               0.001367571              -0.001905611               0.003077882               0.001172271               0.000000000               0.000000000               0.000000000               0.000000000              -0.002039067               0.007048328               0.001190944              -0.001645687               0.002897981               0.001252294               0.000000000               0.000000000               0.000000000               0.000000000              -0.001498186               0.006733117               0.001038229              -0.001403456               0.002712168               0.001308712               0.000000000               0.000000000               0.000000000               0.000000000              -0.001031480               0.006406547               0.000900360              -0.001187620               0.002531368               0.001343747               0.000000000               0.000000000               0.000000000               0.000000000              -0.000641602               0.006085405               0.000768189              -0.001001274               0.002362206               0.001360932               0.000000000               0.000000000               0.000000000               0.000000000              -0.000319246               0.005781549               0.000636503              -0.000842409               0.002207967               0.001365558               0.000000000               0.000000000               0.000000000               0.000000000              -0.000066028               0.005504927               0.000496866              -0.000712875               0.002072582               0.001359708               0.000000000               0.000000000               0.000000000               0.000000000               0.000113765               0.005276752               0.000347719              -0.000616931               0.001964543               0.001347613               0.000000000               0.000000000               0.000000000               0.000000000               0.000213158               0.005111910               0.000203930              -0.000559053               0.001890304               0.001331251               0.000000000               0.000000000               0.000000000               0.000000000               0.000235164               0.005026528               0.000087092              -0.000540128               0.001855535               0.001315407               0.000000000               0.000000000               0.000000000               0.000000000               0.000212361               0.004994560               0.000031746              -0.000544683               0.001846398               0.001301715               0.000000000               0.000000000               0.000000000               0.000000000              -0.006457771               0.000980705              -0.000605972              -0.002544249               0.001174977              -0.001369273               0.000000000               0.000000000               0.000000000               0.000000000              -0.005548110               0.003131803               0.000954604              -0.002472012               0.001867925              -0.000604087               0.000000000               0.000000000               0.000000000               0.000000000              -0.005217286               0.005166438               0.002238935              -0.002602281               0.002589555              -0.000012727               0.000000000               0.000000000               0.000000000               0.000000000              -0.004613869               0.006165061               0.002401722              -0.002500828               0.002888608               0.000387780               0.000000000               0.000000000               0.000000000               0.000000000              -0.003949361               0.006627905               0.002254216              -0.002309493               0.002979110               0.000669617               0.000000000               0.000000000               0.000000000               0.000000000              -0.003286451               0.006797385               0.002031221              -0.002082088               0.002959801               0.000877713               0.000000000               0.000000000               0.000000000               0.000000000              -0.002648069               0.006802069               0.001806810              -0.001843280               0.002881760               0.001038480               0.000000000               0.000000000               0.000000000               0.000000000              -0.002047913               0.006698224               0.001604967              -0.001605242               0.002767799               0.001162557               0.000000000               0.000000000               0.000000000               0.000000000              -0.001493425               0.006523241               0.001424295              -0.001375437               0.002632871               0.001257434               0.000000000               0.000000000               0.000000000               0.000000000              -0.000999083               0.006302567               0.001257012              -0.001162475               0.002488326               0.001325851               0.000000000               0.000000000               0.000000000               0.000000000              -0.000568971               0.006062131               0.001100218              -0.000971129               0.002344399               0.001373271               0.000000000               0.000000000               0.000000000               0.000000000              -0.000200457               0.005819974               0.000942977              -0.000802667               0.002207527               0.001404861               0.000000000               0.000000000               0.000000000               0.000000000               0.000106581               0.005581155               0.000774551              -0.000657675               0.002079591               0.001421916               0.000000000               0.000000000               0.000000000               0.000000000               0.000347174               0.005358414               0.000588540              -0.000539610               0.001965990               0.001426380               0.000000000               0.000000000               0.000000000               0.000000000               0.000507286               0.005180138               0.000385518              -0.000457284               0.001879123               0.001421839               0.000000000               0.000000000               0.000000000               0.000000000               0.000565044               0.005066130               0.000184574              -0.000421374               0.001829151               0.001407777               0.000000000               0.000000000               0.000000000               0.000000000               0.000544061               0.005012529               0.000082010              -0.000422542               0.001811674               0.001389132               0.000000000               0.000000000               0.000000000               0.000000000              -0.008701099              -0.000090938              -0.001159434              -0.003251542               0.001053527              -0.002198015               0.000000000               0.000000000               0.000000000               0.000000000              -0.006683368               0.001791553               0.000637863              -0.002730204               0.001507242              -0.001222962               0.000000000               0.000000000               0.000000000               0.000000000              -0.005459246               0.003523401               0.002199121              -0.002487638               0.002003665              -0.000483973               0.000000000               0.000000000               0.000000000               0.000000000              -0.004555138               0.004645476               0.002535002              -0.002288857               0.002311427               0.000022571               0.000000000               0.000000000               0.000000000               0.000000000              -0.003801274               0.005342806               0.002472969              -0.002093324               0.002478691               0.000385367               0.000000000               0.000000000               0.000000000               0.000000000              -0.003125744               0.005759289               0.002287532              -0.001892061               0.002550430               0.000658369               0.000000000               0.000000000               0.000000000               0.000000000              -0.002496120               0.005990191               0.002074636              -0.001684815               0.002558315               0.000873499               0.000000000               0.000000000               0.000000000               0.000000000              -0.001910841               0.006085199               0.001871371              -0.001477212               0.002520783               0.001043571               0.000000000               0.000000000               0.000000000               0.000000000              -0.001362777               0.006078142               0.001685709              -0.001270807               0.002449629               0.001178822               0.000000000               0.000000000               0.000000000               0.000000000              -0.000851026               0.005991294               0.001513445              -0.001068044               0.002353092               0.001285048               0.000000000               0.000000000               0.000000000               0.000000000              -0.000380621               0.005859186               0.001349827              -0.000875130               0.002244752               0.001369622               0.000000000               0.000000000               0.000000000               0.000000000               0.000043004               0.005707209               0.001186450              -0.000697273               0.002134808               0.001437535               0.000000000               0.000000000               0.000000000               0.000000000               0.000422499               0.005546206               0.001012171              -0.000534838               0.002026996               0.001492158               0.000000000               0.000000000               0.000000000               0.000000000               0.000749119               0.005381583               0.000809350              -0.000391778               0.001924435               0.001532658               0.000000000               0.000000000               0.000000000               0.000000000               0.001006583               0.005228319               0.000566574              -0.000276071               0.001834779               0.001558708               0.000000000               0.000000000               0.000000000               0.000000000               0.001167764               0.005102569               0.000290369              -0.000199909               0.001767476               0.001567567               0.000000000               0.000000000               0.000000000               0.000000000               0.001214508               0.005044095               0.000145596              -0.000175071               0.001739705               0.001564634               0.000000000               0.000000000               0.000000000               0.000000000              -0.010843525              -0.000764283              -0.001366330              -0.003970784               0.001068826              -0.002901958               0.000000000               0.000000000               0.000000000               0.000000000              -0.007800847               0.000697644               0.000356799              -0.003012520               0.001236713              -0.001775807               0.000000000               0.000000000               0.000000000               0.000000000              -0.005670274               0.001984876               0.001910927              -0.002374459               0.001453101              -0.000921358               0.000000000               0.000000000               0.000000000               0.000000000              -0.004413680               0.003102609               0.002336423              -0.002042953               0.001715175              -0.000327778               0.000000000               0.000000000               0.000000000               0.000000000              -0.003534396               0.003949269               0.002352461              -0.001819054               0.001922760               0.000103706               0.000000000               0.000000000               0.000000000               0.000000000              -0.002828380               0.004562611               0.002224890              -0.001630966               0.002064509               0.000433544               0.000000000               0.000000000               0.000000000               0.000000000              -0.002207514               0.004991596               0.002048043              -0.001451765               0.002147769               0.000696005               0.000000000               0.000000000               0.000000000               0.000000000              -0.001641099               0.005272279               0.001868448              -0.001274445               0.002182223               0.000907778               0.000000000               0.000000000               0.000000000               0.000000000              -0.001106133               0.005430255               0.001703047              -0.001093580               0.002174593               0.001081013               0.000000000               0.000000000               0.000000000               0.000000000              -0.000588336               0.005490366               0.001549245              -0.000906920               0.002132410               0.001225490               0.000000000               0.000000000               0.000000000               0.000000000              -0.000087206               0.005487008               0.001401489              -0.000718577               0.002068510               0.001349933               0.000000000               0.000000000               0.000000000               0.000000000               0.000394254               0.005447559               0.001255967              -0.000533099               0.001993534               0.001460435               0.000000000               0.000000000               0.000000000               0.000000000               0.000853917               0.005387157               0.001099480              -0.000353176               0.001913426               0.001560250               0.000000000               0.000000000               0.000000000               0.000000000               0.001289636               0.005312931               0.000909105              -0.000180503               0.001831127               0.001650624               0.000000000               0.000000000               0.000000000               0.000000000               0.001691095               0.005218562               0.000666814              -0.000018160               0.001745556               0.001727396               0.000000000               0.000000000               0.000000000               0.000000000               0.002037446               0.005111961               0.000360097               0.000125046               0.001662288               0.001787334               0.000000000               0.000000000               0.000000000               0.000000000               0.002236930               0.005075834               0.000198736               0.000204367               0.001623805               0.001828173               0.000000000               0.000000000               0.000000000               0.000000000              -0.012630631              -0.001116036              -0.001195034              -0.004596979               0.001160306              -0.003436673               0.000000000               0.000000000               0.000000000               0.000000000              -0.008763937              -0.000095421               0.000156436              -0.003274546               0.001059701              -0.002214845               0.000000000               0.000000000               0.000000000               0.000000000              -0.005849581               0.000728769               0.001407535              -0.002284686               0.001004478              -0.001280209               0.000000000               0.000000000               0.000000000               0.000000000              -0.004251328               0.001755999               0.001799201              -0.001813745               0.001189906              -0.000623839               0.000000000               0.000000000               0.000000000               0.000000000              -0.003230796               0.002669980               0.001854922              -0.001545293               0.001405081              -0.000140213               0.000000000               0.000000000               0.000000000               0.000000000              -0.002481396               0.003414505               0.001782260              -0.001357334               0.001590601               0.000233267               0.000000000               0.000000000               0.000000000               0.000000000              -0.001861414               0.003992360               0.001657259              -0.001197073               0.001729797               0.000532724               0.000000000               0.000000000               0.000000000               0.000000000              -0.001306454               0.004419134               0.001523014              -0.001042310               0.001820466               0.000778156               0.000000000               0.000000000               0.000000000               0.000000000              -0.000787552               0.004715866               0.001399035              -0.000884814               0.001866877               0.000982063               0.000000000               0.000000000               0.000000000               0.000000000              -0.000279579               0.004917630               0.001283280              -0.000719545               0.001879041               0.001159497               0.000000000               0.000000000               0.000000000               0.000000000               0.000237463               0.005051787               0.001171970              -0.000542424               0.001864720               0.001322296               0.000000000               0.000000000               0.000000000               0.000000000               0.000764236               0.005135241               0.001062757              -0.000355316               0.001830168               0.001474852               0.000000000               0.000000000               0.000000000               0.000000000               0.001298426               0.005182879               0.000946821              -0.000160950               0.001781259               0.001620309               0.000000000               0.000000000               0.000000000               0.000000000               0.001846107               0.005197039               0.000804407               0.000042659               0.001718109               0.001760768               0.000000000               0.000000000               0.000000000               0.000000000               0.002407605               0.005164788               0.000610990               0.000257251               0.001635828               0.001893079               0.000000000               0.000000000               0.000000000               0.000000000               0.002982607               0.005092855               0.000341880               0.000481866               0.001536979               0.002018845               0.000000000               0.000000000               0.000000000               0.000000000               0.003387159               0.005092493               0.000200774               0.000633617               0.001486275               0.002119892               0.000000000               0.000000000               0.000000000               0.000000000              -0.013826592              -0.001254909              -0.000694382              -0.005028105               0.001257724              -0.003770382               0.000000000               0.000000000               0.000000000               0.000000000              -0.009423265              -0.000566902               0.000048030              -0.003462859               0.000965312              -0.002497547               0.000000000               0.000000000               0.000000000               0.000000000              -0.005972892              -0.000094920               0.000746579              -0.002227968               0.000711011              -0.001516957               0.000000000               0.000000000               0.000000000               0.000000000              -0.004123117               0.000829707               0.000980788              -0.001649880               0.000826523              -0.000823357               0.000000000               0.000000000               0.000000000               0.000000000              -0.002990209               0.001757435               0.001025449              -0.001341005               0.001032806              -0.000308199               0.000000000               0.000000000               0.000000000               0.000000000              -0.002202101               0.002572951               0.000994403              -0.001147404               0.001240109               0.000092705               0.000000000               0.000000000               0.000000000               0.000000000              -0.001581779               0.003243931               0.000931782              -0.000998656               0.001414185               0.000415528               0.000000000               0.000000000               0.000000000               0.000000000              -0.001039069               0.003764440               0.000861251              -0.000860204               0.001541535               0.000681331               0.000000000               0.000000000               0.000000000               0.000000000              -0.000533572               0.004157091               0.000792241              -0.000719724               0.001625591               0.000905867               0.000000000               0.000000000               0.000000000               0.000000000              -0.000033910               0.004461928               0.000729658              -0.000570456               0.001677446               0.001106990               0.000000000               0.000000000               0.000000000               0.000000000               0.000485282               0.004704564               0.000671461              -0.000406089               0.001703535               0.001297446               0.000000000               0.000000000               0.000000000               0.000000000               0.001036638               0.004891962               0.000611971              -0.000222756               0.001704890               0.001482134               0.000000000               0.000000000               0.000000000               0.000000000               0.001624718               0.005024311               0.000549952              -0.000018770               0.001681010               0.001662240               0.000000000               0.000000000               0.000000000               0.000000000               0.002257220               0.005098486               0.000474325               0.000209145               0.001629763               0.001838908               0.000000000               0.000000000               0.000000000               0.000000000               0.002948557               0.005110176               0.000367691               0.000466932               0.001547731               0.002014663               0.000000000               0.000000000               0.000000000               0.000000000               0.003725376               0.005069588               0.000210711               0.000763310               0.001435409               0.002198719               0.000000000               0.000000000               0.000000000               0.000000000               0.004320097               0.005102862               0.000128970               0.000982169               0.001373547               0.002355716               0.000000000               0.000000000               0.000000000               0.000000000              -0.014248951              -0.001288043              -0.000000000              -0.005182348               0.001298093              -0.003884255               0.000000000               0.000000000               0.000000000               0.000000000              -0.009657844              -0.000721964              -0.000000000              -0.003531444               0.000936487              -0.002594957               0.000000000               0.000000000               0.000000000               0.000000000              -0.006016190              -0.000381099              -0.000000000              -0.002208432               0.000609107              -0.001599326               0.000000000               0.000000000               0.000000000               0.000000000              -0.004073776               0.000496750               0.000000000              -0.001589758               0.000695498              -0.000894260               0.000000000               0.000000000               0.000000000               0.000000000              -0.002898162               0.001423686               0.000000000              -0.001264769               0.000896146              -0.000368624               0.000000000               0.000000000               0.000000000               0.000000000              -0.002093839               0.002266055              -0.000000000              -0.001068444               0.001111492               0.000043048               0.000000000               0.000000000               0.000000000               0.000000000              -0.001472877               0.002971094              -0.000000000              -0.000923713               0.001298259               0.000374546               0.000000000               0.000000000               0.000000000               0.000000000              -0.000939664               0.003521687              -0.000000000              -0.000792583               0.001438078               0.000645495               0.000000000               0.000000000               0.000000000               0.000000000              -0.000441297               0.003943492               0.000000000              -0.000658421               0.001533958               0.000875537               0.000000000               0.000000000               0.000000000               0.000000000               0.000059613               0.004283099               0.000000000              -0.000513031               0.001598696               0.001085665               0.000000000               0.000000000               0.000000000               0.000000000               0.000578308               0.004569596              -0.000000000              -0.000354333               0.001641295               0.001286961               0.000000000               0.000000000               0.000000000               0.000000000               0.001135023               0.004801314               0.000000000              -0.000174530               0.001658599               0.001484068               0.000000000               0.000000000               0.000000000               0.000000000               0.001740444               0.004961664              -0.000000000               0.000032458               0.001643052               0.001675510               0.000000000               0.000000000               0.000000000               0.000000000               0.002404533               0.005056071              -0.000000000               0.000269689               0.001595444               0.001865132               0.000000000               0.000000000               0.000000000               0.000000000               0.003150547               0.005093028              -0.000000000               0.000544821               0.001516052               0.002060873               0.000000000               0.000000000               0.000000000               0.000000000               0.004011211               0.005067340              -0.000000000               0.000870778               0.001398837               0.002269615               0.000000000               0.000000000               0.000000000               0.000000000               0.004684762               0.005111476               0.000000000               0.001117840               0.001331195               0.002449035               0.000000000               0.000000000               0.000000000               0.000000000               0.002232825               0.023903525              -0.000000000              -0.002150626               0.008684637               0.006534011               0.000000000               0.000000000               0.000000000               0.000000000               0.002134341               0.018370211               0.000000000              -0.001495895               0.006621974               0.005126079               0.000000000               0.000000000               0.000000000               0.000000000               0.002727365               0.013886512               0.000000000              -0.000713050               0.004866474               0.004153424               0.000000000               0.000000000               0.000000000               0.000000000               0.002491770               0.011371762               0.000000000              -0.000487055               0.003952901               0.003465846               0.000000000               0.000000000               0.000000000               0.000000000               0.002032148               0.009793652               0.000000000              -0.000462150               0.003418568               0.002956418               0.000000000               0.000000000               0.000000000               0.000000000               0.001556194               0.008687163               0.000000000              -0.000502321               0.003063132               0.002560811               0.000000000               0.000000000               0.000000000               0.000000000               0.001131494               0.007825834              -0.000000000              -0.000553918               0.002793224               0.002239307               0.000000000               0.000000000               0.000000000               0.000000000               0.000782813               0.007096145              -0.000000000              -0.000593462               0.002563179               0.001969717               0.000000000               0.000000000               0.000000000               0.000000000               0.000515914               0.006433708              -0.000000000              -0.000610744               0.002348129               0.001737385               0.000000000               0.000000000               0.000000000               0.000000000               0.000315244               0.005806312               0.000000000              -0.000607571               0.002137942               0.001530371               0.000000000               0.000000000               0.000000000               0.000000000               0.000163864               0.005188443              -0.000000000              -0.000587105               0.001925165               0.001338061               0.000000000               0.000000000               0.000000000               0.000000000               0.000046475               0.004565139              -0.000000000              -0.000553213               0.001706102               0.001152889               0.000000000               0.000000000               0.000000000               0.000000000              -0.000041053               0.003928399               0.000000000              -0.000506444               0.001478268               0.000971824               0.000000000               0.000000000               0.000000000               0.000000000              -0.000089793               0.003259286              -0.000000000              -0.000441082               0.001233445               0.000792363               0.000000000               0.000000000               0.000000000               0.000000000              -0.000100309               0.002527923              -0.000000000              -0.000353605               0.000960501               0.000606896               0.000000000               0.000000000               0.000000000               0.000000000              -0.000065918               0.001705106              -0.000000000              -0.000237857               0.000647649               0.000409792               0.000000000               0.000000000               0.000000000               0.000000000              -0.000103383               0.001073714               0.000000000              -0.000172983               0.000415562               0.000242579               0.000000000               0.000000000               0.000000000               0.000000000               0.002297408               0.023394089              -0.001576754              -0.002062728               0.008485528               0.006422799               0.000000000               0.000000000               0.000000000               0.000000000               0.002068868               0.018048498              -0.000705756              -0.001480233               0.006509517               0.005029284               0.000000000               0.000000000               0.000000000               0.000000000               0.002523295               0.013763111               0.000154494              -0.000774151               0.004845708               0.004071557               0.000000000               0.000000000               0.000000000               0.000000000               0.002237099               0.011350277               0.000508374              -0.000579871               0.003976678               0.003396807               0.000000000               0.000000000               0.000000000               0.000000000               0.001770973               0.009819267               0.000643685              -0.000563292               0.003460820               0.002897528               0.000000000               0.000000000               0.000000000               0.000000000               0.001307697               0.008732949               0.000680520              -0.000601231               0.003111364               0.002510133               0.000000000               0.000000000               0.000000000               0.000000000               0.000908739               0.007883969               0.000673314              -0.000644718               0.002842869               0.002198151               0.000000000               0.000000000               0.000000000               0.000000000               0.000591038               0.007160448               0.000646945              -0.000673415               0.002611264               0.001937849               0.000000000               0.000000000               0.000000000               0.000000000               0.000349343               0.006505355               0.000613334              -0.000682164               0.002395818               0.001713654               0.000000000               0.000000000               0.000000000               0.000000000               0.000171106               0.005880932               0.000578159              -0.000670950               0.002183941               0.001512991               0.000000000               0.000000000               0.000000000               0.000000000               0.000042686               0.005271519               0.000542512              -0.000642931               0.001971466               0.001328535               0.000000000               0.000000000               0.000000000               0.000000000              -0.000053640               0.004662419               0.000507166              -0.000602916               0.001755096               0.001152180               0.000000000               0.000000000               0.000000000               0.000000000              -0.000116479               0.004046630               0.000464976              -0.000549507               0.001532032               0.000982525               0.000000000               0.000000000               0.000000000               0.000000000              -0.000140947               0.003409194               0.000401671              -0.000479003               0.001296054               0.000817051               0.000000000               0.000000000               0.000000000               0.000000000              -0.000127941               0.002728620               0.000309987              -0.000389054               0.001039215               0.000650161               0.000000000               0.000000000               0.000000000               0.000000000              -0.000075691               0.001989631               0.000178644              -0.000277087               0.000755566               0.000478479               0.000000000               0.000000000               0.000000000               0.000000000              -0.000098083               0.001439665               0.000110770              -0.000216739               0.000552130               0.000335391               0.000000000               0.000000000               0.000000000               0.000000000               0.002441616               0.021932380              -0.002914207              -0.001825938               0.007919366               0.006093428               0.000000000               0.000000000               0.000000000               0.000000000               0.001855071               0.017135774              -0.001300904              -0.001446317               0.006193973               0.004747656               0.000000000               0.000000000               0.000000000               0.000000000               0.001930331               0.013412818               0.000274928              -0.000952726               0.004788470               0.003835744               0.000000000               0.000000000               0.000000000               0.000000000               0.001520439               0.011275711               0.000897948              -0.000839297               0.004038298               0.003199001               0.000000000               0.000000000               0.000000000               0.000000000               0.001051045               0.009874414               0.001125279              -0.000840158               0.003571491               0.002731333               0.000000000               0.000000000               0.000000000               0.000000000               0.000640385               0.008849465               0.001181162              -0.000866037               0.003238471               0.002372434               0.000000000               0.000000000               0.000000000               0.000000000               0.000316608               0.008028999               0.001160033              -0.000884895               0.002971271               0.002086376               0.000000000               0.000000000               0.000000000               0.000000000               0.000076353               0.007321725               0.001104914              -0.000886581               0.002736078               0.001849496               0.000000000               0.000000000               0.000000000               0.000000000              -0.000093321               0.006675792               0.001036076              -0.000869468               0.002515064               0.001645597               0.000000000               0.000000000               0.000000000               0.000000000              -0.000203020               0.006065668               0.000966468              -0.000834339               0.002299982               0.001465643               0.000000000               0.000000000               0.000000000               0.000000000              -0.000272088               0.005479967               0.000898538              -0.000787027               0.002088980               0.001301952               0.000000000               0.000000000               0.000000000               0.000000000              -0.000311867               0.004910123               0.000828247              -0.000730714               0.001880263               0.001149549               0.000000000               0.000000000               0.000000000               0.000000000              -0.000311585               0.004352142               0.000745000              -0.000660861               0.001670986               0.001010126               0.000000000               0.000000000               0.000000000               0.000000000              -0.000275320               0.003797309               0.000627594              -0.000577907               0.001458393               0.000880485               0.000000000               0.000000000               0.000000000               0.000000000              -0.000208231               0.003243436               0.000470534              -0.000483515               0.001242306               0.000758791               0.000000000               0.000000000               0.000000000               0.000000000              -0.000111460               0.002699288               0.000262932              -0.000379208               0.001026156               0.000646948               0.000000000               0.000000000               0.000000000               0.000000000              -0.000095267               0.002328574               0.000156597              -0.000326796               0.000885116               0.000558319               0.000000000               0.000000000               0.000000000               0.000000000               0.002547750               0.019710025              -0.003835229              -0.001508345               0.007072724               0.005564378               0.000000000               0.000000000               0.000000000               0.000000000               0.001465569               0.015770117              -0.001712552              -0.001421674               0.005730544               0.004308870               0.000000000               0.000000000               0.000000000               0.000000000               0.001016207               0.012888226               0.000331094              -0.001229948               0.004706015               0.003476067               0.000000000               0.000000000               0.000000000               0.000000000               0.000471768               0.011143271               0.001091848              -0.001215993               0.004119717               0.002903724               0.000000000               0.000000000               0.000000000               0.000000000               0.000035702               0.009924559               0.001348911              -0.001227179               0.003717213               0.002490034               0.000000000               0.000000000               0.000000000               0.000000000              -0.000274783               0.008981706               0.001396606              -0.001225754               0.003402456               0.002176702               0.000000000               0.000000000               0.000000000               0.000000000              -0.000477523               0.008193694               0.001355478              -0.001203280               0.003132297               0.001929017               0.000000000               0.000000000               0.000000000               0.000000000              -0.000595720               0.007501652               0.001273788              -0.001161099               0.002887559               0.001726460               0.000000000               0.000000000               0.000000000               0.000000000              -0.000649412               0.006866034               0.001178418              -0.001101781               0.002655915               0.001554134               0.000000000               0.000000000               0.000000000               0.000000000              -0.000658115               0.006276897               0.001085161              -0.001031403               0.002436079               0.001404676               0.000000000               0.000000000               0.000000000               0.000000000              -0.000642363               0.005726131               0.000996081              -0.000956650               0.002227575               0.001270924               0.000000000               0.000000000               0.000000000               0.000000000              -0.000600430               0.005212509               0.000904473              -0.000876723               0.002029727               0.001153003               0.000000000               0.000000000               0.000000000               0.000000000              -0.000521849               0.004730186               0.000795036              -0.000786965               0.001839034               0.001052069               0.000000000               0.000000000               0.000000000               0.000000000              -0.000408007               0.004279268               0.000651635              -0.000687910               0.001655711               0.000967802               0.000000000               0.000000000               0.000000000               0.000000000              -0.000272157               0.003873354               0.000474309              -0.000586227               0.001486514               0.000900287               0.000000000               0.000000000               0.000000000               0.000000000              -0.000133596               0.003527827               0.000257995              -0.000491076               0.001339622               0.000848547               0.000000000               0.000000000               0.000000000               0.000000000              -0.000086345               0.003324385               0.000148142              -0.000447927               0.001257426               0.000809500               0.000000000               0.000000000               0.000000000               0.000000000               0.002478524               0.017004880              -0.004256021              -0.001196164               0.006066957               0.004870793               0.000000000               0.000000000               0.000000000               0.000000000               0.000889216               0.014134513              -0.001921035              -0.001433356               0.005189242               0.003755886               0.000000000               0.000000000               0.000000000               0.000000000              -0.000097603               0.012249893               0.000290145              -0.001567834               0.004605868               0.003038034               0.000000000               0.000000000               0.000000000               0.000000000              -0.000723127               0.010937895               0.001052627              -0.001638406               0.004192064               0.002553658               0.000000000               0.000000000               0.000000000               0.000000000              -0.001069346               0.009910620               0.001285117              -0.001639828               0.003850116               0.002210288               0.000000000               0.000000000               0.000000000               0.000000000              -0.001231410               0.009050116               0.001310611              -0.001593040               0.003547688               0.001954649               0.000000000               0.000000000               0.000000000               0.000000000              -0.001273757               0.008295794               0.001253240              -0.001514630               0.003270113               0.001755484               0.000000000               0.000000000               0.000000000               0.000000000              -0.001237838               0.007615760               0.001161467              -0.001416156               0.003010613               0.001594457               0.000000000               0.000000000               0.000000000               0.000000000              -0.001158001               0.006997786               0.001057819              -0.001308970               0.002768895               0.001459925               0.000000000               0.000000000               0.000000000               0.000000000              -0.001051233               0.006436780               0.000960377              -0.001198807               0.002545174               0.001346367               0.000000000               0.000000000               0.000000000               0.000000000              -0.000928511               0.005930276               0.000873803              -0.001089474               0.002339897               0.001250423               0.000000000               0.000000000               0.000000000               0.000000000              -0.000793989               0.005475122               0.000781914              -0.000982134               0.002152400               0.001170266               0.000000000               0.000000000               0.000000000               0.000000000              -0.000636924               0.005064106               0.000667709              -0.000871858               0.001978638               0.001106780               0.000000000               0.000000000               0.000000000               0.000000000              -0.000463048               0.004705196               0.000528935              -0.000761791               0.001822313               0.001060522               0.000000000               0.000000000               0.000000000               0.000000000              -0.000289795               0.004419865               0.000370044              -0.000661155               0.001693658               0.001032504               0.000000000               0.000000000               0.000000000               0.000000000              -0.000136684               0.004220329               0.000192161              -0.000578796               0.001599694               0.001020898               0.000000000               0.000000000               0.000000000               0.000000000              -0.000075804               0.004128869               0.000103557              -0.000544534               0.001557787               0.001013253               0.000000000               0.000000000               0.000000000               0.000000000               0.002111065               0.014105486              -0.004188696              -0.000971537               0.005025626               0.004054089               0.000000000               0.000000000               0.000000000               0.000000000               0.000127902               0.012408060              -0.001956798              -0.001503042               0.004636992               0.003133951               0.000000000               0.000000000               0.000000000               0.000000000              -0.001283211               0.011548458               0.000124267              -0.001924757               0.004491033               0.002566277               0.000000000               0.000000000               0.000000000               0.000000000              -0.001879338               0.010638932               0.000786898              -0.002034613               0.004224479               0.002189866               0.000000000               0.000000000               0.000000000               0.000000000              -0.002065558               0.009782260               0.000970070              -0.001997362               0.003926508               0.001929146               0.000000000               0.000000000               0.000000000               0.000000000              -0.002041147               0.008995227               0.000979532              -0.001889829               0.003628322               0.001738493               0.000000000               0.000000000               0.000000000               0.000000000              -0.001902491               0.008274501               0.000923426              -0.001747742               0.003340720               0.001592978               0.000000000               0.000000000               0.000000000               0.000000000              -0.001705108               0.007616830               0.000844998              -0.001591516               0.003069423               0.001477907               0.000000000               0.000000000               0.000000000               0.000000000              -0.001488791               0.007025562               0.000761658              -0.001436488               0.002820660               0.001384172               0.000000000               0.000000000               0.000000000               0.000000000              -0.001267750               0.006502823               0.000685419              -0.001288256               0.002597005               0.001308749               0.000000000               0.000000000               0.000000000               0.000000000              -0.001047210               0.006040236               0.000620568              -0.001147730               0.002395969               0.001248238               0.000000000               0.000000000               0.000000000               0.000000000              -0.000836149               0.005631215               0.000547190              -0.001017455               0.002216205               0.001198749               0.000000000               0.000000000               0.000000000               0.000000000              -0.000624870               0.005276514               0.000448156              -0.000893888               0.002056783               0.001162895               0.000000000               0.000000000               0.000000000               0.000000000              -0.000421088               0.004989739               0.000338305              -0.000781623               0.001923771               0.001142147               0.000000000               0.000000000               0.000000000               0.000000000              -0.000243907               0.004786220               0.000224142              -0.000689741               0.001825304               0.001135563               0.000000000               0.000000000               0.000000000               0.000000000              -0.000107247               0.004669209               0.000107114              -0.000623867               0.001764343               0.001140476               0.000000000               0.000000000               0.000000000               0.000000000              -0.000053263               0.004630806               0.000051432              -0.000598823               0.001743194               0.001144371               0.000000000               0.000000000               0.000000000               0.000000000               0.001369961               0.011254508              -0.003721119              -0.000893079               0.004049157               0.003156078               0.000000000               0.000000000               0.000000000               0.000000000              -0.000782333               0.010735222              -0.001879225              -0.001635275               0.004123463               0.002488188               0.000000000               0.000000000               0.000000000               0.000000000              -0.002414872               0.010819078              -0.000171303              -0.002257956               0.004358975               0.002101019               0.000000000               0.000000000               0.000000000               0.000000000              -0.002853913               0.010242819               0.000343407              -0.002350564               0.004197760               0.001847196               0.000000000               0.000000000               0.000000000               0.000000000              -0.002820769               0.009524285               0.000486708              -0.002248319               0.003924169               0.001675851               0.000000000               0.000000000               0.000000000               0.000000000              -0.002590459               0.008803982               0.000502931              -0.002071915               0.003625269               0.001553355               0.000000000               0.000000000               0.000000000               0.000000000              -0.002271349               0.008123778               0.000474215              -0.001867223               0.003330307               0.001463083               0.000000000               0.000000000               0.000000000               0.000000000              -0.001925361               0.007498775               0.000433536              -0.001659353               0.003052684               0.001393331               0.000000000               0.000000000               0.000000000               0.000000000              -0.001588369               0.006944017               0.000393649              -0.001463637               0.002802528               0.001338891               0.000000000               0.000000000               0.000000000               0.000000000              -0.001277007               0.006458951               0.000355920              -0.001286244               0.002581710               0.001295467               0.000000000               0.000000000               0.000000000               0.000000000              -0.000990338               0.006030600               0.000323243              -0.001125199               0.002385246               0.001260047               0.000000000               0.000000000               0.000000000               0.000000000              -0.000730569               0.005654739               0.000281639              -0.000980803               0.002211829               0.001231025               0.000000000               0.000000000               0.000000000               0.000000000              -0.000498497               0.005342661               0.000216406              -0.000854767               0.002065791               0.001211025               0.000000000               0.000000000               0.000000000               0.000000000              -0.000303346               0.005106683               0.000148740              -0.000752088               0.001952907               0.001200819               0.000000000               0.000000000               0.000000000               0.000000000              -0.000157275               0.004949536               0.000087782              -0.000677668               0.001875718               0.001198050               0.000000000               0.000000000               0.000000000               0.000000000              -0.000062189               0.004864411               0.000034033              -0.000631371               0.001831911               0.001200540               0.000000000               0.000000000               0.000000000               0.000000000              -0.000031974               0.004835213               0.000012852              -0.000616390               0.001817185               0.001200795               0.000000000               0.000000000               0.000000000               0.000000000               0.000284625               0.008625989              -0.002968838              -0.000971514               0.003199138               0.002227624               0.000000000               0.000000000               0.000000000               0.000000000              -0.001786042               0.009214853              -0.001748113              -0.001821619               0.003678793               0.001857174               0.000000000               0.000000000               0.000000000               0.000000000              -0.003378593               0.010063609              -0.000586287              -0.002524917               0.004196142               0.001671224               0.000000000               0.000000000               0.000000000               0.000000000              -0.003550606               0.009740380              -0.000208769              -0.002549018               0.004096434               0.001547415               0.000000000               0.000000000               0.000000000               0.000000000              -0.003269229               0.009139094              -0.000067475              -0.002368342               0.003835781               0.001467440               0.000000000               0.000000000               0.000000000               0.000000000              -0.002840116               0.008488751              -0.000011632              -0.002126132               0.003538266               0.001412134               0.000000000               0.000000000               0.000000000               0.000000000              -0.002367157               0.007861123               0.000009799              -0.001870319               0.003243788               0.001373468               0.000000000               0.000000000               0.000000000               0.000000000              -0.001905113               0.007283618               0.000023164              -0.001624866               0.002969470               0.001344605               0.000000000               0.000000000               0.000000000               0.000000000              -0.001485157               0.006770285               0.000038408              -0.001403216               0.002724478               0.001321262               0.000000000               0.000000000               0.000000000               0.000000000              -0.001117943               0.006313492               0.000048011              -0.001208412               0.002507280               0.001298868               0.000000000               0.000000000               0.000000000               0.000000000              -0.000801635               0.005911002               0.000052454              -0.001039486               0.002316810               0.001277324               0.000000000               0.000000000               0.000000000               0.000000000              -0.000533447               0.005563557               0.000049157              -0.000895485               0.002152995               0.001257510               0.000000000               0.000000000               0.000000000               0.000000000              -0.000316499               0.005286860               0.000030262              -0.000779542               0.002022116               0.001242574               0.000000000               0.000000000               0.000000000               0.000000000              -0.000159188               0.005094232               0.000013002              -0.000696473               0.001930218               0.001233745               0.000000000               0.000000000               0.000000000               0.000000000              -0.000062358               0.004977053               0.000005970              -0.000645514               0.001874173               0.001228658               0.000000000               0.000000000               0.000000000               0.000000000              -0.000016573               0.004920600               0.000000639              -0.000621288               0.001847280               0.001225991               0.000000000               0.000000000               0.000000000               0.000000000              -0.000011555               0.004901947               0.000000620              -0.000617075               0.001839657               0.001222583               0.000000000               0.000000000               0.000000000               0.000000000              -0.000996201               0.006406133              -0.002059151              -0.001174340               0.002526802               0.001352462               0.000000000               0.000000000               0.000000000               0.000000000              -0.002761965               0.007852482              -0.001610001              -0.002017293               0.003289898               0.001272606               0.000000000               0.000000000               0.000000000               0.000000000              -0.004129106               0.009295150              -0.001088115              -0.002710302               0.004001786               0.001291484               0.000000000               0.000000000               0.000000000               0.000000000              -0.004021760               0.009234678              -0.000796527              -0.002662488               0.003965691               0.001303203               0.000000000               0.000000000               0.000000000               0.000000000              -0.003532752               0.008781122              -0.000622744              -0.002422416               0.003734483               0.001312067               0.000000000               0.000000000               0.000000000               0.000000000              -0.002944962               0.008226331              -0.000505976              -0.002132647               0.003452965               0.001320318               0.000000000               0.000000000               0.000000000               0.000000000              -0.002353895               0.007667441              -0.000420128              -0.001841136               0.003169500               0.001328364               0.000000000               0.000000000               0.000000000               0.000000000              -0.001808115               0.007145404              -0.000348452              -0.001571215               0.002905516               0.001334301               0.000000000               0.000000000               0.000000000               0.000000000              -0.001334368               0.006666439              -0.000283248              -0.001333689               0.002666687               0.001332998               0.000000000               0.000000000               0.000000000               0.000000000              -0.000936614               0.006227694              -0.000227844              -0.001129689               0.002452440               0.001322751               0.000000000               0.000000000               0.000000000               0.000000000              -0.000603826               0.005840067              -0.000182150              -0.000956441               0.002265483               0.001309042               0.000000000               0.000000000               0.000000000               0.000000000              -0.000341990               0.005505684              -0.000141571              -0.000816455               0.002107361               0.001290906               0.000000000               0.000000000               0.000000000               0.000000000              -0.000152711               0.005247926              -0.000104971              -0.000713256               0.001987043               0.001273787               0.000000000               0.000000000               0.000000000               0.000000000              -0.000032069               0.005083311              -0.000065562              -0.000647438               0.001910233               0.001262795               0.000000000               0.000000000               0.000000000               0.000000000               0.000023770               0.004996320              -0.000025502              -0.000615625               0.001870632               0.001255007               0.000000000               0.000000000               0.000000000               0.000000000               0.000030919               0.004962964               0.000000686              -0.000608774               0.001857229               0.001248455               0.000000000               0.000000000               0.000000000               0.000000000               0.000022878               0.004958023               0.000008851              -0.000611172               0.001856382               0.001245210               0.000000000               0.000000000               0.000000000               0.000000000              -0.002471060               0.004344942              -0.001110173              -0.001469762               0.001938220               0.000468458               0.000000000               0.000000000               0.000000000               0.000000000              -0.003576169               0.006258352              -0.001460278              -0.002123352               0.002793880               0.000670528               0.000000000               0.000000000               0.000000000               0.000000000              -0.004572681               0.008130843              -0.001613382              -0.002731104               0.003620622               0.000889518               0.000000000               0.000000000               0.000000000               0.000000000              -0.004318334               0.008475735              -0.001413353              -0.002678836               0.003718162               0.001039326               0.000000000               0.000000000               0.000000000               0.000000000              -0.003748312               0.008308465              -0.001204024              -0.002444169               0.003584183               0.001140014               0.000000000               0.000000000               0.000000000               0.000000000              -0.003109517               0.007962622              -0.001025725              -0.002161392               0.003374645               0.001213253               0.000000000               0.000000000               0.000000000               0.000000000              -0.002482178               0.007553604              -0.000874307              -0.001875013               0.003142847               0.001267834               0.000000000               0.000000000               0.000000000               0.000000000              -0.001904176               0.007132367              -0.000745266              -0.001605608               0.002912634               0.001307026               0.000000000               0.000000000               0.000000000               0.000000000              -0.001397493               0.006719265              -0.000633207              -0.001363965               0.002694388               0.001330423               0.000000000               0.000000000               0.000000000               0.000000000              -0.000968015               0.006326852              -0.000535225              -0.001153859               0.002493549               0.001339690               0.000000000               0.000000000               0.000000000               0.000000000              -0.000614181               0.005959434              -0.000444398              -0.000975245               0.002311540               0.001336295               0.000000000               0.000000000               0.000000000               0.000000000              -0.000333121               0.005630524              -0.000352693              -0.000828734               0.002153067               0.001324333               0.000000000               0.000000000               0.000000000               0.000000000              -0.000126733               0.005358965              -0.000258705              -0.000717394               0.002025435               0.001308041               0.000000000               0.000000000               0.000000000               0.000000000               0.000003508               0.005162124              -0.000163324              -0.000643948               0.001935340               0.001291392               0.000000000               0.000000000               0.000000000               0.000000000               0.000065034               0.005042593              -0.000078870              -0.000605935               0.001882826               0.001276891               0.000000000               0.000000000               0.000000000               0.000000000               0.000079156               0.004996360              -0.000023064              -0.000594860               0.001863723               0.001268863               0.000000000               0.000000000               0.000000000               0.000000000               0.000072509               0.004989482              -0.000002088              -0.000596493               0.001861975               0.001265482               0.000000000               0.000000000               0.000000000               0.000000000              -0.004333181               0.002484392              -0.000192695              -0.001935488               0.001473284              -0.000462205               0.000000000               0.000000000               0.000000000               0.000000000              -0.004491358               0.004647846              -0.001245852              -0.002265235               0.002304344               0.000039109               0.000000000               0.000000000               0.000000000               0.000000000              -0.004928210               0.006746837              -0.002033622              -0.002691427               0.003146065               0.000454638               0.000000000               0.000000000               0.000000000               0.000000000              -0.004543248               0.007478341              -0.001996395              -0.002638505               0.003372257               0.000733752               0.000000000               0.000000000               0.000000000               0.000000000              -0.003932938               0.007641062              -0.001790721              -0.002429979               0.003356988               0.000927009               0.000000000               0.000000000               0.000000000               0.000000000              -0.003276806               0.007546351              -0.001570627              -0.002172091               0.003239455               0.001067364               0.000000000               0.000000000               0.000000000               0.000000000              -0.002638938               0.007328108              -0.001367571              -0.001905611               0.003077882               0.001172271               0.000000000               0.000000000               0.000000000               0.000000000              -0.002039067               0.007048328              -0.001190944              -0.001645687               0.002897981               0.001252294               0.000000000               0.000000000               0.000000000               0.000000000              -0.001498186               0.006733117              -0.001038229              -0.001403456               0.002712168               0.001308712               0.000000000               0.000000000               0.000000000               0.000000000              -0.001031480               0.006406547              -0.000900360              -0.001187620               0.002531368               0.001343747               0.000000000               0.000000000               0.000000000               0.000000000              -0.000641602               0.006085405              -0.000768189              -0.001001274               0.002362206               0.001360932               0.000000000               0.000000000               0.000000000               0.000000000              -0.000319246               0.005781549              -0.000636503              -0.000842409               0.002207967               0.001365558               0.000000000               0.000000000               0.000000000               0.000000000              -0.000066028               0.005504927              -0.000496866              -0.000712875               0.002072582               0.001359708               0.000000000               0.000000000               0.000000000               0.000000000               0.000113765               0.005276752              -0.000347719              -0.000616931               0.001964543               0.001347613               0.000000000               0.000000000               0.000000000               0.000000000               0.000213158               0.005111910              -0.000203930              -0.000559053               0.001890304               0.001331251               0.000000000               0.000000000               0.000000000               0.000000000               0.000235164               0.005026528              -0.000087092              -0.000540128               0.001855535               0.001315407               0.000000000               0.000000000               0.000000000               0.000000000               0.000212361               0.004994560              -0.000031746              -0.000544683               0.001846398               0.001301715               0.000000000               0.000000000               0.000000000               0.000000000              -0.006457771               0.000980705               0.000605972              -0.002544249               0.001174977              -0.001369273               0.000000000               0.000000000               0.000000000               0.000000000              -0.005548110               0.003131803              -0.000954604              -0.002472012               0.001867925              -0.000604087               0.000000000               0.000000000               0.000000000               0.000000000              -0.005217286               0.005166438              -0.002238935              -0.002602281               0.002589555              -0.000012727               0.000000000               0.000000000               0.000000000               0.000000000              -0.004613869               0.006165061              -0.002401722              -0.002500828               0.002888608               0.000387780               0.000000000               0.000000000               0.000000000               0.000000000              -0.003949361               0.006627905              -0.002254216              -0.002309493               0.002979110               0.000669617               0.000000000               0.000000000               0.000000000               0.000000000              -0.003286451               0.006797385              -0.002031221              -0.002082088               0.002959801               0.000877713               0.000000000               0.000000000               0.000000000               0.000000000              -0.002648069               0.006802069              -0.001806810              -0.001843280               0.002881760               0.001038480               0.000000000               0.000000000               0.000000000               0.000000000              -0.002047913               0.006698224              -0.001604967              -0.001605242               0.002767799               0.001162557               0.000000000               0.000000000               0.000000000               0.000000000              -0.001493425               0.006523241              -0.001424295              -0.001375437               0.002632871               0.001257434               0.000000000               0.000000000               0.000000000               0.000000000              -0.000999083               0.006302567              -0.001257012              -0.001162475               0.002488326               0.001325851               0.000000000               0.000000000               0.000000000               0.000000000              -0.000568971               0.006062131              -0.001100218              -0.000971129               0.002344399               0.001373271               0.000000000               0.000000000               0.000000000               0.000000000              -0.000200457               0.005819974              -0.000942977              -0.000802667               0.002207527               0.001404861               0.000000000               0.000000000               0.000000000               0.000000000               0.000106581               0.005581155              -0.000774551              -0.000657675               0.002079591               0.001421916               0.000000000               0.000000000               0.000000000               0.000000000               0.000347174               0.005358414              -0.000588540              -0.000539610               0.001965990               0.001426380               0.000000000               0.000000000               0.000000000               0.000000000               0.000507286               0.005180138              -0.000385518              -0.000457284               0.001879123               0.001421839               0.000000000               0.000000000               0.000000000               0.000000000               0.000565044               0.005066130              -0.000184574              -0.000421374               0.001829151               0.001407777               0.000000000               0.000000000               0.000000000               0.000000000               0.000544061               0.005012529              -0.000082010              -0.000422542               0.001811674               0.001389132               0.000000000               0.000000000               0.000000000               0.000000000              -0.008701099              -0.000090938               0.001159434              -0.003251542               0.001053527              -0.002198015               0.000000000               0.000000000               0.000000000               0.000000000              -0.006683368               0.001791553              -0.000637863              -0.002730204               0.001507242              -0.001222962               0.000000000               0.000000000               0.000000000               0.000000000              -0.005459246               0.003523401              -0.002199121              -0.002487638               0.002003665              -0.000483973               0.000000000               0.000000000               0.000000000               0.000000000              -0.004555138               0.004645476              -0.002535002              -0.002288857               0.002311427               0.000022571               0.000000000               0.000000000               0.000000000               0.000000000              -0.003801274               0.005342806              -0.002472969              -0.002093324               0.002478691               0.000385367               0.000000000               0.000000000               0.000000000               0.000000000              -0.003125744               0.005759289              -0.002287532              -0.001892061               0.002550430               0.000658369               0.000000000               0.000000000               0.000000000               0.000000000              -0.002496120               0.005990191              -0.002074636              -0.001684815               0.002558315               0.000873499               0.000000000               0.000000000               0.000000000               0.000000000              -0.001910841               0.006085199              -0.001871371              -0.001477212               0.002520783               0.001043571               0.000000000               0.000000000               0.000000000               0.000000000              -0.001362777               0.006078142              -0.001685709              -0.001270807               0.002449629               0.001178822               0.000000000               0.000000000               0.000000000               0.000000000              -0.000851026               0.005991294              -0.001513445              -0.001068044               0.002353092               0.001285048               0.000000000               0.000000000               0.000000000               0.000000000              -0.000380621               0.005859186              -0.001349827              -0.000875130               0.002244752               0.001369622               0.000000000               0.000000000               0.000000000               0.000000000               0.000043004               0.005707209              -0.001186450              -0.000697273               0.002134808               0.001437535               0.000000000               0.000000000               0.000000000               0.000000000               0.000422499               0.005546206              -0.001012171              -0.000534838               0.002026996               0.001492158               0.000000000               0.000000000               0.000000000               0.000000000               0.000749119               0.005381583              -0.000809350              -0.000391778               0.001924435               0.001532658               0.000000000               0.000000000               0.000000000               0.000000000               0.001006583               0.005228319              -0.000566574              -0.000276071               0.001834779               0.001558708               0.000000000               0.000000000               0.000000000               0.000000000               0.001167764               0.005102569              -0.000290369              -0.000199909               0.001767476               0.001567567               0.000000000               0.000000000               0.000000000               0.000000000               0.001214508               0.005044095              -0.000145596              -0.000175071               0.001739705               0.001564634               0.000000000               0.000000000               0.000000000               0.000000000              -0.010843525              -0.000764283               0.001366330              -0.003970784               0.001068826              -0.002901958               0.000000000               0.000000000               0.000000000               0.000000000              -0.007800847               0.000697644              -0.000356799              -0.003012520               0.001236713              -0.001775807               0.000000000               0.000000000               0.000000000               0.000000000              -0.005670274               0.001984876              -0.001910927              -0.002374459               0.001453101              -0.000921358               0.000000000               0.000000000               0.000000000               0.000000000              -0.004413680               0.003102609              -0.002336423              -0.002042953               0.001715175              -0.000327778               0.000000000               0.000000000               0.000000000               0.000000000              -0.003534396               0.003949269              -0.002352461              -0.001819054               0.001922760               0.000103706               0.000000000               0.000000000               0.000000000               0.000000000              -0.002828380               0.004562611              -0.002224890              -0.001630966               0.002064509               0.000433544               0.000000000               0.000000000               0.000000000               0.000000000              -0.002207514               0.004991596              -0.002048043              -0.001451765               0.002147769               0.000696005               0.000000000               0.000000000               0.000000000               0.000000000              -0.001641099               0.005272279              -0.001868448              -0.001274445               0.002182223               0.000907778               0.000000000               0.000000000               0.000000000               0.000000000              -0.001106133               0.005430255              -0.001703047              -0.001093580               0.002174593               0.001081013               0.000000000               0.000000000               0.000000000               0.000000000              -0.000588336               0.005490366              -0.001549245              -0.000906920               0.002132410               0.001225490               0.000000000               0.000000000               0.000000000               0.000000000              -0.000087206               0.005487008              -0.001401489              -0.000718577               0.002068510               0.001349933               0.000000000               0.000000000               0.000000000               0.000000000               0.000394254               0.005447559              -0.001255967              -0.000533099               0.001993534               0.001460435               0.000000000               0.000000000               0.000000000               0.000000000               0.000853917               0.005387157              -0.001099480              -0.000353176               0.001913426               0.001560250               0.000000000               0.000000000               0.000000000               0.000000000               0.001289636               0.005312931              -0.000909105              -0.000180503               0.001831127               0.001650624               0.000000000               0.000000000               0.000000000               0.000000000               0.001691095               0.005218562              -0.000666814              -0.000018160               0.001745556               0.001727396               0.000000000               0.000000000               0.000000000               0.000000000               0.002037446               0.005111961              -0.000360097               0.000125046               0.001662288               0.001787334               0.000000000               0.000000000               0.000000000               0.000000000               0.002236930               0.005075834              -0.000198736               0.000204367               0.001623805               0.001828173               0.000000000               0.000000000               0.000000000               0.000000000              -0.012630631              -0.001116036               0.001195034              -0.004596979               0.001160306              -0.003436673               0.000000000               0.000000000               0.000000000               0.000000000              -0.008763937              -0.000095421              -0.000156436              -0.003274546               0.001059701              -0.002214845               0.000000000               0.000000000               0.000000000               0.000000000              -0.005849581               0.000728769              -0.001407535              -0.002284686               0.001004478              -0.001280209               0.000000000               0.000000000               0.000000000               0.000000000              -0.004251328               0.001755999              -0.001799201              -0.001813745               0.001189906              -0.000623839               0.000000000               0.000000000               0.000000000               0.000000000              -0.003230796               0.002669980              -0.001854922              -0.001545293               0.001405081              -0.000140213               0.000000000               0.000000000               0.000000000               0.000000000              -0.002481396               0.003414505              -0.001782260              -0.001357334               0.001590601               0.000233267               0.000000000               0.000000000               0.000000000               0.000000000              -0.001861414               0.003992360              -0.001657259              -0.001197073               0.001729797               0.000532724               0.000000000               0.000000000               0.000000000               0.000000000              -0.001306454               0.004419134              -0.001523014              -0.001042310               0.001820466               0.000778156               0.000000000               0.000000000               0.000000000               0.000000000              -0.000787552               0.004715866              -0.001399035              -0.000884814               0.001866877               0.000982063               0.000000000               0.000000000               0.000000000               0.000000000              -0.000279579               0.004917630              -0.001283280              -0.000719545               0.001879041               0.001159497               0.000000000               0.000000000               0.000000000               0.000000000               0.000237463               0.005051787              -0.001171970              -0.000542424               0.001864720               0.001322296               0.000000000               0.000000000               0.000000000               0.000000000               0.000764236               0.005135241              -0.001062757              -0.000355316               0.001830168               0.001474852               0.000000000               0.000000000               0.000000000               0.000000000               0.001298426               0.005182879              -0.000946821              -0.000160950               0.001781259               0.001620309               0.000000000               0.000000000               0.000000000               0.000000000               0.001846107               0.005197039              -0.000804407               0.000042659               0.001718109               0.001760768               0.000000000               0.000000000               0.000000000               0.000000000               0.002407605               0.005164788              -0.000610990               0.000257251               0.001635828               0.001893079               0.000000000               0.000000000               0.000000000               0.000000000               0.002982607               0.005092855              -0.000341880               0.000481866               0.001536979               0.002018845               0.000000000               0.000000000               0.000000000               0.000000000               0.003387159               0.005092493              -0.000200774               0.000633617               0.001486275               0.002119892               0.000000000               0.000000000               0.000000000               0.000000000              -0.013826592              -0.001254909               0.000694382              -0.005028105               0.001257724              -0.003770382               0.000000000               0.000000000               0.000000000               0.000000000              -0.009423265              -0.000566902              -0.000048030              -0.003462859               0.000965312              -0.002497547               0.000000000               0.000000000               0.000000000               0.000000000              -0.005972892              -0.000094920              -0.000746579              -0.002227968               0.000711011              -0.001516957               0.000000000               0.000000000               0.000000000               0.000000000              -0.004123117               0.000829707              -0.000980788              -0.001649880               0.000826523              -0.000823357               0.000000000               0.000000000               0.000000000               0.000000000              -0.002990209               0.001757435              -0.001025449              -0.001341005               0.001032806              -0.000308199               0.000000000               0.000000000               0.000000000               0.000000000              -0.002202101               0.002572951              -0.000994403              -0.001147404               0.001240109               0.000092705               0.000000000               0.000000000               0.000000000               0.000000000              -0.001581779               0.003243931              -0.000931782              -0.000998656               0.001414185               0.000415528               0.000000000               0.000000000               0.000000000               0.000000000              -0.001039069               0.003764440              -0.000861251              -0.000860204               0.001541535               0.000681331               0.000000000               0.000000000               0.000000000               0.000000000              -0.000533572               0.004157091              -0.000792241              -0.000719724               0.001625591               0.000905867               0.000000000               0.000000000               0.000000000               0.000000000              -0.000033910               0.004461928              -0.000729658              -0.000570456               0.001677446               0.001106990               0.000000000               0.000000000               0.000000000               0.000000000               0.000485282               0.004704564              -0.000671461              -0.000406089               0.001703535               0.001297446               0.000000000               0.000000000               0.000000000               0.000000000               0.001036638               0.004891962              -0.000611971              -0.000222756               0.001704890               0.001482134               0.000000000               0.000000000               0.000000000               0.000000000               0.001624718               0.005024311              -0.000549952              -0.000018770               0.001681010               0.001662240               0.000000000               0.000000000               0.000000000               0.000000000               0.002257220               0.005098486              -0.000474325               0.000209145               0.001629763               0.001838908               0.000000000               0.000000000               0.000000000               0.000000000               0.002948557               0.005110176              -0.000367691               0.000466932               0.001547731               0.002014663               0.000000000               0.000000000               0.000000000               0.000000000               0.003725376               0.005069588              -0.000210711               0.000763310               0.001435409               0.002198719               0.000000000               0.000000000               0.000000000               0.000000000               0.004320097               0.005102862              -0.000128970               0.000982169               0.001373547               0.002355716               0.000000000               0.000000000               0.000000000               0.000000000               0.000000000               0.000000000               0.000000000               0.000000000               0.000000000               0.000000000               0.000000000               0.000000000               0.000000000               0.000000000               0.000000000               0.000000000               0.000000000               0.000000000               0.000000000               0.000000000               0.000000000               0.000000000               0.000000000               0.000000000               0.000000000               0.000000000               0.000000000               0.000000000               0.000000000               0.000000000               0.000000000               0.000000000               0.000000000               0.000000000               0.000000000               0.000000000               0.000000000               0.000000000               0.000000000               0.000000000               0.000000000               0.000000000               0.000000000               0.000000000               0.000000000               0.000000000               0.000000000               0.000000000               0.000000000               0.000000000               0.000000000               0.000000000               0.000000000               0.000000000               0.000000000               0.000000000               0.000000000               0.000000000               0.000000000               0.000000000               0.000000000               0.000000000               0.000000000               0.000000000               0.000000000               0.000000000               0.000000000               0.000000000               0.000000000               0.000000000               0.000000000               0.000000000               0.000000000               0.000000000               0.000000000               0.000000000               0.000000000               0.000000000               0.000000000               0.000000000               0.000000000               0.000000000               0.000000000               0.000000000               0.000000000               0.000000000               0.000000000               0.000000000               0.000000000               0.000000000               0.000000000               0.000000000               0.000000000               0.000000000               0.000000000               0.000000000               0.000000000               0.000000000               0.000000000               0.000000000               0.000000000               0.000000000               0.000000000               0.000000000               0.000000000               0.000000000               0.000000000               0.000000000               0.000000000               0.000000000               0.000000000               0.000000000               0.000000000               0.000000000               0.000000000               0.000000000               0.000000000               0.000000000               0.000000000               0.000000000               0.000000000               0.000000000               0.000000000               0.000000000               0.000000000               0.000000000               0.000000000               0.000000000               0.000000000               0.000000000               0.000000000               0.000000000               0.000000000               0.000000000               0.000000000               0.000000000               0.000000000               0.000000000               0.000000000               0.000000000               0.000000000               0.000000000               0.000000000               0.000000000               0.000000000               0.000000000               0.000000000               0.000000000               0.000000000               0.000000000               0.000000000               0.000000000               0.000000000               0.000000000               0.000000000               0.000000000               0.000000000               0.000000000               0.000000000               0.000000000               0.000000000               0.000000000               0.000000000               0.000000000               0.000000000               0.000000000               0.000000000               0.000000000               0.000000000               0.000000000               0.000000000               0.000000000               0.000000000               0.000000000               0.000000000               0.000000000               0.000000000               0.000000000               0.000000000               0.000000000               0.000000000               0.000000000               0.000000000               0.000000000               0.000000000               0.000000000               0.000000000               0.000000000               0.000000000               0.000000000               0.000000000               0.000000000               0.000000000               0.000000000               0.000000000               0.000000000               0.000000000               0.000000000               0.000000000               0.000000000               0.000000000               0.000000000               0.000000000               0.000000000               0.000000000               0.000000000               0.000000000               0.000000000               0.000000000               0.000000000               0.000000000               0.000000000               0.000000000               0.000000000               0.000000000               0.000000000               0.000000000               0.000000000               0.000000000               0.000000000               0.000000000               0.000000000               0.000000000               0.000000000               0.000000000               0.000000000               0.000000000               0.000000000               0.000000000               0.000000000               0.000000000               0.000000000               0.000000000               0.000000000               0.000000000               0.000000000               0.000000000               0.000000000               0.000000000               0.000000000               0.000000000               0.000000000               0.000000000               0.000000000               0.000000000               0.000000000               0.000000000               0.000000000               0.000000000               0.000000000               0.000000000               0.000000000               0.000000000               0.000000000               0.000000000               0.000000000               0.000000000               0.000000000               0.000000000               0.000000000               0.000000000               0.000000000               0.000000000               0.000000000               0.000000000               0.000000000               0.000000000               0.000000000               0.000000000               0.000000000               0.000000000               0.000000000               0.000000000               0.000000000               0.000000000               0.000000000               0.000000000               0.000000000               0.000000000               0.000000000               0.000000000               0.000000000               0.000000000               0.000000000               0.000000000               0.000000000               0.000000000               0.000000000               0.000000000               0.000000000               0.000000000               0.000000000               0.000000000               0.000000000               0.000000000               0.000000000               0.000000000               0.000000000               0.000000000               0.000000000               0.000000000               0.000000000               0.000000000               0.000000000               0.000000000               0.000000000               0.000000000               0.000000000               0.000000000               0.000000000               0.000000000               0.000000000               0.000000000               0.000000000               0.000000000               0.000000000               0.000000000               0.000000000               0.000000000               0.000000000               0.000000000               0.000000000               0.000000000               0.000000000               0.000000000               0.000000000               0.000000000               0.000000000               0.000000000               0.000000000               0.000000000               0.000000000               0.000000000               0.000000000               0.000000000               0.000000000               0.000000000               0.000000000               0.000000000               0.000000000               0.000000000               0.000000000               0.000000000               0.000000000               0.002297408               0.023394089               0.001576754              -0.002062728               0.008485528               0.006422799               0.000000000               0.000000000               0.000000000               0.000000000               0.002068868               0.018048498               0.000705756              -0.001480233               0.006509517               0.005029284               0.000000000               0.000000000               0.000000000               0.000000000               0.002523295               0.013763111              -0.000154494              -0.000774151               0.004845708               0.004071557               0.000000000               0.000000000               0.000000000               0.000000000               0.002237099               0.011350277              -0.000508374              -0.000579871               0.003976678               0.003396807               0.000000000               0.000000000               0.000000000               0.000000000               0.001770973               0.009819267              -0.000643685              -0.000563292               0.003460820               0.002897528               0.000000000               0.000000000               0.000000000               0.000000000               0.001307697               0.008732949              -0.000680520              -0.000601231               0.003111364               0.002510133               0.000000000               0.000000000               0.000000000               0.000000000               0.000908739               0.007883969              -0.000673314              -0.000644718               0.002842869               0.002198151               0.000000000               0.000000000               0.000000000               0.000000000               0.000591038               0.007160448              -0.000646945              -0.000673415               0.002611264               0.001937849               0.000000000               0.000000000               0.000000000               0.000000000               0.000349343               0.006505355              -0.000613334              -0.000682164               0.002395818               0.001713654               0.000000000               0.000000000               0.000000000               0.000000000               0.000171106               0.005880932              -0.000578159              -0.000670950               0.002183941               0.001512991               0.000000000               0.000000000               0.000000000               0.000000000               0.000042686               0.005271519              -0.000542512              -0.000642931               0.001971466               0.001328535               0.000000000               0.000000000               0.000000000               0.000000000              -0.000053640               0.004662419              -0.000507166              -0.000602916               0.001755096               0.001152180               0.000000000               0.000000000               0.000000000               0.000000000              -0.000116479               0.004046630              -0.000464976              -0.000549507               0.001532032               0.000982525               0.000000000               0.000000000               0.000000000               0.000000000              -0.000140947               0.003409194              -0.000401671              -0.000479003               0.001296054               0.000817051               0.000000000               0.000000000               0.000000000               0.000000000              -0.000127941               0.002728620              -0.000309987              -0.000389054               0.001039215               0.000650161               0.000000000               0.000000000               0.000000000               0.000000000              -0.000075691               0.001989631              -0.000178644              -0.000277087               0.000755566               0.000478479               0.000000000               0.000000000               0.000000000               0.000000000              -0.000098083               0.001439665              -0.000110770              -0.000216739               0.000552130               0.000335391               0.000000000               0.000000000               0.000000000               0.000000000               0.002441616               0.021932380               0.002914207              -0.001825938               0.007919366               0.006093428               0.000000000               0.000000000               0.000000000               0.000000000               0.001855071               0.017135774               0.001300904              -0.001446317               0.006193973               0.004747656               0.000000000               0.000000000               0.000000000               0.000000000               0.001930331               0.013412818              -0.000274928              -0.000952726               0.004788470               0.003835744               0.000000000               0.000000000               0.000000000               0.000000000               0.001520439               0.011275711              -0.000897948              -0.000839297               0.004038298               0.003199001               0.000000000               0.000000000               0.000000000               0.000000000               0.001051045               0.009874414              -0.001125279              -0.000840158               0.003571491               0.002731333               0.000000000               0.000000000               0.000000000               0.000000000               0.000640385               0.008849465              -0.001181162              -0.000866037               0.003238471               0.002372434               0.000000000               0.000000000               0.000000000               0.000000000               0.000316608               0.008028999              -0.001160033              -0.000884895               0.002971271               0.002086376               0.000000000               0.000000000               0.000000000               0.000000000               0.000076353               0.007321725              -0.001104914              -0.000886581               0.002736078               0.001849496               0.000000000               0.000000000               0.000000000               0.000000000              -0.000093321               0.006675792              -0.001036076              -0.000869468               0.002515064               0.001645597               0.000000000               0.000000000               0.000000000               0.000000000              -0.000203020               0.006065668              -0.000966468              -0.000834339               0.002299982               0.001465643               0.000000000               0.000000000               0.000000000               0.000000000              -0.000272088               0.005479967              -0.000898538              -0.000787027               0.002088980               0.001301952               0.000000000               0.000000000               0.000000000               0.000000000              -0.000311867               0.004910123              -0.000828247              -0.000730714               0.001880263               0.001149549               0.000000000               0.000000000               0.000000000               0.000000000              -0.000311585               0.004352142              -0.000745000              -0.000660861               0.001670986               0.001010126               0.000000000               0.000000000               0.000000000               0.000000000              -0.000275320               0.003797309              -0.000627594              -0.000577907               0.001458393               0.000880485               0.000000000               0.000000000               0.000000000               0.000000000              -0.000208231               0.003243436              -0.000470534              -0.000483515               0.001242306               0.000758791               0.000000000               0.000000000               0.000000000               0.000000000              -0.000111460               0.002699288              -0.000262932              -0.000379208               0.001026156               0.000646948               0.000000000               0.000000000               0.000000000               0.000000000              -0.000095267               0.002328574              -0.000156597              -0.000326796               0.000885116               0.000558319               0.000000000               0.000000000               0.000000000               0.000000000               0.002547750               0.019710025               0.003835229              -0.001508345               0.007072724               0.005564378               0.000000000               0.000000000               0.000000000               0.000000000               0.001465569               0.015770117               0.001712552              -0.001421674               0.005730544               0.004308870               0.000000000               0.000000000               0.000000000               0.000000000               0.001016207               0.012888226              -0.000331094              -0.001229948               0.004706015               0.003476067               0.000000000               0.000000000               0.000000000               0.000000000               0.000471768               0.011143271              -0.001091848              -0.001215993               0.004119717               0.002903724               0.000000000               0.000000000               0.000000000               0.000000000               0.000035702               0.009924559              -0.001348911              -0.001227179               0.003717213               0.002490034               0.000000000               0.000000000               0.000000000               0.000000000              -0.000274783               0.008981706              -0.001396606              -0.001225754               0.003402456               0.002176702               0.000000000               0.000000000               0.000000000               0.000000000              -0.000477523               0.008193694              -0.001355478              -0.001203280               0.003132297               0.001929017               0.000000000               0.000000000               0.000000000               0.000000000              -0.000595720               0.007501652              -0.001273788              -0.001161099               0.002887559               0.001726460               0.000000000               0.000000000               0.000000000               0.000000000              -0.000649412               0.006866034              -0.001178418              -0.001101781               0.002655915               0.001554134               0.000000000               0.000000000               0.000000000               0.000000000              -0.000658115               0.006276897              -0.001085161              -0.001031403               0.002436079               0.001404676               0.000000000               0.000000000               0.000000000               0.000000000              -0.000642363               0.005726131              -0.000996081              -0.000956650               0.002227575               0.001270924               0.000000000               0.000000000               0.000000000               0.000000000              -0.000600430               0.005212509              -0.000904473              -0.000876723               0.002029727               0.001153003               0.000000000               0.000000000               0.000000000               0.000000000              -0.000521849               0.004730186              -0.000795036              -0.000786965               0.001839034               0.001052069               0.000000000               0.000000000               0.000000000               0.000000000              -0.000408007               0.004279268              -0.000651635              -0.000687910               0.001655711               0.000967802               0.000000000               0.000000000               0.000000000               0.000000000              -0.000272157               0.003873354              -0.000474309              -0.000586227               0.001486514               0.000900287               0.000000000               0.000000000               0.000000000               0.000000000              -0.000133596               0.003527827              -0.000257995              -0.000491076               0.001339622               0.000848547               0.000000000               0.000000000               0.000000000               0.000000000              -0.000086345               0.003324385              -0.000148142              -0.000447927               0.001257426               0.000809500               0.000000000               0.000000000               0.000000000               0.000000000               0.002478524               0.017004880               0.004256021              -0.001196164               0.006066957               0.004870793               0.000000000               0.000000000               0.000000000               0.000000000               0.000889216               0.014134513               0.001921035              -0.001433356               0.005189242               0.003755886               0.000000000               0.000000000               0.000000000               0.000000000              -0.000097603               0.012249893              -0.000290145              -0.001567834               0.004605868               0.003038034               0.000000000               0.000000000               0.000000000               0.000000000              -0.000723127               0.010937895              -0.001052627              -0.001638406               0.004192064               0.002553658               0.000000000               0.000000000               0.000000000               0.000000000              -0.001069346               0.009910620              -0.001285117              -0.001639828               0.003850116               0.002210288               0.000000000               0.000000000               0.000000000               0.000000000              -0.001231410               0.009050116              -0.001310611              -0.001593040               0.003547688               0.001954649               0.000000000               0.000000000               0.000000000               0.000000000              -0.001273757               0.008295794              -0.001253240              -0.001514630               0.003270113               0.001755484               0.000000000               0.000000000               0.000000000               0.000000000              -0.001237838               0.007615760              -0.001161467              -0.001416156               0.003010613               0.001594457               0.000000000               0.000000000               0.000000000               0.000000000              -0.001158001               0.006997786              -0.001057819              -0.001308970               0.002768895               0.001459925               0.000000000               0.000000000               0.000000000               0.000000000              -0.001051233               0.006436780              -0.000960377              -0.001198807               0.002545174               0.001346367               0.000000000               0.000000000               0.000000000               0.000000000              -0.000928511               0.005930276              -0.000873803              -0.001089474               0.002339897               0.001250423               0.000000000               0.000000000               0.000000000               0.000000000              -0.000793989               0.005475122              -0.000781914              -0.000982134               0.002152400               0.001170266               0.000000000               0.000000000               0.000000000               0.000000000              -0.000636924               0.005064106              -0.000667709              -0.000871858               0.001978638               0.001106780               0.000000000               0.000000000               0.000000000               0.000000000              -0.000463048               0.004705196              -0.000528935              -0.000761791               0.001822313               0.001060522               0.000000000               0.000000000               0.000000000               0.000000000              -0.000289795               0.004419865              -0.000370044              -0.000661155               0.001693658               0.001032504               0.000000000               0.000000000               0.000000000               0.000000000              -0.000136684               0.004220329              -0.000192161              -0.000578796               0.001599694               0.001020898               0.000000000               0.000000000               0.000000000               0.000000000              -0.000075804               0.004128869              -0.000103557              -0.000544534               0.001557787               0.001013253               0.000000000               0.000000000               0.000000000               0.000000000               0.002111065               0.014105486               0.004188696              -0.000971537               0.005025626               0.004054089               0.000000000               0.000000000               0.000000000               0.000000000               0.000127902               0.012408060               0.001956798              -0.001503042               0.004636992               0.003133951               0.000000000               0.000000000               0.000000000               0.000000000              -0.001283211               0.011548458              -0.000124267              -0.001924757               0.004491033               0.002566277               0.000000000               0.000000000               0.000000000               0.000000000              -0.001879338               0.010638932              -0.000786898              -0.002034613               0.004224479               0.002189866               0.000000000               0.000000000               0.000000000               0.000000000              -0.002065558               0.009782260              -0.000970070              -0.001997362               0.003926508               0.001929146               0.000000000               0.000000000               0.000000000               0.000000000              -0.002041147               0.008995227              -0.000979532              -0.001889829               0.003628322               0.001738493               0.000000000               0.000000000               0.000000000               0.000000000              -0.001902491               0.008274501              -0.000923426              -0.001747742               0.003340720               0.001592978               0.000000000               0.000000000               0.000000000               0.000000000              -0.001705108               0.007616830              -0.000844998              -0.001591516               0.003069423               0.001477907               0.000000000               0.000000000               0.000000000               0.000000000              -0.001488791               0.007025562              -0.000761658              -0.001436488               0.002820660               0.001384172               0.000000000               0.000000000               0.000000000               0.000000000              -0.001267750               0.006502823              -0.000685419              -0.001288256               0.002597005               0.001308749               0.000000000               0.000000000               0.000000000               0.000000000              -0.001047210               0.006040236              -0.000620568              -0.001147730               0.002395969               0.001248238               0.000000000               0.000000000               0.000000000               0.000000000              -0.000836149               0.005631215              -0.000547190              -0.001017455               0.002216205               0.001198749               0.000000000               0.000000000               0.000000000               0.000000000              -0.000624870               0.005276514              -0.000448156              -0.000893888               0.002056783               0.001162895               0.000000000               0.000000000               0.000000000               0.000000000              -0.000421088               0.004989739              -0.000338305              -0.000781623               0.001923771               0.001142147               0.000000000               0.000000000               0.000000000               0.000000000              -0.000243907               0.004786220              -0.000224142              -0.000689741               0.001825304               0.001135563               0.000000000               0.000000000               0.000000000               0.000000000              -0.000107247               0.004669209              -0.000107114              -0.000623867               0.001764343               0.001140476               0.000000000               0.000000000               0.000000000               0.000000000              -0.000053263               0.004630806              -0.000051432              -0.000598823               0.001743194               0.001144371               0.000000000               0.000000000               0.000000000               0.000000000               0.001369961               0.011254508               0.003721119              -0.000893079               0.004049157               0.003156078               0.000000000               0.000000000               0.000000000               0.000000000              -0.000782333               0.010735222               0.001879225              -0.001635275               0.004123463               0.002488188               0.000000000               0.000000000               0.000000000               0.000000000              -0.002414872               0.010819078               0.000171303              -0.002257956               0.004358975               0.002101019               0.000000000               0.000000000               0.000000000               0.000000000              -0.002853913               0.010242819              -0.000343407              -0.002350564               0.004197760               0.001847196               0.000000000               0.000000000               0.000000000               0.000000000              -0.002820769               0.009524285              -0.000486708              -0.002248319               0.003924169               0.001675851               0.000000000               0.000000000               0.000000000               0.000000000              -0.002590459               0.008803982              -0.000502931              -0.002071915               0.003625269               0.001553355               0.000000000               0.000000000               0.000000000               0.000000000              -0.002271349               0.008123778              -0.000474215              -0.001867223               0.003330307               0.001463083               0.000000000               0.000000000               0.000000000               0.000000000              -0.001925361               0.007498775              -0.000433536              -0.001659353               0.003052684               0.001393331               0.000000000               0.000000000               0.000000000               0.000000000              -0.001588369               0.006944017              -0.000393649              -0.001463637               0.002802528               0.001338891               0.000000000               0.000000000               0.000000000               0.000000000              -0.001277007               0.006458951              -0.000355920              -0.001286244               0.002581710               0.001295467               0.000000000               0.000000000               0.000000000               0.000000000              -0.000990338               0.006030600              -0.000323243              -0.001125199               0.002385246               0.001260047               0.000000000               0.000000000               0.000000000               0.000000000              -0.000730569               0.005654739              -0.000281639              -0.000980803               0.002211829               0.001231025               0.000000000               0.000000000               0.000000000               0.000000000              -0.000498497               0.005342661              -0.000216406              -0.000854767               0.002065791               0.001211025               0.000000000               0.000000000               0.000000000               0.000000000              -0.000303346               0.005106683              -0.000148740              -0.000752088               0.001952907               0.001200819               0.000000000               0.000000000               0.000000000               0.000000000              -0.000157275               0.004949536              -0.000087782              -0.000677668               0.001875718               0.001198050               0.000000000               0.000000000               0.000000000               0.000000000              -0.000062189               0.004864411              -0.000034033              -0.000631371               0.001831911               0.001200540               0.000000000               0.000000000               0.000000000               0.000000000              -0.000031974               0.004835213              -0.000012852              -0.000616390               0.001817185               0.001200795               0.000000000               0.000000000               0.000000000               0.000000000               0.000284625               0.008625989               0.002968838              -0.000971514               0.003199138               0.002227624               0.000000000               0.000000000               0.000000000               0.000000000              -0.001786042               0.009214853               0.001748113              -0.001821619               0.003678793               0.001857174               0.000000000               0.000000000               0.000000000               0.000000000              -0.003378593               0.010063609               0.000586287              -0.002524917               0.004196142               0.001671224               0.000000000               0.000000000               0.000000000               0.000000000              -0.003550606               0.009740380               0.000208769              -0.002549018               0.004096434               0.001547415               0.000000000               0.000000000               0.000000000               0.000000000              -0.003269229               0.009139094               0.000067475              -0.002368342               0.003835781               0.001467440               0.000000000               0.000000000               0.000000000               0.000000000              -0.002840116               0.008488751               0.000011632              -0.002126132               0.003538266               0.001412134               0.000000000               0.000000000               0.000000000               0.000000000              -0.002367157               0.007861123              -0.000009799              -0.001870319               0.003243788               0.001373468               0.000000000               0.000000000               0.000000000               0.000000000              -0.001905113               0.007283618              -0.000023164              -0.001624866               0.002969470               0.001344605               0.000000000               0.000000000               0.000000000               0.000000000              -0.001485157               0.006770285              -0.000038408              -0.001403216               0.002724478               0.001321262               0.000000000               0.000000000               0.000000000               0.000000000              -0.001117943               0.006313492              -0.000048011              -0.001208412               0.002507280               0.001298868               0.000000000               0.000000000               0.000000000               0.000000000              -0.000801635               0.005911002              -0.000052454              -0.001039486               0.002316810               0.001277324               0.000000000               0.000000000               0.000000000               0.000000000              -0.000533447               0.005563557              -0.000049157              -0.000895485               0.002152995               0.001257510               0.000000000               0.000000000               0.000000000               0.000000000              -0.000316499               0.005286860              -0.000030262              -0.000779542               0.002022116               0.001242574               0.000000000               0.000000000               0.000000000               0.000000000              -0.000159188               0.005094232              -0.000013002              -0.000696473               0.001930218               0.001233745               0.000000000               0.000000000               0.000000000               0.000000000              -0.000062358               0.004977053              -0.000005970              -0.000645514               0.001874173               0.001228658               0.000000000               0.000000000               0.000000000               0.000000000              -0.000016573               0.004920600              -0.000000639              -0.000621288               0.001847280               0.001225991               0.000000000               0.000000000               0.000000000               0.000000000              -0.000011555               0.004901947              -0.000000620              -0.000617075               0.001839657               0.001222583               0.000000000               0.000000000               0.000000000               0.000000000              -0.000996201               0.006406133               0.002059151              -0.001174340               0.002526802               0.001352462               0.000000000               0.000000000               0.000000000               0.000000000              -0.002761965               0.007852482               0.001610001              -0.002017293               0.003289898               0.001272606               0.000000000               0.000000000               0.000000000               0.000000000              -0.004129106               0.009295150               0.001088115              -0.002710302               0.004001786               0.001291484               0.000000000               0.000000000               0.000000000               0.000000000              -0.004021760               0.009234678               0.000796527              -0.002662488               0.003965691               0.001303203               0.000000000               0.000000000               0.000000000               0.000000000              -0.003532752               0.008781122               0.000622744              -0.002422416               0.003734483               0.001312067               0.000000000               0.000000000               0.000000000               0.000000000              -0.002944962               0.008226331               0.000505976              -0.002132647               0.003452965               0.001320318               0.000000000               0.000000000               0.000000000               0.000000000              -0.002353895               0.007667441               0.000420128              -0.001841136               0.003169500               0.001328364               0.000000000               0.000000000               0.000000000               0.000000000              -0.001808115               0.007145404               0.000348452              -0.001571215               0.002905516               0.001334301               0.000000000               0.000000000               0.000000000               0.000000000              -0.001334368               0.006666439               0.000283248              -0.001333689               0.002666687               0.001332998               0.000000000               0.000000000               0.000000000               0.000000000              -0.000936614               0.006227694               0.000227844              -0.001129689               0.002452440               0.001322751               0.000000000               0.000000000               0.000000000               0.000000000              -0.000603826               0.005840067               0.000182150              -0.000956441               0.002265483               0.001309042               0.000000000               0.000000000               0.000000000               0.000000000              -0.000341990               0.005505684               0.000141571              -0.000816455               0.002107361               0.001290906               0.000000000               0.000000000               0.000000000               0.000000000              -0.000152711               0.005247926               0.000104971              -0.000713256               0.001987043               0.001273787               0.000000000               0.000000000               0.000000000               0.000000000              -0.000032069               0.005083311               0.000065562              -0.000647438               0.001910233               0.001262795               0.000000000               0.000000000               0.000000000               0.000000000               0.000023770               0.004996320               0.000025502              -0.000615625               0.001870632               0.001255007               0.000000000               0.000000000               0.000000000               0.000000000               0.000030919               0.004962964              -0.000000686              -0.000608774               0.001857229               0.001248455               0.000000000               0.000000000               0.000000000               0.000000000               0.000022878               0.004958023              -0.000008851              -0.000611172               0.001856382               0.001245210               0.000000000               0.000000000               0.000000000               0.000000000              -0.002471060               0.004344942               0.001110173              -0.001469762               0.001938220               0.000468458               0.000000000               0.000000000               0.000000000               0.000000000              -0.003576169               0.006258352               0.001460278              -0.002123352               0.002793880               0.000670528               0.000000000               0.000000000               0.000000000               0.000000000              -0.004572681               0.008130843               0.001613382              -0.002731104               0.003620622               0.000889518               0.000000000               0.000000000               0.000000000               0.000000000              -0.004318334               0.008475735               0.001413353              -0.002678836               0.003718162               0.001039326               0.000000000               0.000000000               0.000000000               0.000000000              -0.003748312               0.008308465               0.001204024              -0.002444169               0.003584183               0.001140014               0.000000000               0.000000000               0.000000000               0.000000000              -0.003109517               0.007962622               0.001025725              -0.002161392               0.003374645               0.001213253               0.000000000               0.000000000               0.000000000               0.000000000              -0.002482178               0.007553604               0.000874307              -0.001875013               0.003142847               0.001267834               0.000000000               0.000000000               0.000000000               0.000000000              -0.001904176               0.007132367               0.000745266              -0.001605608               0.002912634               0.001307026               0.000000000               0.000000000               0.000000000               0.000000000              -0.001397493               0.006719265               0.000633207              -0.001363965               0.002694388               0.001330423               0.000000000               0.000000000               0.000000000               0.000000000              -0.000968015               0.006326852               0.000535225              -0.001153859               0.002493549               0.001339690               0.000000000               0.000000000               0.000000000               0.000000000              -0.000614181               0.005959434               0.000444398              -0.000975245               0.002311540               0.001336295               0.000000000               0.000000000               0.000000000               0.000000000              -0.000333121               0.005630524               0.000352693              -0.000828734               0.002153067               0.001324333               0.000000000               0.000000000               0.000000000               0.000000000              -0.000126733               0.005358965               0.000258705              -0.000717394               0.002025435               0.001308041               0.000000000               0.000000000               0.000000000               0.000000000               0.000003508               0.005162124               0.000163324              -0.000643948               0.001935340               0.001291392               0.000000000               0.000000000               0.000000000               0.000000000               0.000065034               0.005042593               0.000078870              -0.000605935               0.001882826               0.001276891               0.000000000               0.000000000               0.000000000               0.000000000               0.000079156               0.004996360               0.000023064              -0.000594860               0.001863723               0.001268863               0.000000000               0.000000000               0.000000000               0.000000000               0.000072509               0.004989482               0.000002088              -0.000596493               0.001861975               0.001265482               0.000000000               0.000000000               0.000000000               0.000000000              -0.004333181               0.002484392               0.000192695              -0.001935488               0.001473284              -0.000462205               0.000000000               0.000000000               0.000000000               0.000000000              -0.004491358               0.004647846               0.001245852              -0.002265235               0.002304344               0.000039109               0.000000000               0.000000000               0.000000000               0.000000000              -0.004928210               0.006746837               0.002033622              -0.002691427               0.003146065               0.000454638               0.000000000               0.000000000               0.000000000               0.000000000              -0.004543248               0.007478341               0.001996395              -0.002638505               0.003372257               0.000733752               0.000000000               0.000000000               0.000000000               0.000000000              -0.003932938               0.007641062               0.001790721              -0.002429979               0.003356988               0.000927009               0.000000000               0.000000000               0.000000000               0.000000000              -0.003276806               0.007546351               0.001570627              -0.002172091               0.003239455               0.001067364               0.000000000               0.000000000               0.000000000               0.000000000              -0.002638938               0.007328108               0.001367571              -0.001905611               0.003077882               0.001172271               0.000000000               0.000000000               0.000000000               0.000000000              -0.002039067               0.007048328               0.001190944              -0.001645687               0.002897981               0.001252294               0.000000000               0.000000000               0.000000000               0.000000000              -0.001498186               0.006733117               0.001038229              -0.001403456               0.002712168               0.001308712               0.000000000               0.000000000               0.000000000               0.000000000              -0.001031480               0.006406547               0.000900360              -0.001187620               0.002531368               0.001343747               0.000000000               0.000000000               0.000000000               0.000000000              -0.000641602               0.006085405               0.000768189              -0.001001274               0.002362206               0.001360932               0.000000000               0.000000000               0.000000000               0.000000000              -0.000319246               0.005781549               0.000636503              -0.000842409               0.002207967               0.001365558               0.000000000               0.000000000               0.000000000               0.000000000              -0.000066028               0.005504927               0.000496866              -0.000712875               0.002072582               0.001359708               0.000000000               0.000000000               0.000000000               0.000000000               0.000113765               0.005276752               0.000347719              -0.000616931               0.001964543               0.001347613               0.000000000               0.000000000               0.000000000               0.000000000               0.000213158               0.005111910               0.000203930              -0.000559053               0.001890304               0.001331251               0.000000000               0.000000000               0.000000000               0.000000000               0.000235164               0.005026528               0.000087092              -0.000540128               0.001855535               0.001315407               0.000000000               0.000000000               0.000000000               0.000000000               0.000212361               0.004994560               0.000031746              -0.000544683               0.001846398               0.001301715               0.000000000               0.000000000               0.000000000               0.000000000              -0.006457771               0.000980705              -0.000605972              -0.002544249               0.001174977              -0.001369273               0.000000000               0.000000000               0.000000000               0.000000000              -0.005548110               0.003131803               0.000954604              -0.002472012               0.001867925              -0.000604087               0.000000000               0.000000000               0.000000000               0.000000000              -0.005217286               0.005166438               0.002238935              -0.002602281               0.002589555              -0.000012727               0.000000000               0.000000000               0.000000000               0.000000000              -0.004613869               0.006165061               0.002401722              -0.002500828               0.002888608               0.000387780               0.000000000               0.000000000               0.000000000               0.000000000              -0.003949361               0.006627905               0.002254216              -0.002309493               0.002979110               0.000669617               0.000000000               0.000000000               0.000000000               0.000000000              -0.003286451               0.006797385               0.002031221              -0.002082088               0.002959801               0.000877713               0.000000000               0.000000000               0.000000000               0.000000000              -0.002648069               0.006802069               0.001806810              -0.001843280               0.002881760               0.001038480               0.000000000               0.000000000               0.000000000               0.000000000              -0.002047913               0.006698224               0.001604967              -0.001605242               0.002767799               0.001162557               0.000000000               0.000000000               0.000000000               0.000000000              -0.001493425               0.006523241               0.001424295              -0.001375437               0.002632871               0.001257434               0.000000000               0.000000000               0.000000000               0.000000000              -0.000999083               0.006302567               0.001257012              -0.001162475               0.002488326               0.001325851               0.000000000               0.000000000               0.000000000               0.000000000              -0.000568971               0.006062131               0.001100218              -0.000971129               0.002344399               0.001373271               0.000000000               0.000000000               0.000000000               0.000000000              -0.000200457               0.005819974               0.000942977              -0.000802667               0.002207527               0.001404861               0.000000000               0.000000000               0.000000000               0.000000000               0.000106581               0.005581155               0.000774551              -0.000657675               0.002079591               0.001421916               0.000000000               0.000000000               0.000000000               0.000000000               0.000347174               0.005358414               0.000588540              -0.000539610               0.001965990               0.001426380               0.000000000               0.000000000               0.000000000               0.000000000               0.000507286               0.005180138               0.000385518              -0.000457284               0.001879123               0.001421839               0.000000000               0.000000000               0.000000000               0.000000000               0.000565044               0.005066130               0.000184574              -0.000421374               0.001829151               0.001407777               0.000000000               0.000000000               0.000000000               0.000000000               0.000544061               0.005012529               0.000082010              -0.000422542               0.001811674               0.001389132               0.000000000               0.000000000               0.000000000               0.000000000              -0.008701099              -0.000090938              -0.001159434              -0.003251542               0.001053527              -0.002198015               0.000000000               0.000000000               0.000000000               0.000000000              -0.006683368               0.001791553               0.000637863              -0.002730204               0.001507242              -0.001222962               0.000000000               0.000000000               0.000000000               0.000000000              -0.005459246               0.003523401               0.002199121              -0.002487638               0.002003665              -0.000483973               0.000000000               0.000000000               0.000000000               0.000000000              -0.004555138               0.004645476               0.002535002              -0.002288857               0.002311427               0.000022571               0.000000000               0.000000000               0.000000000               0.000000000              -0.003801274               0.005342806               0.002472969              -0.002093324               0.002478691               0.000385367               0.000000000               0.000000000               0.000000000               0.000000000              -0.003125744               0.005759289               0.002287532              -0.001892061               0.002550430               0.000658369               0.000000000               0.000000000               0.000000000               0.000000000              -0.002496120               0.005990191               0.002074636              -0.001684815               0.002558315               0.000873499               0.000000000               0.000000000               0.000000000               0.000000000              -0.001910841               0.006085199               0.001871371              -0.001477212               0.002520783               0.001043571               0.000000000               0.000000000               0.000000000               0.000000000              -0.001362777               0.006078142               0.001685709              -0.001270807               0.002449629               0.001178822               0.000000000               0.000000000               0.000000000               0.000000000              -0.000851026               0.005991294               0.001513445              -0.001068044               0.002353092               0.001285048               0.000000000               0.000000000               0.000000000               0.000000000              -0.000380621               0.005859186               0.001349827              -0.000875130               0.002244752               0.001369622               0.000000000               0.000000000               0.000000000               0.000000000               0.000043004               0.005707209               0.001186450              -0.000697273               0.002134808               0.001437535               0.000000000               0.000000000               0.000000000               0.000000000               0.000422499               0.005546206               0.001012171              -0.000534838               0.002026996               0.001492158               0.000000000               0.000000000               0.000000000               0.000000000               0.000749119               0.005381583               0.000809350              -0.000391778               0.001924435               0.001532658               0.000000000               0.000000000               0.000000000               0.000000000               0.001006583               0.005228319               0.000566574              -0.000276071               0.001834779               0.001558708               0.000000000               0.000000000               0.000000000               0.000000000               0.001167764               0.005102569               0.000290369              -0.000199909               0.001767476               0.001567567               0.000000000               0.000000000               0.000000000               0.000000000               0.001214508               0.005044095               0.000145596              -0.000175071               0.001739705               0.001564634               0.000000000               0.000000000               0.000000000               0.000000000              -0.010843525              -0.000764283              -0.001366330              -0.003970784               0.001068826              -0.002901958               0.000000000               0.000000000               0.000000000               0.000000000              -0.007800847               0.000697644               0.000356799              -0.003012520               0.001236713              -0.001775807               0.000000000               0.000000000               0.000000000               0.000000000              -0.005670274               0.001984876               0.001910927              -0.002374459               0.001453101              -0.000921358               0.000000000               0.000000000               0.000000000               0.000000000              -0.004413680               0.003102609               0.002336423              -0.002042953               0.001715175              -0.000327778               0.000000000               0.000000000               0.000000000               0.000000000              -0.003534396               0.003949269               0.002352461              -0.001819054               0.001922760               0.000103706               0.000000000               0.000000000               0.000000000               0.000000000              -0.002828380               0.004562611               0.002224890              -0.001630966               0.002064509               0.000433544               0.000000000               0.000000000               0.000000000               0.000000000              -0.002207514               0.004991596               0.002048043              -0.001451765               0.002147769               0.000696005               0.000000000               0.000000000               0.000000000               0.000000000              -0.001641099               0.005272279               0.001868448              -0.001274445               0.002182223               0.000907778               0.000000000               0.000000000               0.000000000               0.000000000              -0.001106133               0.005430255               0.001703047              -0.001093580               0.002174593               0.001081013               0.000000000               0.000000000               0.000000000               0.000000000              -0.000588336               0.005490366               0.001549245              -0.000906920               0.002132410               0.001225490               0.000000000               0.000000000               0.000000000               0.000000000              -0.000087206               0.005487008               0.001401489              -0.000718577               0.002068510               0.001349933               0.000000000               0.000000000               0.000000000               0.000000000               0.000394254               0.005447559               0.001255967              -0.000533099               0.001993534               0.001460435               0.000000000               0.000000000               0.000000000               0.000000000               0.000853917               0.005387157               0.001099480              -0.000353176               0.001913426               0.001560250               0.000000000               0.000000000               0.000000000               0.000000000               0.001289636               0.005312931               0.000909105              -0.000180503               0.001831127               0.001650624               0.000000000               0.000000000               0.000000000               0.000000000               0.001691095               0.005218562               0.000666814              -0.000018160               0.001745556               0.001727396               0.000000000               0.000000000               0.000000000               0.000000000               0.002037446               0.005111961               0.000360097               0.000125046               0.001662288               0.001787334               0.000000000               0.000000000               0.000000000               0.000000000               0.002236930               0.005075834               0.000198736               0.000204367               0.001623805               0.001828173               0.000000000               0.000000000               0.000000000               0.000000000              -0.012630631              -0.001116036              -0.001195034              -0.004596979               0.001160306              -0.003436673               0.000000000               0.000000000               0.000000000               0.000000000              -0.008763937              -0.000095421               0.000156436              -0.003274546               0.001059701              -0.002214845               0.000000000               0.000000000               0.000000000               0.000000000              -0.005849581               0.000728769               0.001407535              -0.002284686               0.001004478              -0.001280209               0.000000000               0.000000000               0.000000000               0.000000000              -0.004251328               0.001755999               0.001799201              -0.001813745               0.001189906              -0.000623839               0.000000000               0.000000000               0.000000000               0.000000000              -0.003230796               0.002669980               0.001854922              -0.001545293               0.001405081              -0.000140213               0.000000000               0.000000000               0.000000000               0.000000000              -0.002481396               0.003414505               0.001782260              -0.001357334               0.001590601               0.000233267               0.000000000               0.000000000               0.000000000               0.000000000              -0.001861414               0.003992360               0.001657259              -0.001197073               0.001729797               0.000532724               0.000000000               0.000000000               0.000000000               0.000000000              -0.001306454               0.004419134               0.001523014              -0.001042310               0.001820466               0.000778156               0.000000000               0.000000000               0.000000000               0.000000000              -0.000787552               0.004715866               0.001399035              -0.000884814               0.001866877               0.000982063               0.000000000               0.000000000               0.000000000               0.000000000              -0.000279579               0.004917630               0.001283280              -0.000719545               0.001879041               0.001159497               0.000000000               0.000000000               0.000000000               0.000000000               0.000237463               0.005051787               0.001171970              -0.000542424               0.001864720               0.001322296               0.000000000               0.000000000               0.000000000               0.000000000               0.000764236               0.005135241               0.001062757              -0.000355316               0.001830168               0.001474852               0.000000000               0.000000000               0.000000000               0.000000000               0.001298426               0.005182879               0.000946821              -0.000160950               0.001781259               0.001620309               0.000000000               0.000000000               0.000000000               0.000000000               0.001846107               0.005197039               0.000804407               0.000042659               0.001718109               0.001760768               0.000000000               0.000000000               0.000000000               0.000000000               0.002407605               0.005164788               0.000610990               0.000257251               0.001635828               0.001893079               0.000000000               0.000000000               0.000000000               0.000000000               0.002982607               0.005092855               0.000341880               0.000481866               0.001536979               0.002018845               0.000000000               0.000000000               0.000000000               0.000000000               0.003387159               0.005092493               0.000200774               0.000633617               0.001486275               0.002119892               0.000000000               0.000000000               0.000000000               0.000000000              -0.013826592              -0.001254909              -0.000694382              -0.005028105               0.001257724              -0.003770382               0.000000000               0.000000000               0.000000000               0.000000000              -0.009423265              -0.000566902               0.000048030              -0.003462859               0.000965312              -0.002497547               0.000000000               0.000000000               0.000000000               0.000000000              -0.005972892              -0.000094920               0.000746579              -0.002227968               0.000711011              -0.001516957               0.000000000               0.000000000               0.000000000               0.000000000              -0.004123117               0.000829707               0.000980788              -0.001649880               0.000826523              -0.000823357               0.000000000               0.000000000               0.000000000               0.000000000              -0.002990209               0.001757435               0.001025449              -0.001341005               0.001032806              -0.000308199               0.000000000               0.000000000               0.000000000               0.000000000              -0.002202101               0.002572951               0.000994403              -0.001147404               0.001240109               0.000092705               0.000000000               0.000000000               0.000000000               0.000000000              -0.001581779               0.003243931               0.000931782              -0.000998656               0.001414185               0.000415528               0.000000000               0.000000000               0.000000000               0.000000000              -0.001039069               0.003764440               0.000861251              -0.000860204               0.001541535               0.000681331               0.000000000               0.000000000               0.000000000               0.000000000              -0.000533572               0.004157091               0.000792241              -0.000719724               0.001625591               0.000905867               0.000000000               0.000000000               0.000000000               0.000000000              -0.000033910               0.004461928               0.000729658              -0.000570456               0.001677446               0.001106990               0.000000000               0.000000000               0.000000000               0.000000000               0.000485282               0.004704564               0.000671461              -0.000406089               0.001703535               0.001297446               0.000000000               0.000000000               0.000000000               0.000000000               0.001036638               0.004891962               0.000611971              -0.000222756               0.001704890               0.001482134               0.000000000               0.000000000               0.000000000               0.000000000               0.001624718               0.005024311               0.000549952              -0.000018770               0.001681010               0.001662240               0.000000000               0.000000000               0.000000000               0.000000000               0.002257220               0.005098486               0.000474325               0.000209145               0.001629763               0.001838908               0.000000000               0.000000000               0.000000000               0.000000000               0.002948557               0.005110176               0.000367691               0.000466932               0.001547731               0.002014663               0.000000000               0.000000000               0.000000000               0.000000000               0.003725376               0.005069588               0.000210711               0.000763310               0.001435409               0.002198719               0.000000000               0.000000000               0.000000000               0.000000000               0.004320097               0.005102862               0.000128970               0.000982169               0.001373547               0.002355716               0.000000000               0.000000000               0.000000000               0.000000000               0.000000000               0.000000000               0.000000000               0.000000000               0.000000000               0.000000000               0.000000000               0.000000000               0.000000000               0.000000000               0.000000000               0.000000000               0.000000000               0.000000000               0.000000000               0.000000000               0.000000000               0.000000000               0.000000000               0.000000000               0.000000000               0.000000000               0.000000000               0.000000000               0.000000000               0.000000000               0.000000000               0.000000000               0.000000000               0.000000000               0.000000000               0.000000000               0.000000000               0.000000000               0.000000000               0.000000000               0.000000000               0.000000000               0.000000000               0.000000000               0.000000000               0.000000000               0.000000000               0.000000000               0.000000000               0.000000000               0.000000000               0.000000000               0.000000000               0.000000000               0.000000000               0.000000000               0.000000000               0.000000000               0.000000000               0.000000000               0.000000000               0.000000000               0.000000000               0.000000000               0.000000000               0.000000000               0.000000000               0.000000000               0.000000000               0.000000000               0.000000000               0.000000000               0.000000000               0.000000000               0.000000000               0.000000000               0.000000000               0.000000000               0.000000000               0.000000000               0.000000000               0.000000000               0.000000000               0.000000000               0.000000000               0.000000000               0.000000000               0.000000000               0.000000000               0.000000000               0.000000000               0.000000000               0.000000000               0.000000000               0.000000000               0.000000000               0.000000000               0.000000000               0.000000000               0.000000000               0.000000000               0.000000000               0.000000000               0.000000000               0.000000000               0.000000000               0.000000000               0.000000000               0.000000000               0.000000000               0.000000000               0.000000000               0.000000000               0.000000000               0.000000000               0.000000000               0.000000000               0.000000000               0.000000000               0.000000000               0.000000000               0.000000000               0.000000000               0.000000000               0.000000000               0.000000000               0.000000000               0.000000000               0.000000000               0.000000000               0.000000000               0.000000000               0.000000000               0.000000000               0.000000000               0.000000000               0.000000000               0.000000000               0.000000000               0.000000000               0.000000000               0.000000000               0.000000000               0.000000000               0.000000000               0.000000000               0.000000000               0.000000000               0.000000000               0.000000000               0.000000000               0.000000000               0.000000000               0.000000000               0.000000000               0.000000000               0.000000000               0.000000000               0.000000000               0.000000000               0.000000000               0.000000000               0.000000000               0.000000000               0.000000000               0.000000000               0.000000000               0.000000000               0.000000000               0.000000000               0.000000000               0.000000000               0.000000000               0.000000000 </DataArray>
</PointData>
</Piece>
</UnstructuredGrid> </VTKFile>
