<?xml version="1.0"?>
<VTKFile type="UnstructuredGrid" version="0.1">
<UnstructuredGrid>
<Piece NumberOfPoints="      1156" NumberOfCells="      1024">
<Points>
<DataArray type="Float64"                                    Name="coordinates"                                                      NumberOfComponents=" 3" format="ascii">
              0.133000000               0.000000000               0.000000000               0.155937500               0.000000000               0.000000000               0.178875000               0.000000000               0.000000000               0.201812500               0.000000000               0.000000000               0.224750000               0.000000000               0.000000000               0.247687500               0.000000000               0.000000000               0.270625000               0.000000000               0.000000000               0.293562500               0.000000000               0.000000000               0.316500000               0.000000000               0.000000000               0.339437500               0.000000000               0.000000000               0.362375000               0.000000000               0.000000000               0.385312500               0.000000000               0.000000000               0.408250000               0.000000000               0.000000000               0.431187500               0.000000000               0.000000000               0.454125000               0.000000000               0.000000000               0.477062500               0.000000000               0.000000000               0.500000000               0.000000000               0.000000000               0.132359569               0.013036280               0.000000000               0.155337096               0.016127762               0.000000000               0.178314623               0.019219245               0.000000000               0.201292150               0.022310727               0.000000000               0.224269676               0.025402210               0.000000000               0.247247203               0.028493692               0.000000000               0.270224730               0.031585175               0.000000000               0.293202257               0.034676657               0.000000000               0.316179784               0.037768140               0.000000000               0.339157311               0.040859622               0.000000000               0.362134838               0.043951105               0.000000000               0.385112365               0.047042587               0.000000000               0.408089892               0.050134070               0.000000000               0.431067419               0.053225552               0.000000000               0.454044946               0.056317035               0.000000000               0.477022473               0.059408517               0.000000000               0.500000000               0.062500000               0.000000000               0.130444442               0.025947013               0.000000000               0.153541665               0.032137825               0.000000000               0.176638887               0.038328636               0.000000000               0.199736109               0.044519448               0.000000000               0.222833332               0.050710260               0.000000000               0.245930554               0.056901071               0.000000000               0.269027776               0.063091883               0.000000000               0.292124999               0.069282695               0.000000000               0.315222221               0.075473506               0.000000000               0.338319444               0.081664318               0.000000000               0.361416666               0.087855130               0.000000000               0.384513888               0.094045942               0.000000000               0.407611111               0.100236753               0.000000000               0.430708333               0.106427565               0.000000000               0.453805555               0.112618377               0.000000000               0.476902778               0.118809188               0.000000000               0.500000000               0.125000000               0.000000000               0.127273065               0.038607862               0.000000000               0.150568498               0.047913621               0.000000000               0.173863932               0.057219379               0.000000000               0.197159365               0.066525138               0.000000000               0.220454798               0.075830897               0.000000000               0.243750232               0.085136655               0.000000000               0.267045665               0.094442414               0.000000000               0.290341099               0.103748172               0.000000000               0.313636532               0.113053931               0.000000000               0.336931966               0.122359690               0.000000000               0.360227399               0.131665448               0.000000000               0.383522833               0.140971207               0.000000000               0.406818266               0.150276966               0.000000000               0.430113700               0.159582724               0.000000000               0.453409133               0.168888483               0.000000000               0.476704567               0.178194241               0.000000000               0.500000000               0.187500000               0.000000000               0.122875978               0.050896897               0.000000000               0.146446229               0.063340840               0.000000000               0.170016481               0.075784784               0.000000000               0.193586732               0.088228728               0.000000000               0.217156983               0.100672672               0.000000000               0.240727235               0.113116616               0.000000000               0.264297486               0.125560560               0.000000000               0.287867738               0.138004504               0.000000000               0.311437989               0.150448448               0.000000000               0.335008240               0.162892392               0.000000000               0.358578492               0.175336336               0.000000000               0.382148743               0.187780280               0.000000000               0.405718994               0.200224224               0.000000000               0.429289246               0.212668168               0.000000000               0.452859497               0.225112112               0.000000000               0.476429749               0.237556056               0.000000000               0.500000000               0.250000000               0.000000000               0.117295528               0.062695766               0.000000000               0.141214558               0.078308531               0.000000000               0.165133587               0.093921295               0.000000000               0.189052617               0.109534060               0.000000000               0.212971646               0.125146824               0.000000000               0.236890676               0.140759589               0.000000000               0.260809705               0.156372354               0.000000000               0.284728735               0.171985118               0.000000000               0.308647764               0.187597883               0.000000000               0.332566794               0.203210648               0.000000000               0.356485823               0.218823412               0.000000000               0.380404853               0.234436177               0.000000000               0.404323882               0.250048941               0.000000000               0.428242912               0.265661706               0.000000000               0.452161941               0.281274471               0.000000000               0.476080971               0.296887235               0.000000000               0.500000000               0.312500000               0.000000000               0.110585458               0.073890841               0.000000000               0.134923867               0.092710163               0.000000000               0.159262276               0.111529486               0.000000000               0.183600685               0.130348808               0.000000000               0.207939094               0.149168131               0.000000000               0.232277503               0.167987453               0.000000000               0.256615912               0.186806776               0.000000000               0.280954320               0.205626098               0.000000000               0.305292729               0.224445420               0.000000000               0.329631138               0.243264743               0.000000000               0.353969547               0.262084065               0.000000000               0.378307956               0.280903388               0.000000000               0.402646365               0.299722710               0.000000000               0.426984773               0.318542033               0.000000000               0.451323182               0.337361355               0.000000000               0.475661591               0.356180678               0.000000000               0.500000000               0.375000000               0.000000000               0.102810390               0.084374307               0.000000000               0.127634741               0.106444663               0.000000000               0.152459092               0.128515018               0.000000000               0.177283442               0.150585374               0.000000000               0.202107793               0.172655730               0.000000000               0.226932143               0.194726086               0.000000000               0.251756494               0.216796442               0.000000000               0.276580845               0.238866798               0.000000000               0.301405195               0.260937153               0.000000000               0.326229546               0.283007509               0.000000000               0.351053896               0.305077865               0.000000000               0.375878247               0.327148221               0.000000000               0.400702598               0.349218577               0.000000000               0.425526948               0.371288933               0.000000000               0.450351299               0.393359288               0.000000000               0.475175649               0.415429644               0.000000000               0.500000000               0.437500000               0.000000000               0.094045202               0.094045202               0.000000000               0.119417377               0.119417377               0.000000000               0.144789552               0.144789552               0.000000000               0.170161727               0.170161727               0.000000000               0.195533901               0.195533901               0.000000000               0.220906076               0.220906076               0.000000000               0.246278251               0.246278251               0.000000000               0.271650426               0.271650426               0.000000000               0.297022601               0.297022601               0.000000000               0.322394776               0.322394776               0.000000000               0.347766951               0.347766951               0.000000000               0.373139126               0.373139126               0.000000000               0.398511300               0.398511300               0.000000000               0.423883475               0.423883475               0.000000000               0.449255650               0.449255650               0.000000000               0.474627825               0.474627825               0.000000000               0.500000000               0.500000000               0.000000000               0.084374307               0.102810390               0.000000000               0.106444663               0.127634741               0.000000000               0.128515018               0.152459092               0.000000000               0.150585374               0.177283442               0.000000000               0.172655730               0.202107793               0.000000000               0.194726086               0.226932143               0.000000000               0.216796442               0.251756494               0.000000000               0.238866798               0.276580845               0.000000000               0.260937153               0.301405195               0.000000000               0.283007509               0.326229546               0.000000000               0.305077865               0.351053896               0.000000000               0.327148221               0.375878247               0.000000000               0.349218577               0.400702598               0.000000000               0.371288933               0.425526948               0.000000000               0.393359288               0.450351299               0.000000000               0.415429644               0.475175649               0.000000000               0.437500000               0.500000000               0.000000000               0.073890841               0.110585458               0.000000000               0.092710163               0.134923867               0.000000000               0.111529486               0.159262276               0.000000000               0.130348808               0.183600685               0.000000000               0.149168131               0.207939094               0.000000000               0.167987453               0.232277503               0.000000000               0.186806776               0.256615912               0.000000000               0.205626098               0.280954320               0.000000000               0.224445420               0.305292729               0.000000000               0.243264743               0.329631138               0.000000000               0.262084065               0.353969547               0.000000000               0.280903388               0.378307956               0.000000000               0.299722710               0.402646365               0.000000000               0.318542033               0.426984773               0.000000000               0.337361355               0.451323182               0.000000000               0.356180678               0.475661591               0.000000000               0.375000000               0.500000000               0.000000000               0.062695766               0.117295528               0.000000000               0.078308531               0.141214558               0.000000000               0.093921295               0.165133587               0.000000000               0.109534060               0.189052617               0.000000000               0.125146824               0.212971646               0.000000000               0.140759589               0.236890676               0.000000000               0.156372354               0.260809705               0.000000000               0.171985118               0.284728735               0.000000000               0.187597883               0.308647764               0.000000000               0.203210648               0.332566794               0.000000000               0.218823412               0.356485823               0.000000000               0.234436177               0.380404853               0.000000000               0.250048941               0.404323882               0.000000000               0.265661706               0.428242912               0.000000000               0.281274471               0.452161941               0.000000000               0.296887235               0.476080971               0.000000000               0.312500000               0.500000000               0.000000000               0.050896897               0.122875978               0.000000000               0.063340840               0.146446229               0.000000000               0.075784784               0.170016481               0.000000000               0.088228728               0.193586732               0.000000000               0.100672672               0.217156983               0.000000000               0.113116616               0.240727235               0.000000000               0.125560560               0.264297486               0.000000000               0.138004504               0.287867738               0.000000000               0.150448448               0.311437989               0.000000000               0.162892392               0.335008240               0.000000000               0.175336336               0.358578492               0.000000000               0.187780280               0.382148743               0.000000000               0.200224224               0.405718994               0.000000000               0.212668168               0.429289246               0.000000000               0.225112112               0.452859497               0.000000000               0.237556056               0.476429749               0.000000000               0.250000000               0.500000000               0.000000000               0.038607862               0.127273065               0.000000000               0.047913621               0.150568498               0.000000000               0.057219379               0.173863932               0.000000000               0.066525138               0.197159365               0.000000000               0.075830897               0.220454798               0.000000000               0.085136655               0.243750232               0.000000000               0.094442414               0.267045665               0.000000000               0.103748172               0.290341099               0.000000000               0.113053931               0.313636532               0.000000000               0.122359690               0.336931966               0.000000000               0.131665448               0.360227399               0.000000000               0.140971207               0.383522833               0.000000000               0.150276966               0.406818266               0.000000000               0.159582724               0.430113700               0.000000000               0.168888483               0.453409133               0.000000000               0.178194241               0.476704567               0.000000000               0.187500000               0.500000000               0.000000000               0.025947013               0.130444442               0.000000000               0.032137825               0.153541665               0.000000000               0.038328636               0.176638887               0.000000000               0.044519448               0.199736109               0.000000000               0.050710260               0.222833332               0.000000000               0.056901071               0.245930554               0.000000000               0.063091883               0.269027776               0.000000000               0.069282695               0.292124999               0.000000000               0.075473506               0.315222221               0.000000000               0.081664318               0.338319444               0.000000000               0.087855130               0.361416666               0.000000000               0.094045942               0.384513888               0.000000000               0.100236753               0.407611111               0.000000000               0.106427565               0.430708333               0.000000000               0.112618377               0.453805555               0.000000000               0.118809188               0.476902778               0.000000000               0.125000000               0.500000000               0.000000000               0.013036280               0.132359569               0.000000000               0.016127762               0.155337096               0.000000000               0.019219245               0.178314623               0.000000000               0.022310727               0.201292150               0.000000000               0.025402210               0.224269676               0.000000000               0.028493692               0.247247203               0.000000000               0.031585175               0.270224730               0.000000000               0.034676657               0.293202257               0.000000000               0.037768140               0.316179784               0.000000000               0.040859622               0.339157311               0.000000000               0.043951105               0.362134838               0.000000000               0.047042587               0.385112365               0.000000000               0.050134070               0.408089892               0.000000000               0.053225552               0.431067419               0.000000000               0.056317035               0.454044946               0.000000000               0.059408517               0.477022473               0.000000000               0.062500000               0.500000000               0.000000000               0.000000000               0.133000000               0.000000000               0.000000000               0.155937500               0.000000000               0.000000000               0.178875000               0.000000000               0.000000000               0.201812500               0.000000000               0.000000000               0.224750000               0.000000000               0.000000000               0.247687500               0.000000000               0.000000000               0.270625000               0.000000000               0.000000000               0.293562500               0.000000000               0.000000000               0.316500000               0.000000000               0.000000000               0.339437500               0.000000000               0.000000000               0.362375000               0.000000000               0.000000000               0.385312500               0.000000000               0.000000000               0.408250000               0.000000000               0.000000000               0.431187500               0.000000000               0.000000000               0.454125000               0.000000000               0.000000000               0.477062500               0.000000000               0.000000000               0.500000000               0.000000000               0.133000000               0.000000000               0.000000000               0.155937500               0.000000000               0.000000000               0.178875000               0.000000000               0.000000000               0.201812500               0.000000000               0.000000000               0.224750000               0.000000000               0.000000000               0.247687500               0.000000000               0.000000000               0.270625000               0.000000000               0.000000000               0.293562500               0.000000000               0.000000000               0.316500000               0.000000000               0.000000000               0.339437500               0.000000000               0.000000000               0.362375000               0.000000000               0.000000000               0.385312500               0.000000000               0.000000000               0.408250000               0.000000000               0.000000000               0.431187500               0.000000000               0.000000000               0.454125000               0.000000000               0.000000000               0.477062500               0.000000000               0.000000000               0.500000000               0.000000000               0.000000000               0.132359569              -0.013036280               0.000000000               0.155337096              -0.016127762               0.000000000               0.178314623              -0.019219245               0.000000000               0.201292150              -0.022310727               0.000000000               0.224269676              -0.025402210               0.000000000               0.247247203              -0.028493692               0.000000000               0.270224730              -0.031585175               0.000000000               0.293202257              -0.034676657               0.000000000               0.316179784              -0.037768140               0.000000000               0.339157311              -0.040859622               0.000000000               0.362134838              -0.043951105               0.000000000               0.385112365              -0.047042587               0.000000000               0.408089892              -0.050134070               0.000000000               0.431067419              -0.053225552               0.000000000               0.454044946              -0.056317035               0.000000000               0.477022473              -0.059408517               0.000000000               0.500000000              -0.062500000               0.000000000               0.130444442              -0.025947013               0.000000000               0.153541665              -0.032137825               0.000000000               0.176638887              -0.038328636               0.000000000               0.199736109              -0.044519448               0.000000000               0.222833332              -0.050710260               0.000000000               0.245930554              -0.056901071               0.000000000               0.269027776              -0.063091883               0.000000000               0.292124999              -0.069282695               0.000000000               0.315222221              -0.075473506               0.000000000               0.338319444              -0.081664318               0.000000000               0.361416666              -0.087855130               0.000000000               0.384513888              -0.094045942               0.000000000               0.407611111              -0.100236753               0.000000000               0.430708333              -0.106427565               0.000000000               0.453805555              -0.112618377               0.000000000               0.476902778              -0.118809188               0.000000000               0.500000000              -0.125000000               0.000000000               0.127273065              -0.038607862               0.000000000               0.150568498              -0.047913621               0.000000000               0.173863932              -0.057219379               0.000000000               0.197159365              -0.066525138               0.000000000               0.220454798              -0.075830897               0.000000000               0.243750232              -0.085136655               0.000000000               0.267045665              -0.094442414               0.000000000               0.290341099              -0.103748172               0.000000000               0.313636532              -0.113053931               0.000000000               0.336931966              -0.122359690               0.000000000               0.360227399              -0.131665448               0.000000000               0.383522833              -0.140971207               0.000000000               0.406818266              -0.150276966               0.000000000               0.430113700              -0.159582724               0.000000000               0.453409133              -0.168888483               0.000000000               0.476704567              -0.178194241               0.000000000               0.500000000              -0.187500000               0.000000000               0.122875978              -0.050896897               0.000000000               0.146446229              -0.063340840               0.000000000               0.170016481              -0.075784784               0.000000000               0.193586732              -0.088228728               0.000000000               0.217156983              -0.100672672               0.000000000               0.240727235              -0.113116616               0.000000000               0.264297486              -0.125560560               0.000000000               0.287867738              -0.138004504               0.000000000               0.311437989              -0.150448448               0.000000000               0.335008240              -0.162892392               0.000000000               0.358578492              -0.175336336               0.000000000               0.382148743              -0.187780280               0.000000000               0.405718994              -0.200224224               0.000000000               0.429289246              -0.212668168               0.000000000               0.452859497              -0.225112112               0.000000000               0.476429749              -0.237556056               0.000000000               0.500000000              -0.250000000               0.000000000               0.117295528              -0.062695766               0.000000000               0.141214558              -0.078308531               0.000000000               0.165133587              -0.093921295               0.000000000               0.189052617              -0.109534060               0.000000000               0.212971646              -0.125146824               0.000000000               0.236890676              -0.140759589               0.000000000               0.260809705              -0.156372354               0.000000000               0.284728735              -0.171985118               0.000000000               0.308647764              -0.187597883               0.000000000               0.332566794              -0.203210648               0.000000000               0.356485823              -0.218823412               0.000000000               0.380404853              -0.234436177               0.000000000               0.404323882              -0.250048941               0.000000000               0.428242912              -0.265661706               0.000000000               0.452161941              -0.281274471               0.000000000               0.476080971              -0.296887235               0.000000000               0.500000000              -0.312500000               0.000000000               0.110585458              -0.073890841               0.000000000               0.134923867              -0.092710163               0.000000000               0.159262276              -0.111529486               0.000000000               0.183600685              -0.130348808               0.000000000               0.207939094              -0.149168131               0.000000000               0.232277503              -0.167987453               0.000000000               0.256615912              -0.186806776               0.000000000               0.280954320              -0.205626098               0.000000000               0.305292729              -0.224445420               0.000000000               0.329631138              -0.243264743               0.000000000               0.353969547              -0.262084065               0.000000000               0.378307956              -0.280903388               0.000000000               0.402646365              -0.299722710               0.000000000               0.426984773              -0.318542033               0.000000000               0.451323182              -0.337361355               0.000000000               0.475661591              -0.356180678               0.000000000               0.500000000              -0.375000000               0.000000000               0.102810390              -0.084374307               0.000000000               0.127634741              -0.106444663               0.000000000               0.152459092              -0.128515018               0.000000000               0.177283442              -0.150585374               0.000000000               0.202107793              -0.172655730               0.000000000               0.226932143              -0.194726086               0.000000000               0.251756494              -0.216796442               0.000000000               0.276580845              -0.238866798               0.000000000               0.301405195              -0.260937153               0.000000000               0.326229546              -0.283007509               0.000000000               0.351053896              -0.305077865               0.000000000               0.375878247              -0.327148221               0.000000000               0.400702598              -0.349218577               0.000000000               0.425526948              -0.371288933               0.000000000               0.450351299              -0.393359288               0.000000000               0.475175649              -0.415429644               0.000000000               0.500000000              -0.437500000               0.000000000               0.094045202              -0.094045202               0.000000000               0.119417377              -0.119417377               0.000000000               0.144789552              -0.144789552               0.000000000               0.170161727              -0.170161727               0.000000000               0.195533901              -0.195533901               0.000000000               0.220906076              -0.220906076               0.000000000               0.246278251              -0.246278251               0.000000000               0.271650426              -0.271650426               0.000000000               0.297022601              -0.297022601               0.000000000               0.322394776              -0.322394776               0.000000000               0.347766951              -0.347766951               0.000000000               0.373139126              -0.373139126               0.000000000               0.398511300              -0.398511300               0.000000000               0.423883475              -0.423883475               0.000000000               0.449255650              -0.449255650               0.000000000               0.474627825              -0.474627825               0.000000000               0.500000000              -0.500000000               0.000000000               0.084374307              -0.102810390               0.000000000               0.106444663              -0.127634741               0.000000000               0.128515018              -0.152459092               0.000000000               0.150585374              -0.177283442               0.000000000               0.172655730              -0.202107793               0.000000000               0.194726086              -0.226932143               0.000000000               0.216796442              -0.251756494               0.000000000               0.238866798              -0.276580845               0.000000000               0.260937153              -0.301405195               0.000000000               0.283007509              -0.326229546               0.000000000               0.305077865              -0.351053896               0.000000000               0.327148221              -0.375878247               0.000000000               0.349218577              -0.400702598               0.000000000               0.371288933              -0.425526948               0.000000000               0.393359288              -0.450351299               0.000000000               0.415429644              -0.475175649               0.000000000               0.437500000              -0.500000000               0.000000000               0.073890841              -0.110585458               0.000000000               0.092710163              -0.134923867               0.000000000               0.111529486              -0.159262276               0.000000000               0.130348808              -0.183600685               0.000000000               0.149168131              -0.207939094               0.000000000               0.167987453              -0.232277503               0.000000000               0.186806776              -0.256615912               0.000000000               0.205626098              -0.280954320               0.000000000               0.224445420              -0.305292729               0.000000000               0.243264743              -0.329631138               0.000000000               0.262084065              -0.353969547               0.000000000               0.280903388              -0.378307956               0.000000000               0.299722710              -0.402646365               0.000000000               0.318542033              -0.426984773               0.000000000               0.337361355              -0.451323182               0.000000000               0.356180678              -0.475661591               0.000000000               0.375000000              -0.500000000               0.000000000               0.062695766              -0.117295528               0.000000000               0.078308531              -0.141214558               0.000000000               0.093921295              -0.165133587               0.000000000               0.109534060              -0.189052617               0.000000000               0.125146824              -0.212971646               0.000000000               0.140759589              -0.236890676               0.000000000               0.156372354              -0.260809705               0.000000000               0.171985118              -0.284728735               0.000000000               0.187597883              -0.308647764               0.000000000               0.203210648              -0.332566794               0.000000000               0.218823412              -0.356485823               0.000000000               0.234436177              -0.380404853               0.000000000               0.250048941              -0.404323882               0.000000000               0.265661706              -0.428242912               0.000000000               0.281274471              -0.452161941               0.000000000               0.296887235              -0.476080971               0.000000000               0.312500000              -0.500000000               0.000000000               0.050896897              -0.122875978               0.000000000               0.063340840              -0.146446229               0.000000000               0.075784784              -0.170016481               0.000000000               0.088228728              -0.193586732               0.000000000               0.100672672              -0.217156983               0.000000000               0.113116616              -0.240727235               0.000000000               0.125560560              -0.264297486               0.000000000               0.138004504              -0.287867738               0.000000000               0.150448448              -0.311437989               0.000000000               0.162892392              -0.335008240               0.000000000               0.175336336              -0.358578492               0.000000000               0.187780280              -0.382148743               0.000000000               0.200224224              -0.405718994               0.000000000               0.212668168              -0.429289246               0.000000000               0.225112112              -0.452859497               0.000000000               0.237556056              -0.476429749               0.000000000               0.250000000              -0.500000000               0.000000000               0.038607862              -0.127273065               0.000000000               0.047913621              -0.150568498               0.000000000               0.057219379              -0.173863932               0.000000000               0.066525138              -0.197159365               0.000000000               0.075830897              -0.220454798               0.000000000               0.085136655              -0.243750232               0.000000000               0.094442414              -0.267045665               0.000000000               0.103748172              -0.290341099               0.000000000               0.113053931              -0.313636532               0.000000000               0.122359690              -0.336931966               0.000000000               0.131665448              -0.360227399               0.000000000               0.140971207              -0.383522833               0.000000000               0.150276966              -0.406818266               0.000000000               0.159582724              -0.430113700               0.000000000               0.168888483              -0.453409133               0.000000000               0.178194241              -0.476704567               0.000000000               0.187500000              -0.500000000               0.000000000               0.025947013              -0.130444442               0.000000000               0.032137825              -0.153541665               0.000000000               0.038328636              -0.176638887               0.000000000               0.044519448              -0.199736109               0.000000000               0.050710260              -0.222833332               0.000000000               0.056901071              -0.245930554               0.000000000               0.063091883              -0.269027776               0.000000000               0.069282695              -0.292124999               0.000000000               0.075473506              -0.315222221               0.000000000               0.081664318              -0.338319444               0.000000000               0.087855130              -0.361416666               0.000000000               0.094045942              -0.384513888               0.000000000               0.100236753              -0.407611111               0.000000000               0.106427565              -0.430708333               0.000000000               0.112618377              -0.453805555               0.000000000               0.118809188              -0.476902778               0.000000000               0.125000000              -0.500000000               0.000000000               0.013036280              -0.132359569               0.000000000               0.016127762              -0.155337096               0.000000000               0.019219245              -0.178314623               0.000000000               0.022310727              -0.201292150               0.000000000               0.025402210              -0.224269676               0.000000000               0.028493692              -0.247247203               0.000000000               0.031585175              -0.270224730               0.000000000               0.034676657              -0.293202257               0.000000000               0.037768140              -0.316179784               0.000000000               0.040859622              -0.339157311               0.000000000               0.043951105              -0.362134838               0.000000000               0.047042587              -0.385112365               0.000000000               0.050134070              -0.408089892               0.000000000               0.053225552              -0.431067419               0.000000000               0.056317035              -0.454044946               0.000000000               0.059408517              -0.477022473               0.000000000               0.062500000              -0.500000000               0.000000000               0.000000000              -0.133000000               0.000000000               0.000000000              -0.155937500               0.000000000               0.000000000              -0.178875000               0.000000000               0.000000000              -0.201812500               0.000000000               0.000000000              -0.224750000               0.000000000               0.000000000              -0.247687500               0.000000000               0.000000000              -0.270625000               0.000000000               0.000000000              -0.293562500               0.000000000               0.000000000              -0.316500000               0.000000000               0.000000000              -0.339437500               0.000000000               0.000000000              -0.362375000               0.000000000               0.000000000              -0.385312500               0.000000000               0.000000000              -0.408250000               0.000000000               0.000000000              -0.431187500               0.000000000               0.000000000              -0.454125000               0.000000000               0.000000000              -0.477062500               0.000000000               0.000000000              -0.500000000               0.000000000              -0.133000000               0.000000000               0.000000000              -0.155937500               0.000000000               0.000000000              -0.178875000               0.000000000               0.000000000              -0.201812500               0.000000000               0.000000000              -0.224750000               0.000000000               0.000000000              -0.247687500               0.000000000               0.000000000              -0.270625000               0.000000000               0.000000000              -0.293562500               0.000000000               0.000000000              -0.316500000               0.000000000               0.000000000              -0.339437500               0.000000000               0.000000000              -0.362375000               0.000000000               0.000000000              -0.385312500               0.000000000               0.000000000              -0.408250000               0.000000000               0.000000000              -0.431187500               0.000000000               0.000000000              -0.454125000               0.000000000               0.000000000              -0.477062500               0.000000000               0.000000000              -0.500000000               0.000000000               0.000000000              -0.132359569              -0.013036280               0.000000000              -0.155337096              -0.016127762               0.000000000              -0.178314623              -0.019219245               0.000000000              -0.201292150              -0.022310727               0.000000000              -0.224269676              -0.025402210               0.000000000              -0.247247203              -0.028493692               0.000000000              -0.270224730              -0.031585175               0.000000000              -0.293202257              -0.034676657               0.000000000              -0.316179784              -0.037768140               0.000000000              -0.339157311              -0.040859622               0.000000000              -0.362134838              -0.043951105               0.000000000              -0.385112365              -0.047042587               0.000000000              -0.408089892              -0.050134070               0.000000000              -0.431067419              -0.053225552               0.000000000              -0.454044946              -0.056317035               0.000000000              -0.477022473              -0.059408517               0.000000000              -0.500000000              -0.062500000               0.000000000              -0.130444442              -0.025947013               0.000000000              -0.153541665              -0.032137825               0.000000000              -0.176638887              -0.038328636               0.000000000              -0.199736109              -0.044519448               0.000000000              -0.222833332              -0.050710260               0.000000000              -0.245930554              -0.056901071               0.000000000              -0.269027776              -0.063091883               0.000000000              -0.292124999              -0.069282695               0.000000000              -0.315222221              -0.075473506               0.000000000              -0.338319444              -0.081664318               0.000000000              -0.361416666              -0.087855130               0.000000000              -0.384513888              -0.094045942               0.000000000              -0.407611111              -0.100236753               0.000000000              -0.430708333              -0.106427565               0.000000000              -0.453805555              -0.112618377               0.000000000              -0.476902778              -0.118809188               0.000000000              -0.500000000              -0.125000000               0.000000000              -0.127273065              -0.038607862               0.000000000              -0.150568498              -0.047913621               0.000000000              -0.173863932              -0.057219379               0.000000000              -0.197159365              -0.066525138               0.000000000              -0.220454798              -0.075830897               0.000000000              -0.243750232              -0.085136655               0.000000000              -0.267045665              -0.094442414               0.000000000              -0.290341099              -0.103748172               0.000000000              -0.313636532              -0.113053931               0.000000000              -0.336931966              -0.122359690               0.000000000              -0.360227399              -0.131665448               0.000000000              -0.383522833              -0.140971207               0.000000000              -0.406818266              -0.150276966               0.000000000              -0.430113700              -0.159582724               0.000000000              -0.453409133              -0.168888483               0.000000000              -0.476704567              -0.178194241               0.000000000              -0.500000000              -0.187500000               0.000000000              -0.122875978              -0.050896897               0.000000000              -0.146446229              -0.063340840               0.000000000              -0.170016481              -0.075784784               0.000000000              -0.193586732              -0.088228728               0.000000000              -0.217156983              -0.100672672               0.000000000              -0.240727235              -0.113116616               0.000000000              -0.264297486              -0.125560560               0.000000000              -0.287867738              -0.138004504               0.000000000              -0.311437989              -0.150448448               0.000000000              -0.335008240              -0.162892392               0.000000000              -0.358578492              -0.175336336               0.000000000              -0.382148743              -0.187780280               0.000000000              -0.405718994              -0.200224224               0.000000000              -0.429289246              -0.212668168               0.000000000              -0.452859497              -0.225112112               0.000000000              -0.476429749              -0.237556056               0.000000000              -0.500000000              -0.250000000               0.000000000              -0.117295528              -0.062695766               0.000000000              -0.141214558              -0.078308531               0.000000000              -0.165133587              -0.093921295               0.000000000              -0.189052617              -0.109534060               0.000000000              -0.212971646              -0.125146824               0.000000000              -0.236890676              -0.140759589               0.000000000              -0.260809705              -0.156372354               0.000000000              -0.284728735              -0.171985118               0.000000000              -0.308647764              -0.187597883               0.000000000              -0.332566794              -0.203210648               0.000000000              -0.356485823              -0.218823412               0.000000000              -0.380404853              -0.234436177               0.000000000              -0.404323882              -0.250048941               0.000000000              -0.428242912              -0.265661706               0.000000000              -0.452161941              -0.281274471               0.000000000              -0.476080971              -0.296887235               0.000000000              -0.500000000              -0.312500000               0.000000000              -0.110585458              -0.073890841               0.000000000              -0.134923867              -0.092710163               0.000000000              -0.159262276              -0.111529486               0.000000000              -0.183600685              -0.130348808               0.000000000              -0.207939094              -0.149168131               0.000000000              -0.232277503              -0.167987453               0.000000000              -0.256615912              -0.186806776               0.000000000              -0.280954320              -0.205626098               0.000000000              -0.305292729              -0.224445420               0.000000000              -0.329631138              -0.243264743               0.000000000              -0.353969547              -0.262084065               0.000000000              -0.378307956              -0.280903388               0.000000000              -0.402646365              -0.299722710               0.000000000              -0.426984773              -0.318542033               0.000000000              -0.451323182              -0.337361355               0.000000000              -0.475661591              -0.356180678               0.000000000              -0.500000000              -0.375000000               0.000000000              -0.102810390              -0.084374307               0.000000000              -0.127634741              -0.106444663               0.000000000              -0.152459092              -0.128515018               0.000000000              -0.177283442              -0.150585374               0.000000000              -0.202107793              -0.172655730               0.000000000              -0.226932143              -0.194726086               0.000000000              -0.251756494              -0.216796442               0.000000000              -0.276580845              -0.238866798               0.000000000              -0.301405195              -0.260937153               0.000000000              -0.326229546              -0.283007509               0.000000000              -0.351053896              -0.305077865               0.000000000              -0.375878247              -0.327148221               0.000000000              -0.400702598              -0.349218577               0.000000000              -0.425526948              -0.371288933               0.000000000              -0.450351299              -0.393359288               0.000000000              -0.475175649              -0.415429644               0.000000000              -0.500000000              -0.437500000               0.000000000              -0.094045202              -0.094045202               0.000000000              -0.119417377              -0.119417377               0.000000000              -0.144789552              -0.144789552               0.000000000              -0.170161727              -0.170161727               0.000000000              -0.195533901              -0.195533901               0.000000000              -0.220906076              -0.220906076               0.000000000              -0.246278251              -0.246278251               0.000000000              -0.271650426              -0.271650426               0.000000000              -0.297022601              -0.297022601               0.000000000              -0.322394776              -0.322394776               0.000000000              -0.347766951              -0.347766951               0.000000000              -0.373139126              -0.373139126               0.000000000              -0.398511300              -0.398511300               0.000000000              -0.423883475              -0.423883475               0.000000000              -0.449255650              -0.449255650               0.000000000              -0.474627825              -0.474627825               0.000000000              -0.500000000              -0.500000000               0.000000000              -0.084374307              -0.102810390               0.000000000              -0.106444663              -0.127634741               0.000000000              -0.128515018              -0.152459092               0.000000000              -0.150585374              -0.177283442               0.000000000              -0.172655730              -0.202107793               0.000000000              -0.194726086              -0.226932143               0.000000000              -0.216796442              -0.251756494               0.000000000              -0.238866798              -0.276580845               0.000000000              -0.260937153              -0.301405195               0.000000000              -0.283007509              -0.326229546               0.000000000              -0.305077865              -0.351053896               0.000000000              -0.327148221              -0.375878247               0.000000000              -0.349218577              -0.400702598               0.000000000              -0.371288933              -0.425526948               0.000000000              -0.393359288              -0.450351299               0.000000000              -0.415429644              -0.475175649               0.000000000              -0.437500000              -0.500000000               0.000000000              -0.073890841              -0.110585458               0.000000000              -0.092710163              -0.134923867               0.000000000              -0.111529486              -0.159262276               0.000000000              -0.130348808              -0.183600685               0.000000000              -0.149168131              -0.207939094               0.000000000              -0.167987453              -0.232277503               0.000000000              -0.186806776              -0.256615912               0.000000000              -0.205626098              -0.280954320               0.000000000              -0.224445420              -0.305292729               0.000000000              -0.243264743              -0.329631138               0.000000000              -0.262084065              -0.353969547               0.000000000              -0.280903388              -0.378307956               0.000000000              -0.299722710              -0.402646365               0.000000000              -0.318542033              -0.426984773               0.000000000              -0.337361355              -0.451323182               0.000000000              -0.356180678              -0.475661591               0.000000000              -0.375000000              -0.500000000               0.000000000              -0.062695766              -0.117295528               0.000000000              -0.078308531              -0.141214558               0.000000000              -0.093921295              -0.165133587               0.000000000              -0.109534060              -0.189052617               0.000000000              -0.125146824              -0.212971646               0.000000000              -0.140759589              -0.236890676               0.000000000              -0.156372354              -0.260809705               0.000000000              -0.171985118              -0.284728735               0.000000000              -0.187597883              -0.308647764               0.000000000              -0.203210648              -0.332566794               0.000000000              -0.218823412              -0.356485823               0.000000000              -0.234436177              -0.380404853               0.000000000              -0.250048941              -0.404323882               0.000000000              -0.265661706              -0.428242912               0.000000000              -0.281274471              -0.452161941               0.000000000              -0.296887235              -0.476080971               0.000000000              -0.312500000              -0.500000000               0.000000000              -0.050896897              -0.122875978               0.000000000              -0.063340840              -0.146446229               0.000000000              -0.075784784              -0.170016481               0.000000000              -0.088228728              -0.193586732               0.000000000              -0.100672672              -0.217156983               0.000000000              -0.113116616              -0.240727235               0.000000000              -0.125560560              -0.264297486               0.000000000              -0.138004504              -0.287867738               0.000000000              -0.150448448              -0.311437989               0.000000000              -0.162892392              -0.335008240               0.000000000              -0.175336336              -0.358578492               0.000000000              -0.187780280              -0.382148743               0.000000000              -0.200224224              -0.405718994               0.000000000              -0.212668168              -0.429289246               0.000000000              -0.225112112              -0.452859497               0.000000000              -0.237556056              -0.476429749               0.000000000              -0.250000000              -0.500000000               0.000000000              -0.038607862              -0.127273065               0.000000000              -0.047913621              -0.150568498               0.000000000              -0.057219379              -0.173863932               0.000000000              -0.066525138              -0.197159365               0.000000000              -0.075830897              -0.220454798               0.000000000              -0.085136655              -0.243750232               0.000000000              -0.094442414              -0.267045665               0.000000000              -0.103748172              -0.290341099               0.000000000              -0.113053931              -0.313636532               0.000000000              -0.122359690              -0.336931966               0.000000000              -0.131665448              -0.360227399               0.000000000              -0.140971207              -0.383522833               0.000000000              -0.150276966              -0.406818266               0.000000000              -0.159582724              -0.430113700               0.000000000              -0.168888483              -0.453409133               0.000000000              -0.178194241              -0.476704567               0.000000000              -0.187500000              -0.500000000               0.000000000              -0.025947013              -0.130444442               0.000000000              -0.032137825              -0.153541665               0.000000000              -0.038328636              -0.176638887               0.000000000              -0.044519448              -0.199736109               0.000000000              -0.050710260              -0.222833332               0.000000000              -0.056901071              -0.245930554               0.000000000              -0.063091883              -0.269027776               0.000000000              -0.069282695              -0.292124999               0.000000000              -0.075473506              -0.315222221               0.000000000              -0.081664318              -0.338319444               0.000000000              -0.087855130              -0.361416666               0.000000000              -0.094045942              -0.384513888               0.000000000              -0.100236753              -0.407611111               0.000000000              -0.106427565              -0.430708333               0.000000000              -0.112618377              -0.453805555               0.000000000              -0.118809188              -0.476902778               0.000000000              -0.125000000              -0.500000000               0.000000000              -0.013036280              -0.132359569               0.000000000              -0.016127762              -0.155337096               0.000000000              -0.019219245              -0.178314623               0.000000000              -0.022310727              -0.201292150               0.000000000              -0.025402210              -0.224269676               0.000000000              -0.028493692              -0.247247203               0.000000000              -0.031585175              -0.270224730               0.000000000              -0.034676657              -0.293202257               0.000000000              -0.037768140              -0.316179784               0.000000000              -0.040859622              -0.339157311               0.000000000              -0.043951105              -0.362134838               0.000000000              -0.047042587              -0.385112365               0.000000000              -0.050134070              -0.408089892               0.000000000              -0.053225552              -0.431067419               0.000000000              -0.056317035              -0.454044946               0.000000000              -0.059408517              -0.477022473               0.000000000              -0.062500000              -0.500000000               0.000000000               0.000000000              -0.133000000               0.000000000               0.000000000              -0.155937500               0.000000000               0.000000000              -0.178875000               0.000000000               0.000000000              -0.201812500               0.000000000               0.000000000              -0.224750000               0.000000000               0.000000000              -0.247687500               0.000000000               0.000000000              -0.270625000               0.000000000               0.000000000              -0.293562500               0.000000000               0.000000000              -0.316500000               0.000000000               0.000000000              -0.339437500               0.000000000               0.000000000              -0.362375000               0.000000000               0.000000000              -0.385312500               0.000000000               0.000000000              -0.408250000               0.000000000               0.000000000              -0.431187500               0.000000000               0.000000000              -0.454125000               0.000000000               0.000000000              -0.477062500               0.000000000               0.000000000              -0.500000000               0.000000000              -0.133000000               0.000000000               0.000000000              -0.155937500               0.000000000               0.000000000              -0.178875000               0.000000000               0.000000000              -0.201812500               0.000000000               0.000000000              -0.224750000               0.000000000               0.000000000              -0.247687500               0.000000000               0.000000000              -0.270625000               0.000000000               0.000000000              -0.293562500               0.000000000               0.000000000              -0.316500000               0.000000000               0.000000000              -0.339437500               0.000000000               0.000000000              -0.362375000               0.000000000               0.000000000              -0.385312500               0.000000000               0.000000000              -0.408250000               0.000000000               0.000000000              -0.431187500               0.000000000               0.000000000              -0.454125000               0.000000000               0.000000000              -0.477062500               0.000000000               0.000000000              -0.500000000               0.000000000               0.000000000              -0.132359569               0.013036280               0.000000000              -0.155337096               0.016127762               0.000000000              -0.178314623               0.019219245               0.000000000              -0.201292150               0.022310727               0.000000000              -0.224269676               0.025402210               0.000000000              -0.247247203               0.028493692               0.000000000              -0.270224730               0.031585175               0.000000000              -0.293202257               0.034676657               0.000000000              -0.316179784               0.037768140               0.000000000              -0.339157311               0.040859622               0.000000000              -0.362134838               0.043951105               0.000000000              -0.385112365               0.047042587               0.000000000              -0.408089892               0.050134070               0.000000000              -0.431067419               0.053225552               0.000000000              -0.454044946               0.056317035               0.000000000              -0.477022473               0.059408517               0.000000000              -0.500000000               0.062500000               0.000000000              -0.130444442               0.025947013               0.000000000              -0.153541665               0.032137825               0.000000000              -0.176638887               0.038328636               0.000000000              -0.199736109               0.044519448               0.000000000              -0.222833332               0.050710260               0.000000000              -0.245930554               0.056901071               0.000000000              -0.269027776               0.063091883               0.000000000              -0.292124999               0.069282695               0.000000000              -0.315222221               0.075473506               0.000000000              -0.338319444               0.081664318               0.000000000              -0.361416666               0.087855130               0.000000000              -0.384513888               0.094045942               0.000000000              -0.407611111               0.100236753               0.000000000              -0.430708333               0.106427565               0.000000000              -0.453805555               0.112618377               0.000000000              -0.476902778               0.118809188               0.000000000              -0.500000000               0.125000000               0.000000000              -0.127273065               0.038607862               0.000000000              -0.150568498               0.047913621               0.000000000              -0.173863932               0.057219379               0.000000000              -0.197159365               0.066525138               0.000000000              -0.220454798               0.075830897               0.000000000              -0.243750232               0.085136655               0.000000000              -0.267045665               0.094442414               0.000000000              -0.290341099               0.103748172               0.000000000              -0.313636532               0.113053931               0.000000000              -0.336931966               0.122359690               0.000000000              -0.360227399               0.131665448               0.000000000              -0.383522833               0.140971207               0.000000000              -0.406818266               0.150276966               0.000000000              -0.430113700               0.159582724               0.000000000              -0.453409133               0.168888483               0.000000000              -0.476704567               0.178194241               0.000000000              -0.500000000               0.187500000               0.000000000              -0.122875978               0.050896897               0.000000000              -0.146446229               0.063340840               0.000000000              -0.170016481               0.075784784               0.000000000              -0.193586732               0.088228728               0.000000000              -0.217156983               0.100672672               0.000000000              -0.240727235               0.113116616               0.000000000              -0.264297486               0.125560560               0.000000000              -0.287867738               0.138004504               0.000000000              -0.311437989               0.150448448               0.000000000              -0.335008240               0.162892392               0.000000000              -0.358578492               0.175336336               0.000000000              -0.382148743               0.187780280               0.000000000              -0.405718994               0.200224224               0.000000000              -0.429289246               0.212668168               0.000000000              -0.452859497               0.225112112               0.000000000              -0.476429749               0.237556056               0.000000000              -0.500000000               0.250000000               0.000000000              -0.117295528               0.062695766               0.000000000              -0.141214558               0.078308531               0.000000000              -0.165133587               0.093921295               0.000000000              -0.189052617               0.109534060               0.000000000              -0.212971646               0.125146824               0.000000000              -0.236890676               0.140759589               0.000000000              -0.260809705               0.156372354               0.000000000              -0.284728735               0.171985118               0.000000000              -0.308647764               0.187597883               0.000000000              -0.332566794               0.203210648               0.000000000              -0.356485823               0.218823412               0.000000000              -0.380404853               0.234436177               0.000000000              -0.404323882               0.250048941               0.000000000              -0.428242912               0.265661706               0.000000000              -0.452161941               0.281274471               0.000000000              -0.476080971               0.296887235               0.000000000              -0.500000000               0.312500000               0.000000000              -0.110585458               0.073890841               0.000000000              -0.134923867               0.092710163               0.000000000              -0.159262276               0.111529486               0.000000000              -0.183600685               0.130348808               0.000000000              -0.207939094               0.149168131               0.000000000              -0.232277503               0.167987453               0.000000000              -0.256615912               0.186806776               0.000000000              -0.280954320               0.205626098               0.000000000              -0.305292729               0.224445420               0.000000000              -0.329631138               0.243264743               0.000000000              -0.353969547               0.262084065               0.000000000              -0.378307956               0.280903388               0.000000000              -0.402646365               0.299722710               0.000000000              -0.426984773               0.318542033               0.000000000              -0.451323182               0.337361355               0.000000000              -0.475661591               0.356180678               0.000000000              -0.500000000               0.375000000               0.000000000              -0.102810390               0.084374307               0.000000000              -0.127634741               0.106444663               0.000000000              -0.152459092               0.128515018               0.000000000              -0.177283442               0.150585374               0.000000000              -0.202107793               0.172655730               0.000000000              -0.226932143               0.194726086               0.000000000              -0.251756494               0.216796442               0.000000000              -0.276580845               0.238866798               0.000000000              -0.301405195               0.260937153               0.000000000              -0.326229546               0.283007509               0.000000000              -0.351053896               0.305077865               0.000000000              -0.375878247               0.327148221               0.000000000              -0.400702598               0.349218577               0.000000000              -0.425526948               0.371288933               0.000000000              -0.450351299               0.393359288               0.000000000              -0.475175649               0.415429644               0.000000000              -0.500000000               0.437500000               0.000000000              -0.094045202               0.094045202               0.000000000              -0.119417377               0.119417377               0.000000000              -0.144789552               0.144789552               0.000000000              -0.170161727               0.170161727               0.000000000              -0.195533901               0.195533901               0.000000000              -0.220906076               0.220906076               0.000000000              -0.246278251               0.246278251               0.000000000              -0.271650426               0.271650426               0.000000000              -0.297022601               0.297022601               0.000000000              -0.322394776               0.322394776               0.000000000              -0.347766951               0.347766951               0.000000000              -0.373139126               0.373139126               0.000000000              -0.398511300               0.398511300               0.000000000              -0.423883475               0.423883475               0.000000000              -0.449255650               0.449255650               0.000000000              -0.474627825               0.474627825               0.000000000              -0.500000000               0.500000000               0.000000000              -0.084374307               0.102810390               0.000000000              -0.106444663               0.127634741               0.000000000              -0.128515018               0.152459092               0.000000000              -0.150585374               0.177283442               0.000000000              -0.172655730               0.202107793               0.000000000              -0.194726086               0.226932143               0.000000000              -0.216796442               0.251756494               0.000000000              -0.238866798               0.276580845               0.000000000              -0.260937153               0.301405195               0.000000000              -0.283007509               0.326229546               0.000000000              -0.305077865               0.351053896               0.000000000              -0.327148221               0.375878247               0.000000000              -0.349218577               0.400702598               0.000000000              -0.371288933               0.425526948               0.000000000              -0.393359288               0.450351299               0.000000000              -0.415429644               0.475175649               0.000000000              -0.437500000               0.500000000               0.000000000              -0.073890841               0.110585458               0.000000000              -0.092710163               0.134923867               0.000000000              -0.111529486               0.159262276               0.000000000              -0.130348808               0.183600685               0.000000000              -0.149168131               0.207939094               0.000000000              -0.167987453               0.232277503               0.000000000              -0.186806776               0.256615912               0.000000000              -0.205626098               0.280954320               0.000000000              -0.224445420               0.305292729               0.000000000              -0.243264743               0.329631138               0.000000000              -0.262084065               0.353969547               0.000000000              -0.280903388               0.378307956               0.000000000              -0.299722710               0.402646365               0.000000000              -0.318542033               0.426984773               0.000000000              -0.337361355               0.451323182               0.000000000              -0.356180678               0.475661591               0.000000000              -0.375000000               0.500000000               0.000000000              -0.062695766               0.117295528               0.000000000              -0.078308531               0.141214558               0.000000000              -0.093921295               0.165133587               0.000000000              -0.109534060               0.189052617               0.000000000              -0.125146824               0.212971646               0.000000000              -0.140759589               0.236890676               0.000000000              -0.156372354               0.260809705               0.000000000              -0.171985118               0.284728735               0.000000000              -0.187597883               0.308647764               0.000000000              -0.203210648               0.332566794               0.000000000              -0.218823412               0.356485823               0.000000000              -0.234436177               0.380404853               0.000000000              -0.250048941               0.404323882               0.000000000              -0.265661706               0.428242912               0.000000000              -0.281274471               0.452161941               0.000000000              -0.296887235               0.476080971               0.000000000              -0.312500000               0.500000000               0.000000000              -0.050896897               0.122875978               0.000000000              -0.063340840               0.146446229               0.000000000              -0.075784784               0.170016481               0.000000000              -0.088228728               0.193586732               0.000000000              -0.100672672               0.217156983               0.000000000              -0.113116616               0.240727235               0.000000000              -0.125560560               0.264297486               0.000000000              -0.138004504               0.287867738               0.000000000              -0.150448448               0.311437989               0.000000000              -0.162892392               0.335008240               0.000000000              -0.175336336               0.358578492               0.000000000              -0.187780280               0.382148743               0.000000000              -0.200224224               0.405718994               0.000000000              -0.212668168               0.429289246               0.000000000              -0.225112112               0.452859497               0.000000000              -0.237556056               0.476429749               0.000000000              -0.250000000               0.500000000               0.000000000              -0.038607862               0.127273065               0.000000000              -0.047913621               0.150568498               0.000000000              -0.057219379               0.173863932               0.000000000              -0.066525138               0.197159365               0.000000000              -0.075830897               0.220454798               0.000000000              -0.085136655               0.243750232               0.000000000              -0.094442414               0.267045665               0.000000000              -0.103748172               0.290341099               0.000000000              -0.113053931               0.313636532               0.000000000              -0.122359690               0.336931966               0.000000000              -0.131665448               0.360227399               0.000000000              -0.140971207               0.383522833               0.000000000              -0.150276966               0.406818266               0.000000000              -0.159582724               0.430113700               0.000000000              -0.168888483               0.453409133               0.000000000              -0.178194241               0.476704567               0.000000000              -0.187500000               0.500000000               0.000000000              -0.025947013               0.130444442               0.000000000              -0.032137825               0.153541665               0.000000000              -0.038328636               0.176638887               0.000000000              -0.044519448               0.199736109               0.000000000              -0.050710260               0.222833332               0.000000000              -0.056901071               0.245930554               0.000000000              -0.063091883               0.269027776               0.000000000              -0.069282695               0.292124999               0.000000000              -0.075473506               0.315222221               0.000000000              -0.081664318               0.338319444               0.000000000              -0.087855130               0.361416666               0.000000000              -0.094045942               0.384513888               0.000000000              -0.100236753               0.407611111               0.000000000              -0.106427565               0.430708333               0.000000000              -0.112618377               0.453805555               0.000000000              -0.118809188               0.476902778               0.000000000              -0.125000000               0.500000000               0.000000000              -0.013036280               0.132359569               0.000000000              -0.016127762               0.155337096               0.000000000              -0.019219245               0.178314623               0.000000000              -0.022310727               0.201292150               0.000000000              -0.025402210               0.224269676               0.000000000              -0.028493692               0.247247203               0.000000000              -0.031585175               0.270224730               0.000000000              -0.034676657               0.293202257               0.000000000              -0.037768140               0.316179784               0.000000000              -0.040859622               0.339157311               0.000000000              -0.043951105               0.362134838               0.000000000              -0.047042587               0.385112365               0.000000000              -0.050134070               0.408089892               0.000000000              -0.053225552               0.431067419               0.000000000              -0.056317035               0.454044946               0.000000000              -0.059408517               0.477022473               0.000000000              -0.062500000               0.500000000               0.000000000               0.000000000               0.133000000               0.000000000               0.000000000               0.155937500               0.000000000               0.000000000               0.178875000               0.000000000               0.000000000               0.201812500               0.000000000               0.000000000               0.224750000               0.000000000               0.000000000               0.247687500               0.000000000               0.000000000               0.270625000               0.000000000               0.000000000               0.293562500               0.000000000               0.000000000               0.316500000               0.000000000               0.000000000               0.339437500               0.000000000               0.000000000               0.362375000               0.000000000               0.000000000               0.385312500               0.000000000               0.000000000               0.408250000               0.000000000               0.000000000               0.431187500               0.000000000               0.000000000               0.454125000               0.000000000               0.000000000               0.477062500               0.000000000               0.000000000               0.500000000               0.000000000 </DataArray>
</Points>
<Cells>
<DataArray type="Int32"                                    Name="connectivity"                                                      NumberOfComponents=" 1" format="ascii">
         0          1         18         17          1          2         19         18          2          3         20         19          3          4         21         20          4          5         22         21          5          6         23         22          6          7         24         23          7          8         25         24          8          9         26         25          9         10         27         26         10         11         28         27         11         12         29         28         12         13         30         29         13         14         31         30         14         15         32         31         15         16         33         32         17         18         35         34         18         19         36         35         19         20         37         36         20         21         38         37         21         22         39         38         22         23         40         39         23         24         41         40         24         25         42         41         25         26         43         42         26         27         44         43         27         28         45         44         28         29         46         45         29         30         47         46         30         31         48         47         31         32         49         48         32         33         50         49         34         35         52         51         35         36         53         52         36         37         54         53         37         38         55         54         38         39         56         55         39         40         57         56         40         41         58         57         41         42         59         58         42         43         60         59         43         44         61         60         44         45         62         61         45         46         63         62         46         47         64         63         47         48         65         64         48         49         66         65         49         50         67         66         51         52         69         68         52         53         70         69         53         54         71         70         54         55         72         71         55         56         73         72         56         57         74         73         57         58         75         74         58         59         76         75         59         60         77         76         60         61         78         77         61         62         79         78         62         63         80         79         63         64         81         80         64         65         82         81         65         66         83         82         66         67         84         83         68         69         86         85         69         70         87         86         70         71         88         87         71         72         89         88         72         73         90         89         73         74         91         90         74         75         92         91         75         76         93         92         76         77         94         93         77         78         95         94         78         79         96         95         79         80         97         96         80         81         98         97         81         82         99         98         82         83        100         99         83         84        101        100         85         86        103        102         86         87        104        103         87         88        105        104         88         89        106        105         89         90        107        106         90         91        108        107         91         92        109        108         92         93        110        109         93         94        111        110         94         95        112        111         95         96        113        112         96         97        114        113         97         98        115        114         98         99        116        115         99        100        117        116        100        101        118        117        102        103        120        119        103        104        121        120        104        105        122        121        105        106        123        122        106        107        124        123        107        108        125        124        108        109        126        125        109        110        127        126        110        111        128        127        111        112        129        128        112        113        130        129        113        114        131        130        114        115        132        131        115        116        133        132        116        117        134        133        117        118        135        134        119        120        137        136        120        121        138        137        121        122        139        138        122        123        140        139        123        124        141        140        124        125        142        141        125        126        143        142        126        127        144        143        127        128        145        144        128        129        146        145        129        130        147        146        130        131        148        147        131        132        149        148        132        133        150        149        133        134        151        150        134        135        152        151        136        137        154        153        137        138        155        154        138        139        156        155        139        140        157        156        140        141        158        157        141        142        159        158        142        143        160        159        143        144        161        160        144        145        162        161        145        146        163        162        146        147        164        163        147        148        165        164        148        149        166        165        149        150        167        166        150        151        168        167        151        152        169        168        153        154        171        170        154        155        172        171        155        156        173        172        156        157        174        173        157        158        175        174        158        159        176        175        159        160        177        176        160        161        178        177        161        162        179        178        162        163        180        179        163        164        181        180        164        165        182        181        165        166        183        182        166        167        184        183        167        168        185        184        168        169        186        185        170        171        188        187        171        172        189        188        172        173        190        189        173        174        191        190        174        175        192        191        175        176        193        192        176        177        194        193        177        178        195        194        178        179        196        195        179        180        197        196        180        181        198        197        181        182        199        198        182        183        200        199        183        184        201        200        184        185        202        201        185        186        203        202        187        188        205        204        188        189        206        205        189        190        207        206        190        191        208        207        191        192        209        208        192        193        210        209        193        194        211        210        194        195        212        211        195        196        213        212        196        197        214        213        197        198        215        214        198        199        216        215        199        200        217        216        200        201        218        217        201        202        219        218        202        203        220        219        204        205        222        221        205        206        223        222        206        207        224        223        207        208        225        224        208        209        226        225        209        210        227        226        210        211        228        227        211        212        229        228        212        213        230        229        213        214        231        230        214        215        232        231        215        216        233        232        216        217        234        233        217        218        235        234        218        219        236        235        219        220        237        236        221        222        239        238        222        223        240        239        223        224        241        240        224        225        242        241        225        226        243        242        226        227        244        243        227        228        245        244        228        229        246        245        229        230        247        246        230        231        248        247        231        232        249        248        232        233        250        249        233        234        251        250        234        235        252        251        235        236        253        252        236        237        254        253        238        239        256        255        239        240        257        256        240        241        258        257        241        242        259        258        242        243        260        259        243        244        261        260        244        245        262        261        245        246        263        262        246        247        264        263        247        248        265        264        248        249        266        265        249        250        267        266        250        251        268        267        251        252        269        268        252        253        270        269        253        254        271        270        255        256        273        272        256        257        274        273        257        258        275        274        258        259        276        275        259        260        277        276        260        261        278        277        261        262        279        278        262        263        280        279        263        264        281        280        264        265        282        281        265        266        283        282        266        267        284        283        267        268        285        284        268        269        286        285        269        270        287        286        270        271        288        287        306        307          1          0        307        308          2          1        308        309          3          2        309        310          4          3        310        311          5          4        311        312          6          5        312        313          7          6        313        314          8          7        314        315          9          8        315        316         10          9        316        317         11         10        317        318         12         11        318        319         13         12        319        320         14         13        320        321         15         14        321        322         16         15        323        324        307        306        324        325        308        307        325        326        309        308        326        327        310        309        327        328        311        310        328        329        312        311        329        330        313        312        330        331        314        313        331        332        315        314        332        333        316        315        333        334        317        316        334        335        318        317        335        336        319        318        336        337        320        319        337        338        321        320        338        339        322        321        340        341        324        323        341        342        325        324        342        343        326        325        343        344        327        326        344        345        328        327        345        346        329        328        346        347        330        329        347        348        331        330        348        349        332        331        349        350        333        332        350        351        334        333        351        352        335        334        352        353        336        335        353        354        337        336        354        355        338        337        355        356        339        338        357        358        341        340        358        359        342        341        359        360        343        342        360        361        344        343        361        362        345        344        362        363        346        345        363        364        347        346        364        365        348        347        365        366        349        348        366        367        350        349        367        368        351        350        368        369        352        351        369        370        353        352        370        371        354        353        371        372        355        354        372        373        356        355        374        375        358        357        375        376        359        358        376        377        360        359        377        378        361        360        378        379        362        361        379        380        363        362        380        381        364        363        381        382        365        364        382        383        366        365        383        384        367        366        384        385        368        367        385        386        369        368        386        387        370        369        387        388        371        370        388        389        372        371        389        390        373        372        391        392        375        374        392        393        376        375        393        394        377        376        394        395        378        377        395        396        379        378        396        397        380        379        397        398        381        380        398        399        382        381        399        400        383        382        400        401        384        383        401        402        385        384        402        403        386        385        403        404        387        386        404        405        388        387        405        406        389        388        406        407        390        389        408        409        392        391        409        410        393        392        410        411        394        393        411        412        395        394        412        413        396        395        413        414        397        396        414        415        398        397        415        416        399        398        416        417        400        399        417        418        401        400        418        419        402        401        419        420        403        402        420        421        404        403        421        422        405        404        422        423        406        405        423        424        407        406        425        426        409        408        426        427        410        409        427        428        411        410        428        429        412        411        429        430        413        412        430        431        414        413        431        432        415        414        432        433        416        415        433        434        417        416        434        435        418        417        435        436        419        418        436        437        420        419        437        438        421        420        438        439        422        421        439        440        423        422        440        441        424        423        442        443        426        425        443        444        427        426        444        445        428        427        445        446        429        428        446        447        430        429        447        448        431        430        448        449        432        431        449        450        433        432        450        451        434        433        451        452        435        434        452        453        436        435        453        454        437        436        454        455        438        437        455        456        439        438        456        457        440        439        457        458        441        440        459        460        443        442        460        461        444        443        461        462        445        444        462        463        446        445        463        464        447        446        464        465        448        447        465        466        449        448        466        467        450        449        467        468        451        450        468        469        452        451        469        470        453        452        470        471        454        453        471        472        455        454        472        473        456        455        473        474        457        456        474        475        458        457        476        477        460        459        477        478        461        460        478        479        462        461        479        480        463        462        480        481        464        463        481        482        465        464        482        483        466        465        483        484        467        466        484        485        468        467        485        486        469        468        486        487        470        469        487        488        471        470        488        489        472        471        489        490        473        472        490        491        474        473        491        492        475        474        493        494        477        476        494        495        478        477        495        496        479        478        496        497        480        479        497        498        481        480        498        499        482        481        499        500        483        482        500        501        484        483        501        502        485        484        502        503        486        485        503        504        487        486        504        505        488        487        505        506        489        488        506        507        490        489        507        508        491        490        508        509        492        491        510        511        494        493        511        512        495        494        512        513        496        495        513        514        497        496        514        515        498        497        515        516        499        498        516        517        500        499        517        518        501        500        518        519        502        501        519        520        503        502        520        521        504        503        521        522        505        504        522        523        506        505        523        524        507        506        524        525        508        507        525        526        509        508        527        528        511        510        528        529        512        511        529        530        513        512        530        531        514        513        531        532        515        514        532        533        516        515        533        534        517        516        534        535        518        517        535        536        519        518        536        537        520        519        537        538        521        520        538        539        522        521        539        540        523        522        540        541        524        523        541        542        525        524        542        543        526        525        544        545        528        527        545        546        529        528        546        547        530        529        547        548        531        530        548        549        532        531        549        550        533        532        550        551        534        533        551        552        535        534        552        553        536        535        553        554        537        536        554        555        538        537        555        556        539        538        556        557        540        539        557        558        541        540        558        559        542        541        559        560        543        542        561        562        545        544        562        563        546        545        563        564        547        546        564        565        548        547        565        566        549        548        566        567        550        549        567        568        551        550        568        569        552        551        569        570        553        552        570        571        554        553        571        572        555        554        572        573        556        555        573        574        557        556        574        575        558        557        575        576        559        558        576        577        560        559        578        579        596        595        579        580        597        596        580        581        598        597        581        582        599        598        582        583        600        599        583        584        601        600        584        585        602        601        585        586        603        602        586        587        604        603        587        588        605        604        588        589        606        605        589        590        607        606        590        591        608        607        591        592        609        608        592        593        610        609        593        594        611        610        595        596        613        612        596        597        614        613        597        598        615        614        598        599        616        615        599        600        617        616        600        601        618        617        601        602        619        618        602        603        620        619        603        604        621        620        604        605        622        621        605        606        623        622        606        607        624        623        607        608        625        624        608        609        626        625        609        610        627        626        610        611        628        627        612        613        630        629        613        614        631        630        614        615        632        631        615        616        633        632        616        617        634        633        617        618        635        634        618        619        636        635        619        620        637        636        620        621        638        637        621        622        639        638        622        623        640        639        623        624        641        640        624        625        642        641        625        626        643        642        626        627        644        643        627        628        645        644        629        630        647        646        630        631        648        647        631        632        649        648        632        633        650        649        633        634        651        650        634        635        652        651        635        636        653        652        636        637        654        653        637        638        655        654        638        639        656        655        639        640        657        656        640        641        658        657        641        642        659        658        642        643        660        659        643        644        661        660        644        645        662        661        646        647        664        663        647        648        665        664        648        649        666        665        649        650        667        666        650        651        668        667        651        652        669        668        652        653        670        669        653        654        671        670        654        655        672        671        655        656        673        672        656        657        674        673        657        658        675        674        658        659        676        675        659        660        677        676        660        661        678        677        661        662        679        678        663        664        681        680        664        665        682        681        665        666        683        682        666        667        684        683        667        668        685        684        668        669        686        685        669        670        687        686        670        671        688        687        671        672        689        688        672        673        690        689        673        674        691        690        674        675        692        691        675        676        693        692        676        677        694        693        677        678        695        694        678        679        696        695        680        681        698        697        681        682        699        698        682        683        700        699        683        684        701        700        684        685        702        701        685        686        703        702        686        687        704        703        687        688        705        704        688        689        706        705        689        690        707        706        690        691        708        707        691        692        709        708        692        693        710        709        693        694        711        710        694        695        712        711        695        696        713        712        697        698        715        714        698        699        716        715        699        700        717        716        700        701        718        717        701        702        719        718        702        703        720        719        703        704        721        720        704        705        722        721        705        706        723        722        706        707        724        723        707        708        725        724        708        709        726        725        709        710        727        726        710        711        728        727        711        712        729        728        712        713        730        729        714        715        732        731        715        716        733        732        716        717        734        733        717        718        735        734        718        719        736        735        719        720        737        736        720        721        738        737        721        722        739        738        722        723        740        739        723        724        741        740        724        725        742        741        725        726        743        742        726        727        744        743        727        728        745        744        728        729        746        745        729        730        747        746        731        732        749        748        732        733        750        749        733        734        751        750        734        735        752        751        735        736        753        752        736        737        754        753        737        738        755        754        738        739        756        755        739        740        757        756        740        741        758        757        741        742        759        758        742        743        760        759        743        744        761        760        744        745        762        761        745        746        763        762        746        747        764        763        748        749        766        765        749        750        767        766        750        751        768        767        751        752        769        768        752        753        770        769        753        754        771        770        754        755        772        771        755        756        773        772        756        757        774        773        757        758        775        774        758        759        776        775        759        760        777        776        760        761        778        777        761        762        779        778        762        763        780        779        763        764        781        780        765        766        783        782        766        767        784        783        767        768        785        784        768        769        786        785        769        770        787        786        770        771        788        787        771        772        789        788        772        773        790        789        773        774        791        790        774        775        792        791        775        776        793        792        776        777        794        793        777        778        795        794        778        779        796        795        779        780        797        796        780        781        798        797        782        783        800        799        783        784        801        800        784        785        802        801        785        786        803        802        786        787        804        803        787        788        805        804        788        789        806        805        789        790        807        806        790        791        808        807        791        792        809        808        792        793        810        809        793        794        811        810        794        795        812        811        795        796        813        812        796        797        814        813        797        798        815        814        799        800        817        816        800        801        818        817        801        802        819        818        802        803        820        819        803        804        821        820        804        805        822        821        805        806        823        822        806        807        824        823        807        808        825        824        808        809        826        825        809        810        827        826        810        811        828        827        811        812        829        828        812        813        830        829        813        814        831        830        814        815        832        831        816        817        834        833        817        818        835        834        818        819        836        835        819        820        837        836        820        821        838        837        821        822        839        838        822        823        840        839        823        824        841        840        824        825        842        841        825        826        843        842        826        827        844        843        827        828        845        844        828        829        846        845        829        830        847        846        830        831        848        847        831        832        849        848        833        834        562        561        834        835        563        562        835        836        564        563        836        837        565        564        837        838        566        565        838        839        567        566        839        840        568        567        840        841        569        568        841        842        570        569        842        843        571        570        843        844        572        571        844        845        573        572        845        846        574        573        846        847        575        574        847        848        576        575        848        849        577        576        884        885        579        578        885        886        580        579        886        887        581        580        887        888        582        581        888        889        583        582        889        890        584        583        890        891        585        584        891        892        586        585        892        893        587        586        893        894        588        587        894        895        589        588        895        896        590        589        896        897        591        590        897        898        592        591        898        899        593        592        899        900        594        593        901        902        885        884        902        903        886        885        903        904        887        886        904        905        888        887        905        906        889        888        906        907        890        889        907        908        891        890        908        909        892        891        909        910        893        892        910        911        894        893        911        912        895        894        912        913        896        895        913        914        897        896        914        915        898        897        915        916        899        898        916        917        900        899        918        919        902        901        919        920        903        902        920        921        904        903        921        922        905        904        922        923        906        905        923        924        907        906        924        925        908        907        925        926        909        908        926        927        910        909        927        928        911        910        928        929        912        911        929        930        913        912        930        931        914        913        931        932        915        914        932        933        916        915        933        934        917        916        935        936        919        918        936        937        920        919        937        938        921        920        938        939        922        921        939        940        923        922        940        941        924        923        941        942        925        924        942        943        926        925        943        944        927        926        944        945        928        927        945        946        929        928        946        947        930        929        947        948        931        930        948        949        932        931        949        950        933        932        950        951        934        933        952        953        936        935        953        954        937        936        954        955        938        937        955        956        939        938        956        957        940        939        957        958        941        940        958        959        942        941        959        960        943        942        960        961        944        943        961        962        945        944        962        963        946        945        963        964        947        946        964        965        948        947        965        966        949        948        966        967        950        949        967        968        951        950        969        970        953        952        970        971        954        953        971        972        955        954        972        973        956        955        973        974        957        956        974        975        958        957        975        976        959        958        976        977        960        959        977        978        961        960        978        979        962        961        979        980        963        962        980        981        964        963        981        982        965        964        982        983        966        965        983        984        967        966        984        985        968        967        986        987        970        969        987        988        971        970        988        989        972        971        989        990        973        972        990        991        974        973        991        992        975        974        992        993        976        975        993        994        977        976        994        995        978        977        995        996        979        978        996        997        980        979        997        998        981        980        998        999        982        981        999       1000        983        982       1000       1001        984        983       1001       1002        985        984       1003       1004        987        986       1004       1005        988        987       1005       1006        989        988       1006       1007        990        989       1007       1008        991        990       1008       1009        992        991       1009       1010        993        992       1010       1011        994        993       1011       1012        995        994       1012       1013        996        995       1013       1014        997        996       1014       1015        998        997       1015       1016        999        998       1016       1017       1000        999       1017       1018       1001       1000       1018       1019       1002       1001       1020       1021       1004       1003       1021       1022       1005       1004       1022       1023       1006       1005       1023       1024       1007       1006       1024       1025       1008       1007       1025       1026       1009       1008       1026       1027       1010       1009       1027       1028       1011       1010       1028       1029       1012       1011       1029       1030       1013       1012       1030       1031       1014       1013       1031       1032       1015       1014       1032       1033       1016       1015       1033       1034       1017       1016       1034       1035       1018       1017       1035       1036       1019       1018       1037       1038       1021       1020       1038       1039       1022       1021       1039       1040       1023       1022       1040       1041       1024       1023       1041       1042       1025       1024       1042       1043       1026       1025       1043       1044       1027       1026       1044       1045       1028       1027       1045       1046       1029       1028       1046       1047       1030       1029       1047       1048       1031       1030       1048       1049       1032       1031       1049       1050       1033       1032       1050       1051       1034       1033       1051       1052       1035       1034       1052       1053       1036       1035       1054       1055       1038       1037       1055       1056       1039       1038       1056       1057       1040       1039       1057       1058       1041       1040       1058       1059       1042       1041       1059       1060       1043       1042       1060       1061       1044       1043       1061       1062       1045       1044       1062       1063       1046       1045       1063       1064       1047       1046       1064       1065       1048       1047       1065       1066       1049       1048       1066       1067       1050       1049       1067       1068       1051       1050       1068       1069       1052       1051       1069       1070       1053       1052       1071       1072       1055       1054       1072       1073       1056       1055       1073       1074       1057       1056       1074       1075       1058       1057       1075       1076       1059       1058       1076       1077       1060       1059       1077       1078       1061       1060       1078       1079       1062       1061       1079       1080       1063       1062       1080       1081       1064       1063       1081       1082       1065       1064       1082       1083       1066       1065       1083       1084       1067       1066       1084       1085       1068       1067       1085       1086       1069       1068       1086       1087       1070       1069       1088       1089       1072       1071       1089       1090       1073       1072       1090       1091       1074       1073       1091       1092       1075       1074       1092       1093       1076       1075       1093       1094       1077       1076       1094       1095       1078       1077       1095       1096       1079       1078       1096       1097       1080       1079       1097       1098       1081       1080       1098       1099       1082       1081       1099       1100       1083       1082       1100       1101       1084       1083       1101       1102       1085       1084       1102       1103       1086       1085       1103       1104       1087       1086       1105       1106       1089       1088       1106       1107       1090       1089       1107       1108       1091       1090       1108       1109       1092       1091       1109       1110       1093       1092       1110       1111       1094       1093       1111       1112       1095       1094       1112       1113       1096       1095       1113       1114       1097       1096       1114       1115       1098       1097       1115       1116       1099       1098       1116       1117       1100       1099       1117       1118       1101       1100       1118       1119       1102       1101       1119       1120       1103       1102       1120       1121       1104       1103       1122       1123       1106       1105       1123       1124       1107       1106       1124       1125       1108       1107       1125       1126       1109       1108       1126       1127       1110       1109       1127       1128       1111       1110       1128       1129       1112       1111       1129       1130       1113       1112       1130       1131       1114       1113       1131       1132       1115       1114       1132       1133       1116       1115       1133       1134       1117       1116       1134       1135       1118       1117       1135       1136       1119       1118       1136       1137       1120       1119       1137       1138       1121       1120        272        273       1123       1122        273        274       1124       1123        274        275       1125       1124        275        276       1126       1125        276        277       1127       1126        277        278       1128       1127        278        279       1129       1128        279        280       1130       1129        280        281       1131       1130        281        282       1132       1131        282        283       1133       1132        283        284       1134       1133        284        285       1135       1134        285        286       1136       1135        286        287       1137       1136        287        288       1138       1137 </DataArray>
<DataArray type="Int32"                                    Name="offsets"                                                      NumberOfComponents=" 1" format="ascii">
         4          8         12         16         20         24         28         32         36         40         44         48         52         56         60         64         68         72         76         80         84         88         92         96        100        104        108        112        116        120        124        128        132        136        140        144        148        152        156        160        164        168        172        176        180        184        188        192        196        200        204        208        212        216        220        224        228        232        236        240        244        248        252        256        260        264        268        272        276        280        284        288        292        296        300        304        308        312        316        320        324        328        332        336        340        344        348        352        356        360        364        368        372        376        380        384        388        392        396        400        404        408        412        416        420        424        428        432        436        440        444        448        452        456        460        464        468        472        476        480        484        488        492        496        500        504        508        512        516        520        524        528        532        536        540        544        548        552        556        560        564        568        572        576        580        584        588        592        596        600        604        608        612        616        620        624        628        632        636        640        644        648        652        656        660        664        668        672        676        680        684        688        692        696        700        704        708        712        716        720        724        728        732        736        740        744        748        752        756        760        764        768        772        776        780        784        788        792        796        800        804        808        812        816        820        824        828        832        836        840        844        848        852        856        860        864        868        872        876        880        884        888        892        896        900        904        908        912        916        920        924        928        932        936        940        944        948        952        956        960        964        968        972        976        980        984        988        992        996       1000       1004       1008       1012       1016       1020       1024       1028       1032       1036       1040       1044       1048       1052       1056       1060       1064       1068       1072       1076       1080       1084       1088       1092       1096       1100       1104       1108       1112       1116       1120       1124       1128       1132       1136       1140       1144       1148       1152       1156       1160       1164       1168       1172       1176       1180       1184       1188       1192       1196       1200       1204       1208       1212       1216       1220       1224       1228       1232       1236       1240       1244       1248       1252       1256       1260       1264       1268       1272       1276       1280       1284       1288       1292       1296       1300       1304       1308       1312       1316       1320       1324       1328       1332       1336       1340       1344       1348       1352       1356       1360       1364       1368       1372       1376       1380       1384       1388       1392       1396       1400       1404       1408       1412       1416       1420       1424       1428       1432       1436       1440       1444       1448       1452       1456       1460       1464       1468       1472       1476       1480       1484       1488       1492       1496       1500       1504       1508       1512       1516       1520       1524       1528       1532       1536       1540       1544       1548       1552       1556       1560       1564       1568       1572       1576       1580       1584       1588       1592       1596       1600       1604       1608       1612       1616       1620       1624       1628       1632       1636       1640       1644       1648       1652       1656       1660       1664       1668       1672       1676       1680       1684       1688       1692       1696       1700       1704       1708       1712       1716       1720       1724       1728       1732       1736       1740       1744       1748       1752       1756       1760       1764       1768       1772       1776       1780       1784       1788       1792       1796       1800       1804       1808       1812       1816       1820       1824       1828       1832       1836       1840       1844       1848       1852       1856       1860       1864       1868       1872       1876       1880       1884       1888       1892       1896       1900       1904       1908       1912       1916       1920       1924       1928       1932       1936       1940       1944       1948       1952       1956       1960       1964       1968       1972       1976       1980       1984       1988       1992       1996       2000       2004       2008       2012       2016       2020       2024       2028       2032       2036       2040       2044       2048       2052       2056       2060       2064       2068       2072       2076       2080       2084       2088       2092       2096       2100       2104       2108       2112       2116       2120       2124       2128       2132       2136       2140       2144       2148       2152       2156       2160       2164       2168       2172       2176       2180       2184       2188       2192       2196       2200       2204       2208       2212       2216       2220       2224       2228       2232       2236       2240       2244       2248       2252       2256       2260       2264       2268       2272       2276       2280       2284       2288       2292       2296       2300       2304       2308       2312       2316       2320       2324       2328       2332       2336       2340       2344       2348       2352       2356       2360       2364       2368       2372       2376       2380       2384       2388       2392       2396       2400       2404       2408       2412       2416       2420       2424       2428       2432       2436       2440       2444       2448       2452       2456       2460       2464       2468       2472       2476       2480       2484       2488       2492       2496       2500       2504       2508       2512       2516       2520       2524       2528       2532       2536       2540       2544       2548       2552       2556       2560       2564       2568       2572       2576       2580       2584       2588       2592       2596       2600       2604       2608       2612       2616       2620       2624       2628       2632       2636       2640       2644       2648       2652       2656       2660       2664       2668       2672       2676       2680       2684       2688       2692       2696       2700       2704       2708       2712       2716       2720       2724       2728       2732       2736       2740       2744       2748       2752       2756       2760       2764       2768       2772       2776       2780       2784       2788       2792       2796       2800       2804       2808       2812       2816       2820       2824       2828       2832       2836       2840       2844       2848       2852       2856       2860       2864       2868       2872       2876       2880       2884       2888       2892       2896       2900       2904       2908       2912       2916       2920       2924       2928       2932       2936       2940       2944       2948       2952       2956       2960       2964       2968       2972       2976       2980       2984       2988       2992       2996       3000       3004       3008       3012       3016       3020       3024       3028       3032       3036       3040       3044       3048       3052       3056       3060       3064       3068       3072       3076       3080       3084       3088       3092       3096       3100       3104       3108       3112       3116       3120       3124       3128       3132       3136       3140       3144       3148       3152       3156       3160       3164       3168       3172       3176       3180       3184       3188       3192       3196       3200       3204       3208       3212       3216       3220       3224       3228       3232       3236       3240       3244       3248       3252       3256       3260       3264       3268       3272       3276       3280       3284       3288       3292       3296       3300       3304       3308       3312       3316       3320       3324       3328       3332       3336       3340       3344       3348       3352       3356       3360       3364       3368       3372       3376       3380       3384       3388       3392       3396       3400       3404       3408       3412       3416       3420       3424       3428       3432       3436       3440       3444       3448       3452       3456       3460       3464       3468       3472       3476       3480       3484       3488       3492       3496       3500       3504       3508       3512       3516       3520       3524       3528       3532       3536       3540       3544       3548       3552       3556       3560       3564       3568       3572       3576       3580       3584       3588       3592       3596       3600       3604       3608       3612       3616       3620       3624       3628       3632       3636       3640       3644       3648       3652       3656       3660       3664       3668       3672       3676       3680       3684       3688       3692       3696       3700       3704       3708       3712       3716       3720       3724       3728       3732       3736       3740       3744       3748       3752       3756       3760       3764       3768       3772       3776       3780       3784       3788       3792       3796       3800       3804       3808       3812       3816       3820       3824       3828       3832       3836       3840       3844       3848       3852       3856       3860       3864       3868       3872       3876       3880       3884       3888       3892       3896       3900       3904       3908       3912       3916       3920       3924       3928       3932       3936       3940       3944       3948       3952       3956       3960       3964       3968       3972       3976       3980       3984       3988       3992       3996       4000       4004       4008       4012       4016       4020       4024       4028       4032       4036       4040       4044       4048       4052       4056       4060       4064       4068       4072       4076       4080       4084       4088       4092       4096 </DataArray>
<DataArray type="UInt8"                                    Name="types"                                                      NumberOfComponents=" 1" format="ascii">
         9          9          9          9          9          9          9          9          9          9          9          9          9          9          9          9          9          9          9          9          9          9          9          9          9          9          9          9          9          9          9          9          9          9          9          9          9          9          9          9          9          9          9          9          9          9          9          9          9          9          9          9          9          9          9          9          9          9          9          9          9          9          9          9          9          9          9          9          9          9          9          9          9          9          9          9          9          9          9          9          9          9          9          9          9          9          9          9          9          9          9          9          9          9          9          9          9          9          9          9          9          9          9          9          9          9          9          9          9          9          9          9          9          9          9          9          9          9          9          9          9          9          9          9          9          9          9          9          9          9          9          9          9          9          9          9          9          9          9          9          9          9          9          9          9          9          9          9          9          9          9          9          9          9          9          9          9          9          9          9          9          9          9          9          9          9          9          9          9          9          9          9          9          9          9          9          9          9          9          9          9          9          9          9          9          9          9          9          9          9          9          9          9          9          9          9          9          9          9          9          9          9          9          9          9          9          9          9          9          9          9          9          9          9          9          9          9          9          9          9          9          9          9          9          9          9          9          9          9          9          9          9          9          9          9          9          9          9          9          9          9          9          9          9          9          9          9          9          9          9          9          9          9          9          9          9          9          9          9          9          9          9          9          9          9          9          9          9          9          9          9          9          9          9          9          9          9          9          9          9          9          9          9          9          9          9          9          9          9          9          9          9          9          9          9          9          9          9          9          9          9          9          9          9          9          9          9          9          9          9          9          9          9          9          9          9          9          9          9          9          9          9          9          9          9          9          9          9          9          9          9          9          9          9          9          9          9          9          9          9          9          9          9          9          9          9          9          9          9          9          9          9          9          9          9          9          9          9          9          9          9          9          9          9          9          9          9          9          9          9          9          9          9          9          9          9          9          9          9          9          9          9          9          9          9          9          9          9          9          9          9          9          9          9          9          9          9          9          9          9          9          9          9          9          9          9          9          9          9          9          9          9          9          9          9          9          9          9          9          9          9          9          9          9          9          9          9          9          9          9          9          9          9          9          9          9          9          9          9          9          9          9          9          9          9          9          9          9          9          9          9          9          9          9          9          9          9          9          9          9          9          9          9          9          9          9          9          9          9          9          9          9          9          9          9          9          9          9          9          9          9          9          9          9          9          9          9          9          9          9          9          9          9          9          9          9          9          9          9          9          9          9          9          9          9          9          9          9          9          9          9          9          9          9          9          9          9          9          9          9          9          9          9          9          9          9          9          9          9          9          9          9          9          9          9          9          9          9          9          9          9          9          9          9          9          9          9          9          9          9          9          9          9          9          9          9          9          9          9          9          9          9          9          9          9          9          9          9          9          9          9          9          9          9          9          9          9          9          9          9          9          9          9          9          9          9          9          9          9          9          9          9          9          9          9          9          9          9          9          9          9          9          9          9          9          9          9          9          9          9          9          9          9          9          9          9          9          9          9          9          9          9          9          9          9          9          9          9          9          9          9          9          9          9          9          9          9          9          9          9          9          9          9          9          9          9          9          9          9          9          9          9          9          9          9          9          9          9          9          9          9          9          9          9          9          9          9          9          9          9          9          9          9          9          9          9          9          9          9          9          9          9          9          9          9          9          9          9          9          9          9          9          9          9          9          9          9          9          9          9          9          9          9          9          9          9          9          9          9          9          9          9          9          9          9          9          9          9          9          9          9          9          9          9          9          9          9          9          9          9          9          9          9          9          9          9          9          9          9          9          9          9          9          9          9          9          9          9          9          9          9          9          9          9          9          9          9          9          9          9          9          9          9          9          9          9          9          9          9          9          9          9          9          9          9          9          9          9          9          9          9          9          9          9          9          9          9          9          9          9          9          9          9          9          9          9          9          9          9          9          9          9          9          9          9          9          9          9          9          9          9          9          9          9          9          9          9          9          9          9          9          9          9          9          9          9          9          9          9          9          9          9          9          9          9          9          9          9          9          9          9          9          9          9          9          9          9          9          9          9          9          9          9          9          9          9          9          9          9          9          9          9          9          9          9          9          9          9          9          9          9          9          9          9          9          9          9          9          9          9          9          9          9          9          9          9          9          9          9          9          9          9          9          9          9          9          9          9          9          9          9          9          9          9          9          9          9          9          9          9          9          9          9          9          9          9          9          9          9          9          9          9          9          9          9          9          9          9          9          9          9          9          9          9          9          9          9          9          9          9          9          9          9          9          9          9          9          9          9          9          9          9          9          9          9          9          9          9          9          9          9          9          9          9          9          9          9          9          9          9          9          9          9          9          9          9          9          9          9          9          9          9          9          9          9          9          9          9          9          9          9          9          9          9          9          9          9          9          9          9          9          9          9          9          9          9          9          9          9          9          9          9          9          9          9          9          9          9          9          9          9          9          9          9 </DataArray>
</Cells>
<CellData>
<DataArray type="Int32"                                    Name="material"                                                      NumberOfComponents=" 1" format="ascii">
         1          1          1          1          1          1          1          1          1          1          1          1          1          1          1          1          1          1          1          1          1          1          1          1          1          1          1          1          1          1          1          1          1          1          1          1          1          1          1          1          1          1          1          1          1          1          1          1          1          1          1          1          1          1          1          1          1          1          1          1          1          1          1          1          1          1          1          1          1          1          1          1          1          1          1          1          1          1          1          1          1          1          1          1          1          1          1          1          1          1          1          1          1          1          1          1          1          1          1          1          1          1          1          1          1          1          1          1          1          1          1          1          1          1          1          1          1          1          1          1          1          1          1          1          1          1          1          1          1          1          1          1          1          1          1          1          1          1          1          1          1          1          1          1          1          1          1          1          1          1          1          1          1          1          1          1          1          1          1          1          1          1          1          1          1          1          1          1          1          1          1          1          1          1          1          1          1          1          1          1          1          1          1          1          1          1          1          1          1          1          1          1          1          1          1          1          1          1          1          1          1          1          1          1          1          1          1          1          1          1          1          1          1          1          1          1          1          1          1          1          1          1          1          1          1          1          1          1          1          1          1          1          1          1          1          1          1          1          1          1          1          1          1          1          1          1          1          1          1          1          1          1          1          1          1          1          1          1          1          1          1          1          1          1          1          1          1          1          1          1          1          1          1          1          1          1          1          1          1          1          1          1          1          1          1          1          1          1          1          1          1          1          1          1          1          1          1          1          1          1          1          1          1          1          1          1          1          1          1          1          1          1          1          1          1          1          1          1          1          1          1          1          1          1          1          1          1          1          1          1          1          1          1          1          1          1          1          1          1          1          1          1          1          1          1          1          1          1          1          1          1          1          1          1          1          1          1          1          1          1          1          1          1          1          1          1          1          1          1          1          1          1          1          1          1          1          1          1          1          1          1          1          1          1          1          1          1          1          1          1          1          1          1          1          1          1          1          1          1          1          1          1          1          1          1          1          1          1          1          1          1          1          1          1          1          1          1          1          1          1          1          1          1          1          1          1          1          1          1          1          1          1          1          1          1          1          1          1          1          1          1          1          1          1          1          1          1          1          1          1          1          1          1          1          1          1          1          1          1          1          1          1          1          1          1          1          1          1          1          1          1          1          1          1          1          1          1          1          1          1          1          1          1          1          1          1          1          1          1          1          1          1          1          1          1          1          1          1          1          1          1          1          1          1          1          1          1          1          1          1          1          1          1          1          1          1          1          1          1          1          1          1          1          1          1          1          1          1          1          1          1          1          1          1          1          1          1          1          1          1          1          1          1          1          1          1          1          1          1          1          1          1          1          1          1          1          1          1          1          1          1          1          1          1          1          1          1          1          1          1          1          1          1          1          1          1          1          1          1          1          1          1          1          1          1          1          1          1          1          1          1          1          1          1          1          1          1          1          1          1          1          1          1          1          1          1          1          1          1          1          1          1          1          1          1          1          1          1          1          1          1          1          1          1          1          1          1          1          1          1          1          1          1          1          1          1          1          1          1          1          1          1          1          1          1          1          1          1          1          1          1          1          1          1          1          1          1          1          1          1          1          1          1          1          1          1          1          1          1          1          1          1          1          1          1          1          1          1          1          1          1          1          1          1          1          1          1          1          1          1          1          1          1          1          1          1          1          1          1          1          1          1          1          1          1          1          1          1          1          1          1          1          1          1          1          1          1          1          1          1          1          1          1          1          1          1          1          1          1          1          1          1          1          1          1          1          1          1          1          1          1          1          1          1          1          1          1          1          1          1          1          1          1          1          1          1          1          1          1          1          1          1          1          1          1          1          1          1          1          1          1          1          1          1          1          1          1          1          1          1          1          1          1          1          1          1          1          1          1          1          1          1          1          1          1          1          1          1          1          1          1          1          1          1          1          1          1          1          1          1          1          1          1          1          1          1          1          1          1          1          1          1          1          1          1          1          1          1          1          1          1          1          1          1          1          1          1          1          1          1          1          1          1          1          1          1          1          1          1          1          1          1          1          1          1          1          1          1          1          1          1          1          1          1          1          1          1          1          1          1          1          1          1          1          1          1          1          1          1          1          1          1          1          1          1          1          1          1          1          1          1          1          1          1          1          1          1          1          1          1          1          1          1          1          1          1          1          1          1          1          1          1          1          1          1          1          1          1          1          1          1          1          1          1          1          1          1          1          1          1          1          1          1          1          1          1          1          1          1          1          1          1          1          1          1          1          1          1          1          1          1          1          1          1          1          1          1          1          1          1          1          1          1          1          1          1          1          1          1          1          1          1          1          1          1          1          1          1          1          1          1          1          1          1          1          1          1          1          1          1          1          1          1          1          1          1          1          1          1          1          1          1          1          1          1          1          1          1          1          1          1          1          1          1          1          1          1          1          1          1          1          1          1          1 </DataArray>
</CellData>
<PointData>
<DataArray type="Float64"                                    Name="u"                                                      NumberOfComponents=" 3" format="ascii">
              0.000000045              -0.000000000               1.000000000               0.000000008              -0.000000000               1.000000000              -0.000000084              -0.000000000               1.000000000              -0.000000105               0.000000000               1.000000000              -0.000000108              -0.000000000               1.000000000              -0.000000094              -0.000000000               1.000000000              -0.000000035               0.000000000               1.000000000               0.000000048               0.000000000               1.000000000               0.000000132               0.000000000               1.000000000               0.000000214              -0.000000000               1.000000000               0.000000274              -0.000000000               1.000000000               0.000000284               0.000000000               1.000000000               0.000000228               0.000000000               1.000000000               0.000000121              -0.000000000               1.000000000               0.000000015              -0.000000000               1.000000000              -0.000000031               0.000000000               1.000000000               0.000000011               0.000000000               1.000000000              -0.000000036              -0.000000048               1.000000000              -0.000000004               0.000000006               1.000000000               0.000000051               0.000000020               1.000000000               0.000000073               0.000000049               1.000000000               0.000000076               0.000000115               1.000000000               0.000000076               0.000000129               1.000000000               0.000000054               0.000000125               1.000000000               0.000000022               0.000000088               1.000000000              -0.000000007               0.000000017               1.000000000              -0.000000040              -0.000000068               1.000000000              -0.000000088              -0.000000125               1.000000000              -0.000000140              -0.000000151               1.000000000              -0.000000180              -0.000000173               1.000000000              -0.000000185              -0.000000233               1.000000000              -0.000000145              -0.000000363               1.000000000              -0.000000069              -0.000000547               1.000000000               0.000000018              -0.000000697               1.000000000              -0.000000020               0.000000012               1.000000000              -0.000000002              -0.000000000               1.000000000               0.000000010               0.000000061               1.000000000              -0.000000012               0.000000054               1.000000000              -0.000000008               0.000000032               1.000000000              -0.000000011              -0.000000012               1.000000000              -0.000000030              -0.000000080               1.000000000              -0.000000063              -0.000000172               1.000000000              -0.000000118              -0.000000255               1.000000000              -0.000000186              -0.000000294               1.000000000              -0.000000245              -0.000000302               1.000000000              -0.000000257              -0.000000314               1.000000000              -0.000000188              -0.000000367               1.000000000              -0.000000038              -0.000000475               1.000000000               0.000000145              -0.000000606               1.000000000               0.000000272              -0.000000690               1.000000000               0.000000239              -0.000000660               1.000000000               0.000000056               0.000000121               1.000000000              -0.000000000               0.000000035               1.000000000              -0.000000035               0.000000057               1.000000000              -0.000000007              -0.000000025               1.000000000              -0.000000017              -0.000000120               1.000000000              -0.000000035              -0.000000214               1.000000000              -0.000000039              -0.000000296               1.000000000              -0.000000041              -0.000000310               1.000000000              -0.000000032              -0.000000233               1.000000000              -0.000000005              -0.000000087               1.000000000               0.000000069               0.000000072               1.000000000               0.000000212               0.000000198               1.000000000               0.000000397               0.000000285               1.000000000               0.000000543               0.000000409               1.000000000               0.000000537               0.000000704               1.000000000               0.000000258               0.000001327               1.000000000              -0.000000407               0.000002425               1.000000000              -0.000000009               0.000000136               1.000000000              -0.000000003               0.000000009               1.000000000               0.000000013              -0.000000058               1.000000000               0.000000005              -0.000000153               1.000000000              -0.000000010              -0.000000221               1.000000000              -0.000000022              -0.000000207               1.000000000              -0.000000018              -0.000000071               1.000000000               0.000000010               0.000000211               1.000000000               0.000000046               0.000000632               1.000000000               0.000000123               0.000001121               1.000000000               0.000000245               0.000001620               1.000000000               0.000000356               0.000002127               1.000000000               0.000000354               0.000002736               1.000000000               0.000000100               0.000003616               1.000000000              -0.000000527               0.000004950               1.000000000              -0.000001620               0.000006909               1.000000000              -0.000003229               0.000009652               1.000000000              -0.000000044               0.000000061               1.000000000               0.000000027              -0.000000080               1.000000000              -0.000000010              -0.000000205               1.000000000              -0.000000015              -0.000000198               1.000000000               0.000000019              -0.000000081               1.000000000               0.000000030               0.000000265               1.000000000               0.000000073               0.000000824               1.000000000               0.000000105               0.000001610               1.000000000               0.000000148               0.000002560               1.000000000               0.000000195               0.000003588               1.000000000               0.000000189               0.000004688               1.000000000               0.000000016               0.000005941               1.000000000              -0.000000473               0.000007541               1.000000000              -0.000001403               0.000009669               1.000000000              -0.000002858               0.000012491               1.000000000              -0.000004869               0.000016124               1.000000000              -0.000007411               0.000020632               1.000000000              -0.000000019              -0.000000084               1.000000000               0.000000038              -0.000000132               1.000000000               0.000000009              -0.000000214               1.000000000               0.000000003               0.000000011               1.000000000              -0.000000001               0.000000485               1.000000000               0.000000040               0.000001319               1.000000000               0.000000070               0.000002472               1.000000000               0.000000100               0.000003949               1.000000000               0.000000098               0.000005613               1.000000000               0.000000020               0.000007442               1.000000000              -0.000000255               0.000009480               1.000000000              -0.000000885               0.000011920               1.000000000              -0.000002008               0.000014951               1.000000000              -0.000003709               0.000018734               1.000000000              -0.000006010               0.000023377               1.000000000              -0.000008874               0.000028905               1.000000000              -0.000012244               0.000035308               1.000000000              -0.000000029              -0.000000270               1.000000000               0.000000012              -0.000000128               1.000000000               0.000000018              -0.000000080               1.000000000              -0.000000019               0.000000526               1.000000000               0.000000030               0.000001564               1.000000000               0.000000075               0.000003043               1.000000000               0.000000077               0.000004994               1.000000000               0.000000056               0.000007291               1.000000000              -0.000000062               0.000009900               1.000000000              -0.000000356               0.000012809               1.000000000              -0.000001007               0.000016184               1.000000000              -0.000002154               0.000020221               1.000000000              -0.000003913               0.000025096               1.000000000              -0.000006295               0.000030914               1.000000000              -0.000009277               0.000037685               1.000000000              -0.000012794               0.000045347               1.000000000              -0.000016778               0.000053798               1.000000000              -0.000000026              -0.000000399               1.000000000              -0.000000026              -0.000000090               1.000000000               0.000000034               0.000000289               1.000000000              -0.000000028               0.000001374               1.000000000               0.000000030               0.000003048               1.000000000               0.000000056               0.000005346               1.000000000               0.000000038               0.000008211               1.000000000              -0.000000060               0.000011584               1.000000000              -0.000000308               0.000015385               1.000000000              -0.000000853               0.000019749               1.000000000              -0.000001878               0.000024840               1.000000000              -0.000003512               0.000030879               1.000000000              -0.000005783               0.000037972               1.000000000              -0.000008665               0.000046164               1.000000000              -0.000012081               0.000055401               1.000000000              -0.000015956               0.000065567               1.000000000              -0.000020143               0.000076439               1.000000000               0.000000020              -0.000000442               1.000000000              -0.000000077              -0.000000061               1.000000000               0.000000050               0.000000602               1.000000000              -0.000000023               0.000001741               1.000000000               0.000000012               0.000003578               1.000000000               0.000000067               0.000005988               1.000000000               0.000000047               0.000008942               1.000000000              -0.000000018               0.000012458               1.000000000              -0.000000161               0.000016416               1.000000000              -0.000000443               0.000020888               1.000000000              -0.000000980               0.000025925               1.000000000              -0.000001900               0.000031689               1.000000000              -0.000003258               0.000038287               1.000000000              -0.000005075               0.000045823               1.000000000              -0.000007306               0.000054312               1.000000000              -0.000009909               0.000063792               1.000000000              -0.000012851               0.000074196               1.000000000               0.000000034              -0.000000441               1.000000000              -0.000000093               0.000000003               1.000000000               0.000000021               0.000000898               1.000000000               0.000000015               0.000002155               1.000000000              -0.000000038               0.000004036               1.000000000               0.000000030               0.000006541               1.000000000               0.000000038               0.000009575               1.000000000               0.000000009               0.000013183               1.000000000              -0.000000062               0.000017301               1.000000000              -0.000000192               0.000021899               1.000000000              -0.000000422               0.000027008               1.000000000              -0.000000854               0.000032695               1.000000000              -0.000001546               0.000039050               1.000000000              -0.000002530               0.000046139               1.000000000              -0.000003812               0.000054044               1.000000000              -0.000005362               0.000062761               1.000000000              -0.000007186               0.000072364               1.000000000               0.000000013              -0.000000400               1.000000000              -0.000000075               0.000000111               1.000000000              -0.000000034               0.000001132               1.000000000               0.000000047               0.000002578               1.000000000              -0.000000028               0.000004496               1.000000000               0.000000015               0.000007047               1.000000000               0.000000052               0.000010153               1.000000000               0.000000035               0.000013773               1.000000000               0.000000009               0.000017979               1.000000000              -0.000000050               0.000022659               1.000000000              -0.000000130               0.000027866               1.000000000              -0.000000274               0.000033572               1.000000000              -0.000000538               0.000039870               1.000000000              -0.000000961               0.000046760               1.000000000              -0.000001549               0.000054341               1.000000000              -0.000002304               0.000062590               1.000000000              -0.000003177               0.000071590               1.000000000               0.000000005              -0.000000307               1.000000000              -0.000000043               0.000000237               1.000000000              -0.000000060               0.000001347               1.000000000               0.000000048               0.000002933               1.000000000              -0.000000010               0.000004926               1.000000000              -0.000000029               0.000007468               1.000000000               0.000000016               0.000010633               1.000000000               0.000000023               0.000014273               1.000000000               0.000000018               0.000018479               1.000000000               0.000000007               0.000023224               1.000000000              -0.000000013               0.000028474               1.000000000              -0.000000036               0.000034222               1.000000000              -0.000000081               0.000040506               1.000000000              -0.000000187               0.000047322               1.000000000              -0.000000368               0.000054738               1.000000000              -0.000000628               0.000062738               1.000000000              -0.000000947               0.000071378               1.000000000               0.000000001              -0.000000199               1.000000000              -0.000000033               0.000000309               1.000000000              -0.000000072               0.000001508               1.000000000               0.000000031               0.000003199               1.000000000               0.000000017               0.000005303               1.000000000              -0.000000024               0.000007867               1.000000000              -0.000000003               0.000011019               1.000000000               0.000000022               0.000014711               1.000000000               0.000000026               0.000018871               1.000000000               0.000000030               0.000023608               1.000000000               0.000000029               0.000028859               1.000000000               0.000000033               0.000034616               1.000000000               0.000000049               0.000040884               1.000000000               0.000000070               0.000047663               1.000000000               0.000000068               0.000054975               1.000000000               0.000000033               0.000062832               1.000000000              -0.000000049               0.000071251               1.000000000               0.000000003              -0.000000071               1.000000000              -0.000000016               0.000000387               1.000000000              -0.000000053               0.000001635               1.000000000               0.000000009               0.000003395               1.000000000               0.000000028               0.000005542               1.000000000               0.000000000               0.000008139               1.000000000              -0.000000007               0.000011292               1.000000000               0.000000004               0.000015024               1.000000000               0.000000004               0.000019177               1.000000000               0.000000004               0.000023882               1.000000000               0.000000007               0.000029110               1.000000000               0.000000011               0.000034857               1.000000000               0.000000022               0.000041103               1.000000000               0.000000044               0.000047862               1.000000000               0.000000074               0.000055109               1.000000000               0.000000098               0.000062876               1.000000000               0.000000104               0.000071159               1.000000000               0.000000013               0.000000022               1.000000000               0.000000001               0.000000475               1.000000000              -0.000000024               0.000001729               1.000000000              -0.000000015               0.000003510               1.000000000               0.000000011               0.000005712               1.000000000              -0.000000003               0.000008329               1.000000000              -0.000000013               0.000011454               1.000000000              -0.000000015               0.000015194               1.000000000              -0.000000010               0.000019366               1.000000000              -0.000000001               0.000024055               1.000000000               0.000000005               0.000029267               1.000000000              -0.000000001               0.000034998               1.000000000              -0.000000009               0.000041219               1.000000000              -0.000000015               0.000047965               1.000000000              -0.000000011               0.000055195               1.000000000               0.000000004               0.000062941               1.000000000               0.000000023               0.000071179               1.000000000               0.000000000               0.000000014               1.000000000               0.000000000               0.000000453               1.000000000               0.000000000               0.000001717               1.000000000              -0.000000000               0.000003537               1.000000000              -0.000000000               0.000005773               1.000000000              -0.000000000               0.000008392               1.000000000               0.000000000               0.000011510               1.000000000              -0.000000000               0.000015266               1.000000000               0.000000000               0.000019465               1.000000000               0.000000000               0.000024154               1.000000000               0.000000000               0.000029343               1.000000000               0.000000000               0.000035045               1.000000000              -0.000000000               0.000041240               1.000000000              -0.000000000               0.000047977               1.000000000              -0.000000000               0.000055211               1.000000000               0.000000000               0.000062968               1.000000000              -0.000000000               0.000071209               1.000000000               0.000000045              -0.000000000               1.000000000               0.000000008              -0.000000000               1.000000000              -0.000000084              -0.000000000               1.000000000              -0.000000105               0.000000000               1.000000000              -0.000000108              -0.000000000               1.000000000              -0.000000094              -0.000000000               1.000000000              -0.000000035               0.000000000               1.000000000               0.000000048               0.000000000               1.000000000               0.000000132               0.000000000               1.000000000               0.000000214              -0.000000000               1.000000000               0.000000274              -0.000000000               1.000000000               0.000000284               0.000000000               1.000000000               0.000000228               0.000000000               1.000000000               0.000000121              -0.000000000               1.000000000               0.000000015              -0.000000000               1.000000000              -0.000000031               0.000000000               1.000000000               0.000000011               0.000000000               1.000000000              -0.000000036               0.000000048               1.000000000              -0.000000004              -0.000000006               1.000000000               0.000000051              -0.000000020               1.000000000               0.000000073              -0.000000049               1.000000000               0.000000076              -0.000000115               1.000000000               0.000000076              -0.000000129               1.000000000               0.000000054              -0.000000125               1.000000000               0.000000022              -0.000000088               1.000000000              -0.000000007              -0.000000017               1.000000000              -0.000000040               0.000000068               1.000000000              -0.000000088               0.000000125               1.000000000              -0.000000140               0.000000151               1.000000000              -0.000000180               0.000000173               1.000000000              -0.000000185               0.000000233               1.000000000              -0.000000145               0.000000363               1.000000000              -0.000000069               0.000000547               1.000000000               0.000000018               0.000000697               1.000000000              -0.000000020              -0.000000012               1.000000000              -0.000000002               0.000000000               1.000000000               0.000000010              -0.000000061               1.000000000              -0.000000012              -0.000000054               1.000000000              -0.000000008              -0.000000032               1.000000000              -0.000000011               0.000000012               1.000000000              -0.000000030               0.000000080               1.000000000              -0.000000063               0.000000172               1.000000000              -0.000000118               0.000000255               1.000000000              -0.000000186               0.000000294               1.000000000              -0.000000245               0.000000302               1.000000000              -0.000000257               0.000000314               1.000000000              -0.000000188               0.000000367               1.000000000              -0.000000038               0.000000475               1.000000000               0.000000145               0.000000606               1.000000000               0.000000272               0.000000690               1.000000000               0.000000239               0.000000660               1.000000000               0.000000056              -0.000000121               1.000000000              -0.000000000              -0.000000035               1.000000000              -0.000000035              -0.000000057               1.000000000              -0.000000007               0.000000025               1.000000000              -0.000000017               0.000000120               1.000000000              -0.000000035               0.000000214               1.000000000              -0.000000039               0.000000296               1.000000000              -0.000000041               0.000000310               1.000000000              -0.000000032               0.000000233               1.000000000              -0.000000005               0.000000087               1.000000000               0.000000069              -0.000000072               1.000000000               0.000000212              -0.000000198               1.000000000               0.000000397              -0.000000285               1.000000000               0.000000543              -0.000000409               1.000000000               0.000000537              -0.000000704               1.000000000               0.000000258              -0.000001327               1.000000000              -0.000000407              -0.000002425               1.000000000              -0.000000009              -0.000000136               1.000000000              -0.000000003              -0.000000009               1.000000000               0.000000013               0.000000058               1.000000000               0.000000005               0.000000153               1.000000000              -0.000000010               0.000000221               1.000000000              -0.000000022               0.000000207               1.000000000              -0.000000018               0.000000071               1.000000000               0.000000010              -0.000000211               1.000000000               0.000000046              -0.000000632               1.000000000               0.000000123              -0.000001121               1.000000000               0.000000245              -0.000001620               1.000000000               0.000000356              -0.000002127               1.000000000               0.000000354              -0.000002736               1.000000000               0.000000100              -0.000003616               1.000000000              -0.000000527              -0.000004950               1.000000000              -0.000001620              -0.000006909               1.000000000              -0.000003229              -0.000009652               1.000000000              -0.000000044              -0.000000061               1.000000000               0.000000027               0.000000080               1.000000000              -0.000000010               0.000000205               1.000000000              -0.000000015               0.000000198               1.000000000               0.000000019               0.000000081               1.000000000               0.000000030              -0.000000265               1.000000000               0.000000073              -0.000000824               1.000000000               0.000000105              -0.000001610               1.000000000               0.000000148              -0.000002560               1.000000000               0.000000195              -0.000003588               1.000000000               0.000000189              -0.000004688               1.000000000               0.000000016              -0.000005941               1.000000000              -0.000000473              -0.000007541               1.000000000              -0.000001403              -0.000009669               1.000000000              -0.000002858              -0.000012491               1.000000000              -0.000004869              -0.000016124               1.000000000              -0.000007411              -0.000020632               1.000000000              -0.000000019               0.000000084               1.000000000               0.000000038               0.000000132               1.000000000               0.000000009               0.000000214               1.000000000               0.000000003              -0.000000011               1.000000000              -0.000000001              -0.000000485               1.000000000               0.000000040              -0.000001319               1.000000000               0.000000070              -0.000002472               1.000000000               0.000000100              -0.000003949               1.000000000               0.000000098              -0.000005613               1.000000000               0.000000020              -0.000007442               1.000000000              -0.000000255              -0.000009480               1.000000000              -0.000000885              -0.000011920               1.000000000              -0.000002008              -0.000014951               1.000000000              -0.000003709              -0.000018734               1.000000000              -0.000006010              -0.000023377               1.000000000              -0.000008874              -0.000028905               1.000000000              -0.000012244              -0.000035308               1.000000000              -0.000000029               0.000000270               1.000000000               0.000000012               0.000000128               1.000000000               0.000000018               0.000000080               1.000000000              -0.000000019              -0.000000526               1.000000000               0.000000030              -0.000001564               1.000000000               0.000000075              -0.000003043               1.000000000               0.000000077              -0.000004994               1.000000000               0.000000056              -0.000007291               1.000000000              -0.000000062              -0.000009900               1.000000000              -0.000000356              -0.000012809               1.000000000              -0.000001007              -0.000016184               1.000000000              -0.000002154              -0.000020221               1.000000000              -0.000003913              -0.000025096               1.000000000              -0.000006295              -0.000030914               1.000000000              -0.000009277              -0.000037685               1.000000000              -0.000012794              -0.000045347               1.000000000              -0.000016778              -0.000053798               1.000000000              -0.000000026               0.000000399               1.000000000              -0.000000026               0.000000090               1.000000000               0.000000034              -0.000000289               1.000000000              -0.000000028              -0.000001374               1.000000000               0.000000030              -0.000003048               1.000000000               0.000000056              -0.000005346               1.000000000               0.000000038              -0.000008211               1.000000000              -0.000000060              -0.000011584               1.000000000              -0.000000308              -0.000015385               1.000000000              -0.000000853              -0.000019749               1.000000000              -0.000001878              -0.000024840               1.000000000              -0.000003512              -0.000030879               1.000000000              -0.000005783              -0.000037972               1.000000000              -0.000008665              -0.000046164               1.000000000              -0.000012081              -0.000055401               1.000000000              -0.000015956              -0.000065567               1.000000000              -0.000020143              -0.000076439               1.000000000               0.000000020               0.000000442               1.000000000              -0.000000077               0.000000061               1.000000000               0.000000050              -0.000000602               1.000000000              -0.000000023              -0.000001741               1.000000000               0.000000012              -0.000003578               1.000000000               0.000000067              -0.000005988               1.000000000               0.000000047              -0.000008942               1.000000000              -0.000000018              -0.000012458               1.000000000              -0.000000161              -0.000016416               1.000000000              -0.000000443              -0.000020888               1.000000000              -0.000000980              -0.000025925               1.000000000              -0.000001900              -0.000031689               1.000000000              -0.000003258              -0.000038287               1.000000000              -0.000005075              -0.000045823               1.000000000              -0.000007306              -0.000054312               1.000000000              -0.000009909              -0.000063792               1.000000000              -0.000012851              -0.000074196               1.000000000               0.000000034               0.000000441               1.000000000              -0.000000093              -0.000000003               1.000000000               0.000000021              -0.000000898               1.000000000               0.000000015              -0.000002155               1.000000000              -0.000000038              -0.000004036               1.000000000               0.000000030              -0.000006541               1.000000000               0.000000038              -0.000009575               1.000000000               0.000000009              -0.000013183               1.000000000              -0.000000062              -0.000017301               1.000000000              -0.000000192              -0.000021899               1.000000000              -0.000000422              -0.000027008               1.000000000              -0.000000854              -0.000032695               1.000000000              -0.000001546              -0.000039050               1.000000000              -0.000002530              -0.000046139               1.000000000              -0.000003812              -0.000054044               1.000000000              -0.000005362              -0.000062761               1.000000000              -0.000007186              -0.000072364               1.000000000               0.000000013               0.000000400               1.000000000              -0.000000075              -0.000000111               1.000000000              -0.000000034              -0.000001132               1.000000000               0.000000047              -0.000002578               1.000000000              -0.000000028              -0.000004496               1.000000000               0.000000015              -0.000007047               1.000000000               0.000000052              -0.000010153               1.000000000               0.000000035              -0.000013773               1.000000000               0.000000009              -0.000017979               1.000000000              -0.000000050              -0.000022659               1.000000000              -0.000000130              -0.000027866               1.000000000              -0.000000274              -0.000033572               1.000000000              -0.000000538              -0.000039870               1.000000000              -0.000000961              -0.000046760               1.000000000              -0.000001549              -0.000054341               1.000000000              -0.000002304              -0.000062590               1.000000000              -0.000003177              -0.000071590               1.000000000               0.000000005               0.000000307               1.000000000              -0.000000043              -0.000000237               1.000000000              -0.000000060              -0.000001347               1.000000000               0.000000048              -0.000002933               1.000000000              -0.000000010              -0.000004926               1.000000000              -0.000000029              -0.000007468               1.000000000               0.000000016              -0.000010633               1.000000000               0.000000023              -0.000014273               1.000000000               0.000000018              -0.000018479               1.000000000               0.000000007              -0.000023224               1.000000000              -0.000000013              -0.000028474               1.000000000              -0.000000036              -0.000034222               1.000000000              -0.000000081              -0.000040506               1.000000000              -0.000000187              -0.000047322               1.000000000              -0.000000368              -0.000054738               1.000000000              -0.000000628              -0.000062738               1.000000000              -0.000000947              -0.000071378               1.000000000               0.000000001               0.000000199               1.000000000              -0.000000033              -0.000000309               1.000000000              -0.000000072              -0.000001508               1.000000000               0.000000031              -0.000003199               1.000000000               0.000000017              -0.000005303               1.000000000              -0.000000024              -0.000007867               1.000000000              -0.000000003              -0.000011019               1.000000000               0.000000022              -0.000014711               1.000000000               0.000000026              -0.000018871               1.000000000               0.000000030              -0.000023608               1.000000000               0.000000029              -0.000028859               1.000000000               0.000000033              -0.000034616               1.000000000               0.000000049              -0.000040884               1.000000000               0.000000070              -0.000047663               1.000000000               0.000000068              -0.000054975               1.000000000               0.000000033              -0.000062832               1.000000000              -0.000000049              -0.000071251               1.000000000               0.000000003               0.000000071               1.000000000              -0.000000016              -0.000000387               1.000000000              -0.000000053              -0.000001635               1.000000000               0.000000009              -0.000003395               1.000000000               0.000000028              -0.000005542               1.000000000               0.000000000              -0.000008139               1.000000000              -0.000000007              -0.000011292               1.000000000               0.000000004              -0.000015024               1.000000000               0.000000004              -0.000019177               1.000000000               0.000000004              -0.000023882               1.000000000               0.000000007              -0.000029110               1.000000000               0.000000011              -0.000034857               1.000000000               0.000000022              -0.000041103               1.000000000               0.000000044              -0.000047862               1.000000000               0.000000074              -0.000055109               1.000000000               0.000000098              -0.000062876               1.000000000               0.000000104              -0.000071159               1.000000000               0.000000013              -0.000000022               1.000000000               0.000000001              -0.000000475               1.000000000              -0.000000024              -0.000001729               1.000000000              -0.000000015              -0.000003510               1.000000000               0.000000011              -0.000005712               1.000000000              -0.000000003              -0.000008329               1.000000000              -0.000000013              -0.000011454               1.000000000              -0.000000015              -0.000015194               1.000000000              -0.000000010              -0.000019366               1.000000000              -0.000000001              -0.000024055               1.000000000               0.000000005              -0.000029267               1.000000000              -0.000000001              -0.000034998               1.000000000              -0.000000009              -0.000041219               1.000000000              -0.000000015              -0.000047965               1.000000000              -0.000000011              -0.000055195               1.000000000               0.000000004              -0.000062941               1.000000000               0.000000023              -0.000071179               1.000000000               0.000000000              -0.000000014               1.000000000              -0.000000000              -0.000000453               1.000000000              -0.000000000              -0.000001717               1.000000000               0.000000000              -0.000003537               1.000000000               0.000000000              -0.000005773               1.000000000              -0.000000000              -0.000008392               1.000000000              -0.000000000              -0.000011510               1.000000000              -0.000000000              -0.000015266               1.000000000              -0.000000000              -0.000019465               1.000000000              -0.000000000              -0.000024154               1.000000000              -0.000000000              -0.000029343               1.000000000              -0.000000000              -0.000035045               1.000000000              -0.000000000              -0.000041240               1.000000000               0.000000000              -0.000047977               1.000000000               0.000000000              -0.000055211               1.000000000               0.000000000              -0.000062968               1.000000000               0.000000000              -0.000071209               1.000000000              -0.000000045               0.000000000               1.000000000              -0.000000008               0.000000000               1.000000000               0.000000084               0.000000000               1.000000000               0.000000105               0.000000000               1.000000000               0.000000108              -0.000000000               1.000000000               0.000000094              -0.000000000               1.000000000               0.000000035              -0.000000000               1.000000000              -0.000000048              -0.000000000               1.000000000              -0.000000132              -0.000000000               1.000000000              -0.000000214               0.000000000               1.000000000              -0.000000274              -0.000000000               1.000000000              -0.000000284              -0.000000000               1.000000000              -0.000000228              -0.000000000               1.000000000              -0.000000121              -0.000000000               1.000000000              -0.000000015              -0.000000000               1.000000000               0.000000031              -0.000000000               1.000000000              -0.000000011               0.000000000               1.000000000               0.000000036               0.000000048               1.000000000               0.000000004              -0.000000006               1.000000000              -0.000000051              -0.000000020               1.000000000              -0.000000073              -0.000000049               1.000000000              -0.000000076              -0.000000115               1.000000000              -0.000000076              -0.000000129               1.000000000              -0.000000054              -0.000000125               1.000000000              -0.000000022              -0.000000088               1.000000000               0.000000007              -0.000000017               1.000000000               0.000000040               0.000000068               1.000000000               0.000000088               0.000000125               1.000000000               0.000000140               0.000000151               1.000000000               0.000000180               0.000000173               1.000000000               0.000000185               0.000000233               1.000000000               0.000000145               0.000000363               1.000000000               0.000000069               0.000000547               1.000000000              -0.000000018               0.000000697               1.000000000               0.000000020              -0.000000012               1.000000000               0.000000002               0.000000000               1.000000000              -0.000000010              -0.000000061               1.000000000               0.000000012              -0.000000054               1.000000000               0.000000008              -0.000000032               1.000000000               0.000000011               0.000000012               1.000000000               0.000000030               0.000000080               1.000000000               0.000000063               0.000000172               1.000000000               0.000000118               0.000000255               1.000000000               0.000000186               0.000000294               1.000000000               0.000000245               0.000000302               1.000000000               0.000000257               0.000000314               1.000000000               0.000000188               0.000000367               1.000000000               0.000000038               0.000000475               1.000000000              -0.000000145               0.000000606               1.000000000              -0.000000272               0.000000690               1.000000000              -0.000000239               0.000000660               1.000000000              -0.000000056              -0.000000121               1.000000000               0.000000000              -0.000000035               1.000000000               0.000000035              -0.000000057               1.000000000               0.000000007               0.000000025               1.000000000               0.000000017               0.000000120               1.000000000               0.000000035               0.000000214               1.000000000               0.000000039               0.000000296               1.000000000               0.000000041               0.000000310               1.000000000               0.000000032               0.000000233               1.000000000               0.000000005               0.000000087               1.000000000              -0.000000069              -0.000000072               1.000000000              -0.000000212              -0.000000198               1.000000000              -0.000000397              -0.000000285               1.000000000              -0.000000543              -0.000000409               1.000000000              -0.000000537              -0.000000704               1.000000000              -0.000000258              -0.000001327               1.000000000               0.000000407              -0.000002425               1.000000000               0.000000009              -0.000000136               1.000000000               0.000000003              -0.000000009               1.000000000              -0.000000013               0.000000058               1.000000000              -0.000000005               0.000000153               1.000000000               0.000000010               0.000000221               1.000000000               0.000000022               0.000000207               1.000000000               0.000000018               0.000000071               1.000000000              -0.000000010              -0.000000211               1.000000000              -0.000000046              -0.000000632               1.000000000              -0.000000123              -0.000001121               1.000000000              -0.000000245              -0.000001620               1.000000000              -0.000000356              -0.000002127               1.000000000              -0.000000354              -0.000002736               1.000000000              -0.000000100              -0.000003616               1.000000000               0.000000527              -0.000004950               1.000000000               0.000001620              -0.000006909               1.000000000               0.000003229              -0.000009652               1.000000000               0.000000044              -0.000000061               1.000000000              -0.000000027               0.000000080               1.000000000               0.000000010               0.000000205               1.000000000               0.000000015               0.000000198               1.000000000              -0.000000019               0.000000081               1.000000000              -0.000000030              -0.000000265               1.000000000              -0.000000073              -0.000000824               1.000000000              -0.000000105              -0.000001610               1.000000000              -0.000000148              -0.000002560               1.000000000              -0.000000195              -0.000003588               1.000000000              -0.000000189              -0.000004688               1.000000000              -0.000000016              -0.000005941               1.000000000               0.000000473              -0.000007541               1.000000000               0.000001403              -0.000009669               1.000000000               0.000002858              -0.000012491               1.000000000               0.000004869              -0.000016124               1.000000000               0.000007411              -0.000020632               1.000000000               0.000000019               0.000000084               1.000000000              -0.000000038               0.000000132               1.000000000              -0.000000009               0.000000214               1.000000000              -0.000000003              -0.000000011               1.000000000               0.000000001              -0.000000485               1.000000000              -0.000000040              -0.000001319               1.000000000              -0.000000070              -0.000002472               1.000000000              -0.000000100              -0.000003949               1.000000000              -0.000000098              -0.000005613               1.000000000              -0.000000020              -0.000007442               1.000000000               0.000000255              -0.000009480               1.000000000               0.000000885              -0.000011920               1.000000000               0.000002008              -0.000014951               1.000000000               0.000003709              -0.000018734               1.000000000               0.000006010              -0.000023377               1.000000000               0.000008874              -0.000028905               1.000000000               0.000012244              -0.000035308               1.000000000               0.000000029               0.000000270               1.000000000              -0.000000012               0.000000128               1.000000000              -0.000000018               0.000000080               1.000000000               0.000000019              -0.000000526               1.000000000              -0.000000030              -0.000001564               1.000000000              -0.000000075              -0.000003043               1.000000000              -0.000000077              -0.000004994               1.000000000              -0.000000056              -0.000007291               1.000000000               0.000000062              -0.000009900               1.000000000               0.000000356              -0.000012809               1.000000000               0.000001007              -0.000016184               1.000000000               0.000002154              -0.000020221               1.000000000               0.000003913              -0.000025096               1.000000000               0.000006295              -0.000030914               1.000000000               0.000009277              -0.000037685               1.000000000               0.000012794              -0.000045347               1.000000000               0.000016778              -0.000053798               1.000000000               0.000000026               0.000000399               1.000000000               0.000000026               0.000000090               1.000000000              -0.000000034              -0.000000289               1.000000000               0.000000028              -0.000001374               1.000000000              -0.000000030              -0.000003048               1.000000000              -0.000000056              -0.000005346               1.000000000              -0.000000038              -0.000008211               1.000000000               0.000000060              -0.000011584               1.000000000               0.000000308              -0.000015385               1.000000000               0.000000853              -0.000019749               1.000000000               0.000001878              -0.000024840               1.000000000               0.000003512              -0.000030879               1.000000000               0.000005783              -0.000037972               1.000000000               0.000008665              -0.000046164               1.000000000               0.000012081              -0.000055401               1.000000000               0.000015956              -0.000065567               1.000000000               0.000020143              -0.000076439               1.000000000              -0.000000020               0.000000442               1.000000000               0.000000077               0.000000061               1.000000000              -0.000000050              -0.000000602               1.000000000               0.000000023              -0.000001741               1.000000000              -0.000000012              -0.000003578               1.000000000              -0.000000067              -0.000005988               1.000000000              -0.000000047              -0.000008942               1.000000000               0.000000018              -0.000012458               1.000000000               0.000000161              -0.000016416               1.000000000               0.000000443              -0.000020888               1.000000000               0.000000980              -0.000025925               1.000000000               0.000001900              -0.000031689               1.000000000               0.000003258              -0.000038287               1.000000000               0.000005075              -0.000045823               1.000000000               0.000007306              -0.000054312               1.000000000               0.000009909              -0.000063792               1.000000000               0.000012851              -0.000074196               1.000000000              -0.000000034               0.000000441               1.000000000               0.000000093              -0.000000003               1.000000000              -0.000000021              -0.000000898               1.000000000              -0.000000015              -0.000002155               1.000000000               0.000000038              -0.000004036               1.000000000              -0.000000030              -0.000006541               1.000000000              -0.000000038              -0.000009575               1.000000000              -0.000000009              -0.000013183               1.000000000               0.000000062              -0.000017301               1.000000000               0.000000192              -0.000021899               1.000000000               0.000000422              -0.000027008               1.000000000               0.000000854              -0.000032695               1.000000000               0.000001546              -0.000039050               1.000000000               0.000002530              -0.000046139               1.000000000               0.000003812              -0.000054044               1.000000000               0.000005362              -0.000062761               1.000000000               0.000007186              -0.000072364               1.000000000              -0.000000013               0.000000400               1.000000000               0.000000075              -0.000000111               1.000000000               0.000000034              -0.000001132               1.000000000              -0.000000047              -0.000002578               1.000000000               0.000000028              -0.000004496               1.000000000              -0.000000015              -0.000007047               1.000000000              -0.000000052              -0.000010153               1.000000000              -0.000000035              -0.000013773               1.000000000              -0.000000009              -0.000017979               1.000000000               0.000000050              -0.000022659               1.000000000               0.000000130              -0.000027866               1.000000000               0.000000274              -0.000033572               1.000000000               0.000000538              -0.000039870               1.000000000               0.000000961              -0.000046760               1.000000000               0.000001549              -0.000054341               1.000000000               0.000002304              -0.000062590               1.000000000               0.000003177              -0.000071590               1.000000000              -0.000000005               0.000000307               1.000000000               0.000000043              -0.000000237               1.000000000               0.000000060              -0.000001347               1.000000000              -0.000000048              -0.000002933               1.000000000               0.000000010              -0.000004926               1.000000000               0.000000029              -0.000007468               1.000000000              -0.000000016              -0.000010633               1.000000000              -0.000000023              -0.000014273               1.000000000              -0.000000018              -0.000018479               1.000000000              -0.000000007              -0.000023224               1.000000000               0.000000013              -0.000028474               1.000000000               0.000000036              -0.000034222               1.000000000               0.000000081              -0.000040506               1.000000000               0.000000187              -0.000047322               1.000000000               0.000000368              -0.000054738               1.000000000               0.000000628              -0.000062738               1.000000000               0.000000947              -0.000071378               1.000000000              -0.000000001               0.000000199               1.000000000               0.000000033              -0.000000309               1.000000000               0.000000072              -0.000001508               1.000000000              -0.000000031              -0.000003199               1.000000000              -0.000000017              -0.000005303               1.000000000               0.000000024              -0.000007867               1.000000000               0.000000003              -0.000011019               1.000000000              -0.000000022              -0.000014711               1.000000000              -0.000000026              -0.000018871               1.000000000              -0.000000030              -0.000023608               1.000000000              -0.000000029              -0.000028859               1.000000000              -0.000000033              -0.000034616               1.000000000              -0.000000049              -0.000040884               1.000000000              -0.000000070              -0.000047663               1.000000000              -0.000000068              -0.000054975               1.000000000              -0.000000033              -0.000062832               1.000000000               0.000000049              -0.000071251               1.000000000              -0.000000003               0.000000071               1.000000000               0.000000016              -0.000000387               1.000000000               0.000000053              -0.000001635               1.000000000              -0.000000009              -0.000003395               1.000000000              -0.000000028              -0.000005542               1.000000000              -0.000000000              -0.000008139               1.000000000               0.000000007              -0.000011292               1.000000000              -0.000000004              -0.000015024               1.000000000              -0.000000004              -0.000019177               1.000000000              -0.000000004              -0.000023882               1.000000000              -0.000000007              -0.000029110               1.000000000              -0.000000011              -0.000034857               1.000000000              -0.000000022              -0.000041103               1.000000000              -0.000000044              -0.000047862               1.000000000              -0.000000074              -0.000055109               1.000000000              -0.000000098              -0.000062876               1.000000000              -0.000000104              -0.000071159               1.000000000              -0.000000013              -0.000000022               1.000000000              -0.000000001              -0.000000475               1.000000000               0.000000024              -0.000001729               1.000000000               0.000000015              -0.000003510               1.000000000              -0.000000011              -0.000005712               1.000000000               0.000000003              -0.000008329               1.000000000               0.000000013              -0.000011454               1.000000000               0.000000015              -0.000015194               1.000000000               0.000000010              -0.000019366               1.000000000               0.000000001              -0.000024055               1.000000000              -0.000000005              -0.000029267               1.000000000               0.000000001              -0.000034998               1.000000000               0.000000009              -0.000041219               1.000000000               0.000000015              -0.000047965               1.000000000               0.000000011              -0.000055195               1.000000000              -0.000000004              -0.000062941               1.000000000              -0.000000023              -0.000071179               1.000000000               0.000000000              -0.000000014               1.000000000              -0.000000000              -0.000000453               1.000000000              -0.000000000              -0.000001717               1.000000000               0.000000000              -0.000003537               1.000000000               0.000000000              -0.000005773               1.000000000              -0.000000000              -0.000008392               1.000000000              -0.000000000              -0.000011510               1.000000000              -0.000000000              -0.000015266               1.000000000              -0.000000000              -0.000019465               1.000000000              -0.000000000              -0.000024154               1.000000000              -0.000000000              -0.000029343               1.000000000              -0.000000000              -0.000035045               1.000000000              -0.000000000              -0.000041240               1.000000000               0.000000000              -0.000047977               1.000000000               0.000000000              -0.000055211               1.000000000               0.000000000              -0.000062968               1.000000000               0.000000000              -0.000071209               1.000000000              -0.000000045               0.000000000               1.000000000              -0.000000008               0.000000000               1.000000000               0.000000084               0.000000000               1.000000000               0.000000105               0.000000000               1.000000000               0.000000108              -0.000000000               1.000000000               0.000000094              -0.000000000               1.000000000               0.000000035              -0.000000000               1.000000000              -0.000000048              -0.000000000               1.000000000              -0.000000132              -0.000000000               1.000000000              -0.000000214               0.000000000               1.000000000              -0.000000274              -0.000000000               1.000000000              -0.000000284              -0.000000000               1.000000000              -0.000000228              -0.000000000               1.000000000              -0.000000121              -0.000000000               1.000000000              -0.000000015              -0.000000000               1.000000000               0.000000031              -0.000000000               1.000000000              -0.000000011               0.000000000               1.000000000               0.000000036              -0.000000048               1.000000000               0.000000004               0.000000006               1.000000000              -0.000000051               0.000000020               1.000000000              -0.000000073               0.000000049               1.000000000              -0.000000076               0.000000115               1.000000000              -0.000000076               0.000000129               1.000000000              -0.000000054               0.000000125               1.000000000              -0.000000022               0.000000088               1.000000000               0.000000007               0.000000017               1.000000000               0.000000040              -0.000000068               1.000000000               0.000000088              -0.000000125               1.000000000               0.000000140              -0.000000151               1.000000000               0.000000180              -0.000000173               1.000000000               0.000000185              -0.000000233               1.000000000               0.000000145              -0.000000363               1.000000000               0.000000069              -0.000000547               1.000000000              -0.000000018              -0.000000697               1.000000000               0.000000020               0.000000012               1.000000000               0.000000002              -0.000000000               1.000000000              -0.000000010               0.000000061               1.000000000               0.000000012               0.000000054               1.000000000               0.000000008               0.000000032               1.000000000               0.000000011              -0.000000012               1.000000000               0.000000030              -0.000000080               1.000000000               0.000000063              -0.000000172               1.000000000               0.000000118              -0.000000255               1.000000000               0.000000186              -0.000000294               1.000000000               0.000000245              -0.000000302               1.000000000               0.000000257              -0.000000314               1.000000000               0.000000188              -0.000000367               1.000000000               0.000000038              -0.000000475               1.000000000              -0.000000145              -0.000000606               1.000000000              -0.000000272              -0.000000690               1.000000000              -0.000000239              -0.000000660               1.000000000              -0.000000056               0.000000121               1.000000000               0.000000000               0.000000035               1.000000000               0.000000035               0.000000057               1.000000000               0.000000007              -0.000000025               1.000000000               0.000000017              -0.000000120               1.000000000               0.000000035              -0.000000214               1.000000000               0.000000039              -0.000000296               1.000000000               0.000000041              -0.000000310               1.000000000               0.000000032              -0.000000233               1.000000000               0.000000005              -0.000000087               1.000000000              -0.000000069               0.000000072               1.000000000              -0.000000212               0.000000198               1.000000000              -0.000000397               0.000000285               1.000000000              -0.000000543               0.000000409               1.000000000              -0.000000537               0.000000704               1.000000000              -0.000000258               0.000001327               1.000000000               0.000000407               0.000002425               1.000000000               0.000000009               0.000000136               1.000000000               0.000000003               0.000000009               1.000000000              -0.000000013              -0.000000058               1.000000000              -0.000000005              -0.000000153               1.000000000               0.000000010              -0.000000221               1.000000000               0.000000022              -0.000000207               1.000000000               0.000000018              -0.000000071               1.000000000              -0.000000010               0.000000211               1.000000000              -0.000000046               0.000000632               1.000000000              -0.000000123               0.000001121               1.000000000              -0.000000245               0.000001620               1.000000000              -0.000000356               0.000002127               1.000000000              -0.000000354               0.000002736               1.000000000              -0.000000100               0.000003616               1.000000000               0.000000527               0.000004950               1.000000000               0.000001620               0.000006909               1.000000000               0.000003229               0.000009652               1.000000000               0.000000044               0.000000061               1.000000000              -0.000000027              -0.000000080               1.000000000               0.000000010              -0.000000205               1.000000000               0.000000015              -0.000000198               1.000000000              -0.000000019              -0.000000081               1.000000000              -0.000000030               0.000000265               1.000000000              -0.000000073               0.000000824               1.000000000              -0.000000105               0.000001610               1.000000000              -0.000000148               0.000002560               1.000000000              -0.000000195               0.000003588               1.000000000              -0.000000189               0.000004688               1.000000000              -0.000000016               0.000005941               1.000000000               0.000000473               0.000007541               1.000000000               0.000001403               0.000009669               1.000000000               0.000002858               0.000012491               1.000000000               0.000004869               0.000016124               1.000000000               0.000007411               0.000020632               1.000000000               0.000000019              -0.000000084               1.000000000              -0.000000038              -0.000000132               1.000000000              -0.000000009              -0.000000214               1.000000000              -0.000000003               0.000000011               1.000000000               0.000000001               0.000000485               1.000000000              -0.000000040               0.000001319               1.000000000              -0.000000070               0.000002472               1.000000000              -0.000000100               0.000003949               1.000000000              -0.000000098               0.000005613               1.000000000              -0.000000020               0.000007442               1.000000000               0.000000255               0.000009480               1.000000000               0.000000885               0.000011920               1.000000000               0.000002008               0.000014951               1.000000000               0.000003709               0.000018734               1.000000000               0.000006010               0.000023377               1.000000000               0.000008874               0.000028905               1.000000000               0.000012244               0.000035308               1.000000000               0.000000029              -0.000000270               1.000000000              -0.000000012              -0.000000128               1.000000000              -0.000000018              -0.000000080               1.000000000               0.000000019               0.000000526               1.000000000              -0.000000030               0.000001564               1.000000000              -0.000000075               0.000003043               1.000000000              -0.000000077               0.000004994               1.000000000              -0.000000056               0.000007291               1.000000000               0.000000062               0.000009900               1.000000000               0.000000356               0.000012809               1.000000000               0.000001007               0.000016184               1.000000000               0.000002154               0.000020221               1.000000000               0.000003913               0.000025096               1.000000000               0.000006295               0.000030914               1.000000000               0.000009277               0.000037685               1.000000000               0.000012794               0.000045347               1.000000000               0.000016778               0.000053798               1.000000000               0.000000026              -0.000000399               1.000000000               0.000000026              -0.000000090               1.000000000              -0.000000034               0.000000289               1.000000000               0.000000028               0.000001374               1.000000000              -0.000000030               0.000003048               1.000000000              -0.000000056               0.000005346               1.000000000              -0.000000038               0.000008211               1.000000000               0.000000060               0.000011584               1.000000000               0.000000308               0.000015385               1.000000000               0.000000853               0.000019749               1.000000000               0.000001878               0.000024840               1.000000000               0.000003512               0.000030879               1.000000000               0.000005783               0.000037972               1.000000000               0.000008665               0.000046164               1.000000000               0.000012081               0.000055401               1.000000000               0.000015956               0.000065567               1.000000000               0.000020143               0.000076439               1.000000000              -0.000000020              -0.000000442               1.000000000               0.000000077              -0.000000061               1.000000000              -0.000000050               0.000000602               1.000000000               0.000000023               0.000001741               1.000000000              -0.000000012               0.000003578               1.000000000              -0.000000067               0.000005988               1.000000000              -0.000000047               0.000008942               1.000000000               0.000000018               0.000012458               1.000000000               0.000000161               0.000016416               1.000000000               0.000000443               0.000020888               1.000000000               0.000000980               0.000025925               1.000000000               0.000001900               0.000031689               1.000000000               0.000003258               0.000038287               1.000000000               0.000005075               0.000045823               1.000000000               0.000007306               0.000054312               1.000000000               0.000009909               0.000063792               1.000000000               0.000012851               0.000074196               1.000000000              -0.000000034              -0.000000441               1.000000000               0.000000093               0.000000003               1.000000000              -0.000000021               0.000000898               1.000000000              -0.000000015               0.000002155               1.000000000               0.000000038               0.000004036               1.000000000              -0.000000030               0.000006541               1.000000000              -0.000000038               0.000009575               1.000000000              -0.000000009               0.000013183               1.000000000               0.000000062               0.000017301               1.000000000               0.000000192               0.000021899               1.000000000               0.000000422               0.000027008               1.000000000               0.000000854               0.000032695               1.000000000               0.000001546               0.000039050               1.000000000               0.000002530               0.000046139               1.000000000               0.000003812               0.000054044               1.000000000               0.000005362               0.000062761               1.000000000               0.000007186               0.000072364               1.000000000              -0.000000013              -0.000000400               1.000000000               0.000000075               0.000000111               1.000000000               0.000000034               0.000001132               1.000000000              -0.000000047               0.000002578               1.000000000               0.000000028               0.000004496               1.000000000              -0.000000015               0.000007047               1.000000000              -0.000000052               0.000010153               1.000000000              -0.000000035               0.000013773               1.000000000              -0.000000009               0.000017979               1.000000000               0.000000050               0.000022659               1.000000000               0.000000130               0.000027866               1.000000000               0.000000274               0.000033572               1.000000000               0.000000538               0.000039870               1.000000000               0.000000961               0.000046760               1.000000000               0.000001549               0.000054341               1.000000000               0.000002304               0.000062590               1.000000000               0.000003177               0.000071590               1.000000000              -0.000000005              -0.000000307               1.000000000               0.000000043               0.000000237               1.000000000               0.000000060               0.000001347               1.000000000              -0.000000048               0.000002933               1.000000000               0.000000010               0.000004926               1.000000000               0.000000029               0.000007468               1.000000000              -0.000000016               0.000010633               1.000000000              -0.000000023               0.000014273               1.000000000              -0.000000018               0.000018479               1.000000000              -0.000000007               0.000023224               1.000000000               0.000000013               0.000028474               1.000000000               0.000000036               0.000034222               1.000000000               0.000000081               0.000040506               1.000000000               0.000000187               0.000047322               1.000000000               0.000000368               0.000054738               1.000000000               0.000000628               0.000062738               1.000000000               0.000000947               0.000071378               1.000000000              -0.000000001              -0.000000199               1.000000000               0.000000033               0.000000309               1.000000000               0.000000072               0.000001508               1.000000000              -0.000000031               0.000003199               1.000000000              -0.000000017               0.000005303               1.000000000               0.000000024               0.000007867               1.000000000               0.000000003               0.000011019               1.000000000              -0.000000022               0.000014711               1.000000000              -0.000000026               0.000018871               1.000000000              -0.000000030               0.000023608               1.000000000              -0.000000029               0.000028859               1.000000000              -0.000000033               0.000034616               1.000000000              -0.000000049               0.000040884               1.000000000              -0.000000070               0.000047663               1.000000000              -0.000000068               0.000054975               1.000000000              -0.000000033               0.000062832               1.000000000               0.000000049               0.000071251               1.000000000              -0.000000003              -0.000000071               1.000000000               0.000000016               0.000000387               1.000000000               0.000000053               0.000001635               1.000000000              -0.000000009               0.000003395               1.000000000              -0.000000028               0.000005542               1.000000000              -0.000000000               0.000008139               1.000000000               0.000000007               0.000011292               1.000000000              -0.000000004               0.000015024               1.000000000              -0.000000004               0.000019177               1.000000000              -0.000000004               0.000023882               1.000000000              -0.000000007               0.000029110               1.000000000              -0.000000011               0.000034857               1.000000000              -0.000000022               0.000041103               1.000000000              -0.000000044               0.000047862               1.000000000              -0.000000074               0.000055109               1.000000000              -0.000000098               0.000062876               1.000000000              -0.000000104               0.000071159               1.000000000              -0.000000013               0.000000022               1.000000000              -0.000000001               0.000000475               1.000000000               0.000000024               0.000001729               1.000000000               0.000000015               0.000003510               1.000000000              -0.000000011               0.000005712               1.000000000               0.000000003               0.000008329               1.000000000               0.000000013               0.000011454               1.000000000               0.000000015               0.000015194               1.000000000               0.000000010               0.000019366               1.000000000               0.000000001               0.000024055               1.000000000              -0.000000005               0.000029267               1.000000000               0.000000001               0.000034998               1.000000000               0.000000009               0.000041219               1.000000000               0.000000015               0.000047965               1.000000000               0.000000011               0.000055195               1.000000000              -0.000000004               0.000062941               1.000000000              -0.000000023               0.000071179               1.000000000               0.000000000               0.000000014               1.000000000               0.000000000               0.000000453               1.000000000               0.000000000               0.000001717               1.000000000              -0.000000000               0.000003537               1.000000000              -0.000000000               0.000005773               1.000000000              -0.000000000               0.000008392               1.000000000               0.000000000               0.000011510               1.000000000              -0.000000000               0.000015266               1.000000000               0.000000000               0.000019465               1.000000000               0.000000000               0.000024154               1.000000000               0.000000000               0.000029343               1.000000000               0.000000000               0.000035045               1.000000000              -0.000000000               0.000041240               1.000000000              -0.000000000               0.000047977               1.000000000              -0.000000000               0.000055211               1.000000000               0.000000000               0.000062968               1.000000000              -0.000000000               0.000071209               1.000000000 </DataArray>
<DataArray type="Float64"                                    Name="defo"                                                      NumberOfComponents=" 3" format="ascii">
              0.000000045              -0.000000000               1.000000000               0.000000008              -0.000000000               1.000000000              -0.000000084              -0.000000000               1.000000000              -0.000000105               0.000000000               1.000000000              -0.000000108              -0.000000000               1.000000000              -0.000000094              -0.000000000               1.000000000              -0.000000035               0.000000000               1.000000000               0.000000048               0.000000000               1.000000000               0.000000132               0.000000000               1.000000000               0.000000214              -0.000000000               1.000000000               0.000000274              -0.000000000               1.000000000               0.000000284               0.000000000               1.000000000               0.000000228               0.000000000               1.000000000               0.000000121              -0.000000000               1.000000000               0.000000015              -0.000000000               1.000000000              -0.000000031               0.000000000               1.000000000               0.000000011               0.000000000               1.000000000              -0.000000036              -0.000000048               1.000000000              -0.000000004               0.000000006               1.000000000               0.000000051               0.000000020               1.000000000               0.000000073               0.000000049               1.000000000               0.000000076               0.000000115               1.000000000               0.000000076               0.000000129               1.000000000               0.000000054               0.000000125               1.000000000               0.000000022               0.000000088               1.000000000              -0.000000007               0.000000017               1.000000000              -0.000000040              -0.000000068               1.000000000              -0.000000088              -0.000000125               1.000000000              -0.000000140              -0.000000151               1.000000000              -0.000000180              -0.000000173               1.000000000              -0.000000185              -0.000000233               1.000000000              -0.000000145              -0.000000363               1.000000000              -0.000000069              -0.000000547               1.000000000               0.000000018              -0.000000697               1.000000000              -0.000000020               0.000000012               1.000000000              -0.000000002              -0.000000000               1.000000000               0.000000010               0.000000061               1.000000000              -0.000000012               0.000000054               1.000000000              -0.000000008               0.000000032               1.000000000              -0.000000011              -0.000000012               1.000000000              -0.000000030              -0.000000080               1.000000000              -0.000000063              -0.000000172               1.000000000              -0.000000118              -0.000000255               1.000000000              -0.000000186              -0.000000294               1.000000000              -0.000000245              -0.000000302               1.000000000              -0.000000257              -0.000000314               1.000000000              -0.000000188              -0.000000367               1.000000000              -0.000000038              -0.000000475               1.000000000               0.000000145              -0.000000606               1.000000000               0.000000272              -0.000000690               1.000000000               0.000000239              -0.000000660               1.000000000               0.000000056               0.000000121               1.000000000              -0.000000000               0.000000035               1.000000000              -0.000000035               0.000000057               1.000000000              -0.000000007              -0.000000025               1.000000000              -0.000000017              -0.000000120               1.000000000              -0.000000035              -0.000000214               1.000000000              -0.000000039              -0.000000296               1.000000000              -0.000000041              -0.000000310               1.000000000              -0.000000032              -0.000000233               1.000000000              -0.000000005              -0.000000087               1.000000000               0.000000069               0.000000072               1.000000000               0.000000212               0.000000198               1.000000000               0.000000397               0.000000285               1.000000000               0.000000543               0.000000409               1.000000000               0.000000537               0.000000704               1.000000000               0.000000258               0.000001327               1.000000000              -0.000000407               0.000002425               1.000000000              -0.000000009               0.000000136               1.000000000              -0.000000003               0.000000009               1.000000000               0.000000013              -0.000000058               1.000000000               0.000000005              -0.000000153               1.000000000              -0.000000010              -0.000000221               1.000000000              -0.000000022              -0.000000207               1.000000000              -0.000000018              -0.000000071               1.000000000               0.000000010               0.000000211               1.000000000               0.000000046               0.000000632               1.000000000               0.000000123               0.000001121               1.000000000               0.000000245               0.000001620               1.000000000               0.000000356               0.000002127               1.000000000               0.000000354               0.000002736               1.000000000               0.000000100               0.000003616               1.000000000              -0.000000527               0.000004950               1.000000000              -0.000001620               0.000006909               1.000000000              -0.000003229               0.000009652               1.000000000              -0.000000044               0.000000061               1.000000000               0.000000027              -0.000000080               1.000000000              -0.000000010              -0.000000205               1.000000000              -0.000000015              -0.000000198               1.000000000               0.000000019              -0.000000081               1.000000000               0.000000030               0.000000265               1.000000000               0.000000073               0.000000824               1.000000000               0.000000105               0.000001610               1.000000000               0.000000148               0.000002560               1.000000000               0.000000195               0.000003588               1.000000000               0.000000189               0.000004688               1.000000000               0.000000016               0.000005941               1.000000000              -0.000000473               0.000007541               1.000000000              -0.000001403               0.000009669               1.000000000              -0.000002858               0.000012491               1.000000000              -0.000004869               0.000016124               1.000000000              -0.000007411               0.000020632               1.000000000              -0.000000019              -0.000000084               1.000000000               0.000000038              -0.000000132               1.000000000               0.000000009              -0.000000214               1.000000000               0.000000003               0.000000011               1.000000000              -0.000000001               0.000000485               1.000000000               0.000000040               0.000001319               1.000000000               0.000000070               0.000002472               1.000000000               0.000000100               0.000003949               1.000000000               0.000000098               0.000005613               1.000000000               0.000000020               0.000007442               1.000000000              -0.000000255               0.000009480               1.000000000              -0.000000885               0.000011920               1.000000000              -0.000002008               0.000014951               1.000000000              -0.000003709               0.000018734               1.000000000              -0.000006010               0.000023377               1.000000000              -0.000008874               0.000028905               1.000000000              -0.000012244               0.000035308               1.000000000              -0.000000029              -0.000000270               1.000000000               0.000000012              -0.000000128               1.000000000               0.000000018              -0.000000080               1.000000000              -0.000000019               0.000000526               1.000000000               0.000000030               0.000001564               1.000000000               0.000000075               0.000003043               1.000000000               0.000000077               0.000004994               1.000000000               0.000000056               0.000007291               1.000000000              -0.000000062               0.000009900               1.000000000              -0.000000356               0.000012809               1.000000000              -0.000001007               0.000016184               1.000000000              -0.000002154               0.000020221               1.000000000              -0.000003913               0.000025096               1.000000000              -0.000006295               0.000030914               1.000000000              -0.000009277               0.000037685               1.000000000              -0.000012794               0.000045347               1.000000000              -0.000016778               0.000053798               1.000000000              -0.000000026              -0.000000399               1.000000000              -0.000000026              -0.000000090               1.000000000               0.000000034               0.000000289               1.000000000              -0.000000028               0.000001374               1.000000000               0.000000030               0.000003048               1.000000000               0.000000056               0.000005346               1.000000000               0.000000038               0.000008211               1.000000000              -0.000000060               0.000011584               1.000000000              -0.000000308               0.000015385               1.000000000              -0.000000853               0.000019749               1.000000000              -0.000001878               0.000024840               1.000000000              -0.000003512               0.000030879               1.000000000              -0.000005783               0.000037972               1.000000000              -0.000008665               0.000046164               1.000000000              -0.000012081               0.000055401               1.000000000              -0.000015956               0.000065567               1.000000000              -0.000020143               0.000076439               1.000000000               0.000000020              -0.000000442               1.000000000              -0.000000077              -0.000000061               1.000000000               0.000000050               0.000000602               1.000000000              -0.000000023               0.000001741               1.000000000               0.000000012               0.000003578               1.000000000               0.000000067               0.000005988               1.000000000               0.000000047               0.000008942               1.000000000              -0.000000018               0.000012458               1.000000000              -0.000000161               0.000016416               1.000000000              -0.000000443               0.000020888               1.000000000              -0.000000980               0.000025925               1.000000000              -0.000001900               0.000031689               1.000000000              -0.000003258               0.000038287               1.000000000              -0.000005075               0.000045823               1.000000000              -0.000007306               0.000054312               1.000000000              -0.000009909               0.000063792               1.000000000              -0.000012851               0.000074196               1.000000000               0.000000034              -0.000000441               1.000000000              -0.000000093               0.000000003               1.000000000               0.000000021               0.000000898               1.000000000               0.000000015               0.000002155               1.000000000              -0.000000038               0.000004036               1.000000000               0.000000030               0.000006541               1.000000000               0.000000038               0.000009575               1.000000000               0.000000009               0.000013183               1.000000000              -0.000000062               0.000017301               1.000000000              -0.000000192               0.000021899               1.000000000              -0.000000422               0.000027008               1.000000000              -0.000000854               0.000032695               1.000000000              -0.000001546               0.000039050               1.000000000              -0.000002530               0.000046139               1.000000000              -0.000003812               0.000054044               1.000000000              -0.000005362               0.000062761               1.000000000              -0.000007186               0.000072364               1.000000000               0.000000013              -0.000000400               1.000000000              -0.000000075               0.000000111               1.000000000              -0.000000034               0.000001132               1.000000000               0.000000047               0.000002578               1.000000000              -0.000000028               0.000004496               1.000000000               0.000000015               0.000007047               1.000000000               0.000000052               0.000010153               1.000000000               0.000000035               0.000013773               1.000000000               0.000000009               0.000017979               1.000000000              -0.000000050               0.000022659               1.000000000              -0.000000130               0.000027866               1.000000000              -0.000000274               0.000033572               1.000000000              -0.000000538               0.000039870               1.000000000              -0.000000961               0.000046760               1.000000000              -0.000001549               0.000054341               1.000000000              -0.000002304               0.000062590               1.000000000              -0.000003177               0.000071590               1.000000000               0.000000005              -0.000000307               1.000000000              -0.000000043               0.000000237               1.000000000              -0.000000060               0.000001347               1.000000000               0.000000048               0.000002933               1.000000000              -0.000000010               0.000004926               1.000000000              -0.000000029               0.000007468               1.000000000               0.000000016               0.000010633               1.000000000               0.000000023               0.000014273               1.000000000               0.000000018               0.000018479               1.000000000               0.000000007               0.000023224               1.000000000              -0.000000013               0.000028474               1.000000000              -0.000000036               0.000034222               1.000000000              -0.000000081               0.000040506               1.000000000              -0.000000187               0.000047322               1.000000000              -0.000000368               0.000054738               1.000000000              -0.000000628               0.000062738               1.000000000              -0.000000947               0.000071378               1.000000000               0.000000001              -0.000000199               1.000000000              -0.000000033               0.000000309               1.000000000              -0.000000072               0.000001508               1.000000000               0.000000031               0.000003199               1.000000000               0.000000017               0.000005303               1.000000000              -0.000000024               0.000007867               1.000000000              -0.000000003               0.000011019               1.000000000               0.000000022               0.000014711               1.000000000               0.000000026               0.000018871               1.000000000               0.000000030               0.000023608               1.000000000               0.000000029               0.000028859               1.000000000               0.000000033               0.000034616               1.000000000               0.000000049               0.000040884               1.000000000               0.000000070               0.000047663               1.000000000               0.000000068               0.000054975               1.000000000               0.000000033               0.000062832               1.000000000              -0.000000049               0.000071251               1.000000000               0.000000003              -0.000000071               1.000000000              -0.000000016               0.000000387               1.000000000              -0.000000053               0.000001635               1.000000000               0.000000009               0.000003395               1.000000000               0.000000028               0.000005542               1.000000000               0.000000000               0.000008139               1.000000000              -0.000000007               0.000011292               1.000000000               0.000000004               0.000015024               1.000000000               0.000000004               0.000019177               1.000000000               0.000000004               0.000023882               1.000000000               0.000000007               0.000029110               1.000000000               0.000000011               0.000034857               1.000000000               0.000000022               0.000041103               1.000000000               0.000000044               0.000047862               1.000000000               0.000000074               0.000055109               1.000000000               0.000000098               0.000062876               1.000000000               0.000000104               0.000071159               1.000000000               0.000000013               0.000000022               1.000000000               0.000000001               0.000000475               1.000000000              -0.000000024               0.000001729               1.000000000              -0.000000015               0.000003510               1.000000000               0.000000011               0.000005712               1.000000000              -0.000000003               0.000008329               1.000000000              -0.000000013               0.000011454               1.000000000              -0.000000015               0.000015194               1.000000000              -0.000000010               0.000019366               1.000000000              -0.000000001               0.000024055               1.000000000               0.000000005               0.000029267               1.000000000              -0.000000001               0.000034998               1.000000000              -0.000000009               0.000041219               1.000000000              -0.000000015               0.000047965               1.000000000              -0.000000011               0.000055195               1.000000000               0.000000004               0.000062941               1.000000000               0.000000023               0.000071179               1.000000000               0.000000000               0.000000014               1.000000000               0.000000000               0.000000453               1.000000000               0.000000000               0.000001717               1.000000000              -0.000000000               0.000003537               1.000000000              -0.000000000               0.000005773               1.000000000              -0.000000000               0.000008392               1.000000000               0.000000000               0.000011510               1.000000000              -0.000000000               0.000015266               1.000000000               0.000000000               0.000019465               1.000000000               0.000000000               0.000024154               1.000000000               0.000000000               0.000029343               1.000000000               0.000000000               0.000035045               1.000000000              -0.000000000               0.000041240               1.000000000              -0.000000000               0.000047977               1.000000000              -0.000000000               0.000055211               1.000000000               0.000000000               0.000062968               1.000000000              -0.000000000               0.000071209               1.000000000               0.000000045              -0.000000000               1.000000000               0.000000008              -0.000000000               1.000000000              -0.000000084              -0.000000000               1.000000000              -0.000000105               0.000000000               1.000000000              -0.000000108              -0.000000000               1.000000000              -0.000000094              -0.000000000               1.000000000              -0.000000035               0.000000000               1.000000000               0.000000048               0.000000000               1.000000000               0.000000132               0.000000000               1.000000000               0.000000214              -0.000000000               1.000000000               0.000000274              -0.000000000               1.000000000               0.000000284               0.000000000               1.000000000               0.000000228               0.000000000               1.000000000               0.000000121              -0.000000000               1.000000000               0.000000015              -0.000000000               1.000000000              -0.000000031               0.000000000               1.000000000               0.000000011               0.000000000               1.000000000              -0.000000036               0.000000048               1.000000000              -0.000000004              -0.000000006               1.000000000               0.000000051              -0.000000020               1.000000000               0.000000073              -0.000000049               1.000000000               0.000000076              -0.000000115               1.000000000               0.000000076              -0.000000129               1.000000000               0.000000054              -0.000000125               1.000000000               0.000000022              -0.000000088               1.000000000              -0.000000007              -0.000000017               1.000000000              -0.000000040               0.000000068               1.000000000              -0.000000088               0.000000125               1.000000000              -0.000000140               0.000000151               1.000000000              -0.000000180               0.000000173               1.000000000              -0.000000185               0.000000233               1.000000000              -0.000000145               0.000000363               1.000000000              -0.000000069               0.000000547               1.000000000               0.000000018               0.000000697               1.000000000              -0.000000020              -0.000000012               1.000000000              -0.000000002               0.000000000               1.000000000               0.000000010              -0.000000061               1.000000000              -0.000000012              -0.000000054               1.000000000              -0.000000008              -0.000000032               1.000000000              -0.000000011               0.000000012               1.000000000              -0.000000030               0.000000080               1.000000000              -0.000000063               0.000000172               1.000000000              -0.000000118               0.000000255               1.000000000              -0.000000186               0.000000294               1.000000000              -0.000000245               0.000000302               1.000000000              -0.000000257               0.000000314               1.000000000              -0.000000188               0.000000367               1.000000000              -0.000000038               0.000000475               1.000000000               0.000000145               0.000000606               1.000000000               0.000000272               0.000000690               1.000000000               0.000000239               0.000000660               1.000000000               0.000000056              -0.000000121               1.000000000              -0.000000000              -0.000000035               1.000000000              -0.000000035              -0.000000057               1.000000000              -0.000000007               0.000000025               1.000000000              -0.000000017               0.000000120               1.000000000              -0.000000035               0.000000214               1.000000000              -0.000000039               0.000000296               1.000000000              -0.000000041               0.000000310               1.000000000              -0.000000032               0.000000233               1.000000000              -0.000000005               0.000000087               1.000000000               0.000000069              -0.000000072               1.000000000               0.000000212              -0.000000198               1.000000000               0.000000397              -0.000000285               1.000000000               0.000000543              -0.000000409               1.000000000               0.000000537              -0.000000704               1.000000000               0.000000258              -0.000001327               1.000000000              -0.000000407              -0.000002425               1.000000000              -0.000000009              -0.000000136               1.000000000              -0.000000003              -0.000000009               1.000000000               0.000000013               0.000000058               1.000000000               0.000000005               0.000000153               1.000000000              -0.000000010               0.000000221               1.000000000              -0.000000022               0.000000207               1.000000000              -0.000000018               0.000000071               1.000000000               0.000000010              -0.000000211               1.000000000               0.000000046              -0.000000632               1.000000000               0.000000123              -0.000001121               1.000000000               0.000000245              -0.000001620               1.000000000               0.000000356              -0.000002127               1.000000000               0.000000354              -0.000002736               1.000000000               0.000000100              -0.000003616               1.000000000              -0.000000527              -0.000004950               1.000000000              -0.000001620              -0.000006909               1.000000000              -0.000003229              -0.000009652               1.000000000              -0.000000044              -0.000000061               1.000000000               0.000000027               0.000000080               1.000000000              -0.000000010               0.000000205               1.000000000              -0.000000015               0.000000198               1.000000000               0.000000019               0.000000081               1.000000000               0.000000030              -0.000000265               1.000000000               0.000000073              -0.000000824               1.000000000               0.000000105              -0.000001610               1.000000000               0.000000148              -0.000002560               1.000000000               0.000000195              -0.000003588               1.000000000               0.000000189              -0.000004688               1.000000000               0.000000016              -0.000005941               1.000000000              -0.000000473              -0.000007541               1.000000000              -0.000001403              -0.000009669               1.000000000              -0.000002858              -0.000012491               1.000000000              -0.000004869              -0.000016124               1.000000000              -0.000007411              -0.000020632               1.000000000              -0.000000019               0.000000084               1.000000000               0.000000038               0.000000132               1.000000000               0.000000009               0.000000214               1.000000000               0.000000003              -0.000000011               1.000000000              -0.000000001              -0.000000485               1.000000000               0.000000040              -0.000001319               1.000000000               0.000000070              -0.000002472               1.000000000               0.000000100              -0.000003949               1.000000000               0.000000098              -0.000005613               1.000000000               0.000000020              -0.000007442               1.000000000              -0.000000255              -0.000009480               1.000000000              -0.000000885              -0.000011920               1.000000000              -0.000002008              -0.000014951               1.000000000              -0.000003709              -0.000018734               1.000000000              -0.000006010              -0.000023377               1.000000000              -0.000008874              -0.000028905               1.000000000              -0.000012244              -0.000035308               1.000000000              -0.000000029               0.000000270               1.000000000               0.000000012               0.000000128               1.000000000               0.000000018               0.000000080               1.000000000              -0.000000019              -0.000000526               1.000000000               0.000000030              -0.000001564               1.000000000               0.000000075              -0.000003043               1.000000000               0.000000077              -0.000004994               1.000000000               0.000000056              -0.000007291               1.000000000              -0.000000062              -0.000009900               1.000000000              -0.000000356              -0.000012809               1.000000000              -0.000001007              -0.000016184               1.000000000              -0.000002154              -0.000020221               1.000000000              -0.000003913              -0.000025096               1.000000000              -0.000006295              -0.000030914               1.000000000              -0.000009277              -0.000037685               1.000000000              -0.000012794              -0.000045347               1.000000000              -0.000016778              -0.000053798               1.000000000              -0.000000026               0.000000399               1.000000000              -0.000000026               0.000000090               1.000000000               0.000000034              -0.000000289               1.000000000              -0.000000028              -0.000001374               1.000000000               0.000000030              -0.000003048               1.000000000               0.000000056              -0.000005346               1.000000000               0.000000038              -0.000008211               1.000000000              -0.000000060              -0.000011584               1.000000000              -0.000000308              -0.000015385               1.000000000              -0.000000853              -0.000019749               1.000000000              -0.000001878              -0.000024840               1.000000000              -0.000003512              -0.000030879               1.000000000              -0.000005783              -0.000037972               1.000000000              -0.000008665              -0.000046164               1.000000000              -0.000012081              -0.000055401               1.000000000              -0.000015956              -0.000065567               1.000000000              -0.000020143              -0.000076439               1.000000000               0.000000020               0.000000442               1.000000000              -0.000000077               0.000000061               1.000000000               0.000000050              -0.000000602               1.000000000              -0.000000023              -0.000001741               1.000000000               0.000000012              -0.000003578               1.000000000               0.000000067              -0.000005988               1.000000000               0.000000047              -0.000008942               1.000000000              -0.000000018              -0.000012458               1.000000000              -0.000000161              -0.000016416               1.000000000              -0.000000443              -0.000020888               1.000000000              -0.000000980              -0.000025925               1.000000000              -0.000001900              -0.000031689               1.000000000              -0.000003258              -0.000038287               1.000000000              -0.000005075              -0.000045823               1.000000000              -0.000007306              -0.000054312               1.000000000              -0.000009909              -0.000063792               1.000000000              -0.000012851              -0.000074196               1.000000000               0.000000034               0.000000441               1.000000000              -0.000000093              -0.000000003               1.000000000               0.000000021              -0.000000898               1.000000000               0.000000015              -0.000002155               1.000000000              -0.000000038              -0.000004036               1.000000000               0.000000030              -0.000006541               1.000000000               0.000000038              -0.000009575               1.000000000               0.000000009              -0.000013183               1.000000000              -0.000000062              -0.000017301               1.000000000              -0.000000192              -0.000021899               1.000000000              -0.000000422              -0.000027008               1.000000000              -0.000000854              -0.000032695               1.000000000              -0.000001546              -0.000039050               1.000000000              -0.000002530              -0.000046139               1.000000000              -0.000003812              -0.000054044               1.000000000              -0.000005362              -0.000062761               1.000000000              -0.000007186              -0.000072364               1.000000000               0.000000013               0.000000400               1.000000000              -0.000000075              -0.000000111               1.000000000              -0.000000034              -0.000001132               1.000000000               0.000000047              -0.000002578               1.000000000              -0.000000028              -0.000004496               1.000000000               0.000000015              -0.000007047               1.000000000               0.000000052              -0.000010153               1.000000000               0.000000035              -0.000013773               1.000000000               0.000000009              -0.000017979               1.000000000              -0.000000050              -0.000022659               1.000000000              -0.000000130              -0.000027866               1.000000000              -0.000000274              -0.000033572               1.000000000              -0.000000538              -0.000039870               1.000000000              -0.000000961              -0.000046760               1.000000000              -0.000001549              -0.000054341               1.000000000              -0.000002304              -0.000062590               1.000000000              -0.000003177              -0.000071590               1.000000000               0.000000005               0.000000307               1.000000000              -0.000000043              -0.000000237               1.000000000              -0.000000060              -0.000001347               1.000000000               0.000000048              -0.000002933               1.000000000              -0.000000010              -0.000004926               1.000000000              -0.000000029              -0.000007468               1.000000000               0.000000016              -0.000010633               1.000000000               0.000000023              -0.000014273               1.000000000               0.000000018              -0.000018479               1.000000000               0.000000007              -0.000023224               1.000000000              -0.000000013              -0.000028474               1.000000000              -0.000000036              -0.000034222               1.000000000              -0.000000081              -0.000040506               1.000000000              -0.000000187              -0.000047322               1.000000000              -0.000000368              -0.000054738               1.000000000              -0.000000628              -0.000062738               1.000000000              -0.000000947              -0.000071378               1.000000000               0.000000001               0.000000199               1.000000000              -0.000000033              -0.000000309               1.000000000              -0.000000072              -0.000001508               1.000000000               0.000000031              -0.000003199               1.000000000               0.000000017              -0.000005303               1.000000000              -0.000000024              -0.000007867               1.000000000              -0.000000003              -0.000011019               1.000000000               0.000000022              -0.000014711               1.000000000               0.000000026              -0.000018871               1.000000000               0.000000030              -0.000023608               1.000000000               0.000000029              -0.000028859               1.000000000               0.000000033              -0.000034616               1.000000000               0.000000049              -0.000040884               1.000000000               0.000000070              -0.000047663               1.000000000               0.000000068              -0.000054975               1.000000000               0.000000033              -0.000062832               1.000000000              -0.000000049              -0.000071251               1.000000000               0.000000003               0.000000071               1.000000000              -0.000000016              -0.000000387               1.000000000              -0.000000053              -0.000001635               1.000000000               0.000000009              -0.000003395               1.000000000               0.000000028              -0.000005542               1.000000000               0.000000000              -0.000008139               1.000000000              -0.000000007              -0.000011292               1.000000000               0.000000004              -0.000015024               1.000000000               0.000000004              -0.000019177               1.000000000               0.000000004              -0.000023882               1.000000000               0.000000007              -0.000029110               1.000000000               0.000000011              -0.000034857               1.000000000               0.000000022              -0.000041103               1.000000000               0.000000044              -0.000047862               1.000000000               0.000000074              -0.000055109               1.000000000               0.000000098              -0.000062876               1.000000000               0.000000104              -0.000071159               1.000000000               0.000000013              -0.000000022               1.000000000               0.000000001              -0.000000475               1.000000000              -0.000000024              -0.000001729               1.000000000              -0.000000015              -0.000003510               1.000000000               0.000000011              -0.000005712               1.000000000              -0.000000003              -0.000008329               1.000000000              -0.000000013              -0.000011454               1.000000000              -0.000000015              -0.000015194               1.000000000              -0.000000010              -0.000019366               1.000000000              -0.000000001              -0.000024055               1.000000000               0.000000005              -0.000029267               1.000000000              -0.000000001              -0.000034998               1.000000000              -0.000000009              -0.000041219               1.000000000              -0.000000015              -0.000047965               1.000000000              -0.000000011              -0.000055195               1.000000000               0.000000004              -0.000062941               1.000000000               0.000000023              -0.000071179               1.000000000               0.000000000              -0.000000014               1.000000000              -0.000000000              -0.000000453               1.000000000              -0.000000000              -0.000001717               1.000000000               0.000000000              -0.000003537               1.000000000               0.000000000              -0.000005773               1.000000000              -0.000000000              -0.000008392               1.000000000              -0.000000000              -0.000011510               1.000000000              -0.000000000              -0.000015266               1.000000000              -0.000000000              -0.000019465               1.000000000              -0.000000000              -0.000024154               1.000000000              -0.000000000              -0.000029343               1.000000000              -0.000000000              -0.000035045               1.000000000              -0.000000000              -0.000041240               1.000000000               0.000000000              -0.000047977               1.000000000               0.000000000              -0.000055211               1.000000000               0.000000000              -0.000062968               1.000000000               0.000000000              -0.000071209               1.000000000              -0.000000045               0.000000000               1.000000000              -0.000000008               0.000000000               1.000000000               0.000000084               0.000000000               1.000000000               0.000000105               0.000000000               1.000000000               0.000000108              -0.000000000               1.000000000               0.000000094              -0.000000000               1.000000000               0.000000035              -0.000000000               1.000000000              -0.000000048              -0.000000000               1.000000000              -0.000000132              -0.000000000               1.000000000              -0.000000214               0.000000000               1.000000000              -0.000000274              -0.000000000               1.000000000              -0.000000284              -0.000000000               1.000000000              -0.000000228              -0.000000000               1.000000000              -0.000000121              -0.000000000               1.000000000              -0.000000015              -0.000000000               1.000000000               0.000000031              -0.000000000               1.000000000              -0.000000011               0.000000000               1.000000000               0.000000036               0.000000048               1.000000000               0.000000004              -0.000000006               1.000000000              -0.000000051              -0.000000020               1.000000000              -0.000000073              -0.000000049               1.000000000              -0.000000076              -0.000000115               1.000000000              -0.000000076              -0.000000129               1.000000000              -0.000000054              -0.000000125               1.000000000              -0.000000022              -0.000000088               1.000000000               0.000000007              -0.000000017               1.000000000               0.000000040               0.000000068               1.000000000               0.000000088               0.000000125               1.000000000               0.000000140               0.000000151               1.000000000               0.000000180               0.000000173               1.000000000               0.000000185               0.000000233               1.000000000               0.000000145               0.000000363               1.000000000               0.000000069               0.000000547               1.000000000              -0.000000018               0.000000697               1.000000000               0.000000020              -0.000000012               1.000000000               0.000000002               0.000000000               1.000000000              -0.000000010              -0.000000061               1.000000000               0.000000012              -0.000000054               1.000000000               0.000000008              -0.000000032               1.000000000               0.000000011               0.000000012               1.000000000               0.000000030               0.000000080               1.000000000               0.000000063               0.000000172               1.000000000               0.000000118               0.000000255               1.000000000               0.000000186               0.000000294               1.000000000               0.000000245               0.000000302               1.000000000               0.000000257               0.000000314               1.000000000               0.000000188               0.000000367               1.000000000               0.000000038               0.000000475               1.000000000              -0.000000145               0.000000606               1.000000000              -0.000000272               0.000000690               1.000000000              -0.000000239               0.000000660               1.000000000              -0.000000056              -0.000000121               1.000000000               0.000000000              -0.000000035               1.000000000               0.000000035              -0.000000057               1.000000000               0.000000007               0.000000025               1.000000000               0.000000017               0.000000120               1.000000000               0.000000035               0.000000214               1.000000000               0.000000039               0.000000296               1.000000000               0.000000041               0.000000310               1.000000000               0.000000032               0.000000233               1.000000000               0.000000005               0.000000087               1.000000000              -0.000000069              -0.000000072               1.000000000              -0.000000212              -0.000000198               1.000000000              -0.000000397              -0.000000285               1.000000000              -0.000000543              -0.000000409               1.000000000              -0.000000537              -0.000000704               1.000000000              -0.000000258              -0.000001327               1.000000000               0.000000407              -0.000002425               1.000000000               0.000000009              -0.000000136               1.000000000               0.000000003              -0.000000009               1.000000000              -0.000000013               0.000000058               1.000000000              -0.000000005               0.000000153               1.000000000               0.000000010               0.000000221               1.000000000               0.000000022               0.000000207               1.000000000               0.000000018               0.000000071               1.000000000              -0.000000010              -0.000000211               1.000000000              -0.000000046              -0.000000632               1.000000000              -0.000000123              -0.000001121               1.000000000              -0.000000245              -0.000001620               1.000000000              -0.000000356              -0.000002127               1.000000000              -0.000000354              -0.000002736               1.000000000              -0.000000100              -0.000003616               1.000000000               0.000000527              -0.000004950               1.000000000               0.000001620              -0.000006909               1.000000000               0.000003229              -0.000009652               1.000000000               0.000000044              -0.000000061               1.000000000              -0.000000027               0.000000080               1.000000000               0.000000010               0.000000205               1.000000000               0.000000015               0.000000198               1.000000000              -0.000000019               0.000000081               1.000000000              -0.000000030              -0.000000265               1.000000000              -0.000000073              -0.000000824               1.000000000              -0.000000105              -0.000001610               1.000000000              -0.000000148              -0.000002560               1.000000000              -0.000000195              -0.000003588               1.000000000              -0.000000189              -0.000004688               1.000000000              -0.000000016              -0.000005941               1.000000000               0.000000473              -0.000007541               1.000000000               0.000001403              -0.000009669               1.000000000               0.000002858              -0.000012491               1.000000000               0.000004869              -0.000016124               1.000000000               0.000007411              -0.000020632               1.000000000               0.000000019               0.000000084               1.000000000              -0.000000038               0.000000132               1.000000000              -0.000000009               0.000000214               1.000000000              -0.000000003              -0.000000011               1.000000000               0.000000001              -0.000000485               1.000000000              -0.000000040              -0.000001319               1.000000000              -0.000000070              -0.000002472               1.000000000              -0.000000100              -0.000003949               1.000000000              -0.000000098              -0.000005613               1.000000000              -0.000000020              -0.000007442               1.000000000               0.000000255              -0.000009480               1.000000000               0.000000885              -0.000011920               1.000000000               0.000002008              -0.000014951               1.000000000               0.000003709              -0.000018734               1.000000000               0.000006010              -0.000023377               1.000000000               0.000008874              -0.000028905               1.000000000               0.000012244              -0.000035308               1.000000000               0.000000029               0.000000270               1.000000000              -0.000000012               0.000000128               1.000000000              -0.000000018               0.000000080               1.000000000               0.000000019              -0.000000526               1.000000000              -0.000000030              -0.000001564               1.000000000              -0.000000075              -0.000003043               1.000000000              -0.000000077              -0.000004994               1.000000000              -0.000000056              -0.000007291               1.000000000               0.000000062              -0.000009900               1.000000000               0.000000356              -0.000012809               1.000000000               0.000001007              -0.000016184               1.000000000               0.000002154              -0.000020221               1.000000000               0.000003913              -0.000025096               1.000000000               0.000006295              -0.000030914               1.000000000               0.000009277              -0.000037685               1.000000000               0.000012794              -0.000045347               1.000000000               0.000016778              -0.000053798               1.000000000               0.000000026               0.000000399               1.000000000               0.000000026               0.000000090               1.000000000              -0.000000034              -0.000000289               1.000000000               0.000000028              -0.000001374               1.000000000              -0.000000030              -0.000003048               1.000000000              -0.000000056              -0.000005346               1.000000000              -0.000000038              -0.000008211               1.000000000               0.000000060              -0.000011584               1.000000000               0.000000308              -0.000015385               1.000000000               0.000000853              -0.000019749               1.000000000               0.000001878              -0.000024840               1.000000000               0.000003512              -0.000030879               1.000000000               0.000005783              -0.000037972               1.000000000               0.000008665              -0.000046164               1.000000000               0.000012081              -0.000055401               1.000000000               0.000015956              -0.000065567               1.000000000               0.000020143              -0.000076439               1.000000000              -0.000000020               0.000000442               1.000000000               0.000000077               0.000000061               1.000000000              -0.000000050              -0.000000602               1.000000000               0.000000023              -0.000001741               1.000000000              -0.000000012              -0.000003578               1.000000000              -0.000000067              -0.000005988               1.000000000              -0.000000047              -0.000008942               1.000000000               0.000000018              -0.000012458               1.000000000               0.000000161              -0.000016416               1.000000000               0.000000443              -0.000020888               1.000000000               0.000000980              -0.000025925               1.000000000               0.000001900              -0.000031689               1.000000000               0.000003258              -0.000038287               1.000000000               0.000005075              -0.000045823               1.000000000               0.000007306              -0.000054312               1.000000000               0.000009909              -0.000063792               1.000000000               0.000012851              -0.000074196               1.000000000              -0.000000034               0.000000441               1.000000000               0.000000093              -0.000000003               1.000000000              -0.000000021              -0.000000898               1.000000000              -0.000000015              -0.000002155               1.000000000               0.000000038              -0.000004036               1.000000000              -0.000000030              -0.000006541               1.000000000              -0.000000038              -0.000009575               1.000000000              -0.000000009              -0.000013183               1.000000000               0.000000062              -0.000017301               1.000000000               0.000000192              -0.000021899               1.000000000               0.000000422              -0.000027008               1.000000000               0.000000854              -0.000032695               1.000000000               0.000001546              -0.000039050               1.000000000               0.000002530              -0.000046139               1.000000000               0.000003812              -0.000054044               1.000000000               0.000005362              -0.000062761               1.000000000               0.000007186              -0.000072364               1.000000000              -0.000000013               0.000000400               1.000000000               0.000000075              -0.000000111               1.000000000               0.000000034              -0.000001132               1.000000000              -0.000000047              -0.000002578               1.000000000               0.000000028              -0.000004496               1.000000000              -0.000000015              -0.000007047               1.000000000              -0.000000052              -0.000010153               1.000000000              -0.000000035              -0.000013773               1.000000000              -0.000000009              -0.000017979               1.000000000               0.000000050              -0.000022659               1.000000000               0.000000130              -0.000027866               1.000000000               0.000000274              -0.000033572               1.000000000               0.000000538              -0.000039870               1.000000000               0.000000961              -0.000046760               1.000000000               0.000001549              -0.000054341               1.000000000               0.000002304              -0.000062590               1.000000000               0.000003177              -0.000071590               1.000000000              -0.000000005               0.000000307               1.000000000               0.000000043              -0.000000237               1.000000000               0.000000060              -0.000001347               1.000000000              -0.000000048              -0.000002933               1.000000000               0.000000010              -0.000004926               1.000000000               0.000000029              -0.000007468               1.000000000              -0.000000016              -0.000010633               1.000000000              -0.000000023              -0.000014273               1.000000000              -0.000000018              -0.000018479               1.000000000              -0.000000007              -0.000023224               1.000000000               0.000000013              -0.000028474               1.000000000               0.000000036              -0.000034222               1.000000000               0.000000081              -0.000040506               1.000000000               0.000000187              -0.000047322               1.000000000               0.000000368              -0.000054738               1.000000000               0.000000628              -0.000062738               1.000000000               0.000000947              -0.000071378               1.000000000              -0.000000001               0.000000199               1.000000000               0.000000033              -0.000000309               1.000000000               0.000000072              -0.000001508               1.000000000              -0.000000031              -0.000003199               1.000000000              -0.000000017              -0.000005303               1.000000000               0.000000024              -0.000007867               1.000000000               0.000000003              -0.000011019               1.000000000              -0.000000022              -0.000014711               1.000000000              -0.000000026              -0.000018871               1.000000000              -0.000000030              -0.000023608               1.000000000              -0.000000029              -0.000028859               1.000000000              -0.000000033              -0.000034616               1.000000000              -0.000000049              -0.000040884               1.000000000              -0.000000070              -0.000047663               1.000000000              -0.000000068              -0.000054975               1.000000000              -0.000000033              -0.000062832               1.000000000               0.000000049              -0.000071251               1.000000000              -0.000000003               0.000000071               1.000000000               0.000000016              -0.000000387               1.000000000               0.000000053              -0.000001635               1.000000000              -0.000000009              -0.000003395               1.000000000              -0.000000028              -0.000005542               1.000000000              -0.000000000              -0.000008139               1.000000000               0.000000007              -0.000011292               1.000000000              -0.000000004              -0.000015024               1.000000000              -0.000000004              -0.000019177               1.000000000              -0.000000004              -0.000023882               1.000000000              -0.000000007              -0.000029110               1.000000000              -0.000000011              -0.000034857               1.000000000              -0.000000022              -0.000041103               1.000000000              -0.000000044              -0.000047862               1.000000000              -0.000000074              -0.000055109               1.000000000              -0.000000098              -0.000062876               1.000000000              -0.000000104              -0.000071159               1.000000000              -0.000000013              -0.000000022               1.000000000              -0.000000001              -0.000000475               1.000000000               0.000000024              -0.000001729               1.000000000               0.000000015              -0.000003510               1.000000000              -0.000000011              -0.000005712               1.000000000               0.000000003              -0.000008329               1.000000000               0.000000013              -0.000011454               1.000000000               0.000000015              -0.000015194               1.000000000               0.000000010              -0.000019366               1.000000000               0.000000001              -0.000024055               1.000000000              -0.000000005              -0.000029267               1.000000000               0.000000001              -0.000034998               1.000000000               0.000000009              -0.000041219               1.000000000               0.000000015              -0.000047965               1.000000000               0.000000011              -0.000055195               1.000000000              -0.000000004              -0.000062941               1.000000000              -0.000000023              -0.000071179               1.000000000               0.000000000              -0.000000014               1.000000000              -0.000000000              -0.000000453               1.000000000              -0.000000000              -0.000001717               1.000000000               0.000000000              -0.000003537               1.000000000               0.000000000              -0.000005773               1.000000000              -0.000000000              -0.000008392               1.000000000              -0.000000000              -0.000011510               1.000000000              -0.000000000              -0.000015266               1.000000000              -0.000000000              -0.000019465               1.000000000              -0.000000000              -0.000024154               1.000000000              -0.000000000              -0.000029343               1.000000000              -0.000000000              -0.000035045               1.000000000              -0.000000000              -0.000041240               1.000000000               0.000000000              -0.000047977               1.000000000               0.000000000              -0.000055211               1.000000000               0.000000000              -0.000062968               1.000000000               0.000000000              -0.000071209               1.000000000              -0.000000045               0.000000000               1.000000000              -0.000000008               0.000000000               1.000000000               0.000000084               0.000000000               1.000000000               0.000000105               0.000000000               1.000000000               0.000000108              -0.000000000               1.000000000               0.000000094              -0.000000000               1.000000000               0.000000035              -0.000000000               1.000000000              -0.000000048              -0.000000000               1.000000000              -0.000000132              -0.000000000               1.000000000              -0.000000214               0.000000000               1.000000000              -0.000000274              -0.000000000               1.000000000              -0.000000284              -0.000000000               1.000000000              -0.000000228              -0.000000000               1.000000000              -0.000000121              -0.000000000               1.000000000              -0.000000015              -0.000000000               1.000000000               0.000000031              -0.000000000               1.000000000              -0.000000011               0.000000000               1.000000000               0.000000036              -0.000000048               1.000000000               0.000000004               0.000000006               1.000000000              -0.000000051               0.000000020               1.000000000              -0.000000073               0.000000049               1.000000000              -0.000000076               0.000000115               1.000000000              -0.000000076               0.000000129               1.000000000              -0.000000054               0.000000125               1.000000000              -0.000000022               0.000000088               1.000000000               0.000000007               0.000000017               1.000000000               0.000000040              -0.000000068               1.000000000               0.000000088              -0.000000125               1.000000000               0.000000140              -0.000000151               1.000000000               0.000000180              -0.000000173               1.000000000               0.000000185              -0.000000233               1.000000000               0.000000145              -0.000000363               1.000000000               0.000000069              -0.000000547               1.000000000              -0.000000018              -0.000000697               1.000000000               0.000000020               0.000000012               1.000000000               0.000000002              -0.000000000               1.000000000              -0.000000010               0.000000061               1.000000000               0.000000012               0.000000054               1.000000000               0.000000008               0.000000032               1.000000000               0.000000011              -0.000000012               1.000000000               0.000000030              -0.000000080               1.000000000               0.000000063              -0.000000172               1.000000000               0.000000118              -0.000000255               1.000000000               0.000000186              -0.000000294               1.000000000               0.000000245              -0.000000302               1.000000000               0.000000257              -0.000000314               1.000000000               0.000000188              -0.000000367               1.000000000               0.000000038              -0.000000475               1.000000000              -0.000000145              -0.000000606               1.000000000              -0.000000272              -0.000000690               1.000000000              -0.000000239              -0.000000660               1.000000000              -0.000000056               0.000000121               1.000000000               0.000000000               0.000000035               1.000000000               0.000000035               0.000000057               1.000000000               0.000000007              -0.000000025               1.000000000               0.000000017              -0.000000120               1.000000000               0.000000035              -0.000000214               1.000000000               0.000000039              -0.000000296               1.000000000               0.000000041              -0.000000310               1.000000000               0.000000032              -0.000000233               1.000000000               0.000000005              -0.000000087               1.000000000              -0.000000069               0.000000072               1.000000000              -0.000000212               0.000000198               1.000000000              -0.000000397               0.000000285               1.000000000              -0.000000543               0.000000409               1.000000000              -0.000000537               0.000000704               1.000000000              -0.000000258               0.000001327               1.000000000               0.000000407               0.000002425               1.000000000               0.000000009               0.000000136               1.000000000               0.000000003               0.000000009               1.000000000              -0.000000013              -0.000000058               1.000000000              -0.000000005              -0.000000153               1.000000000               0.000000010              -0.000000221               1.000000000               0.000000022              -0.000000207               1.000000000               0.000000018              -0.000000071               1.000000000              -0.000000010               0.000000211               1.000000000              -0.000000046               0.000000632               1.000000000              -0.000000123               0.000001121               1.000000000              -0.000000245               0.000001620               1.000000000              -0.000000356               0.000002127               1.000000000              -0.000000354               0.000002736               1.000000000              -0.000000100               0.000003616               1.000000000               0.000000527               0.000004950               1.000000000               0.000001620               0.000006909               1.000000000               0.000003229               0.000009652               1.000000000               0.000000044               0.000000061               1.000000000              -0.000000027              -0.000000080               1.000000000               0.000000010              -0.000000205               1.000000000               0.000000015              -0.000000198               1.000000000              -0.000000019              -0.000000081               1.000000000              -0.000000030               0.000000265               1.000000000              -0.000000073               0.000000824               1.000000000              -0.000000105               0.000001610               1.000000000              -0.000000148               0.000002560               1.000000000              -0.000000195               0.000003588               1.000000000              -0.000000189               0.000004688               1.000000000              -0.000000016               0.000005941               1.000000000               0.000000473               0.000007541               1.000000000               0.000001403               0.000009669               1.000000000               0.000002858               0.000012491               1.000000000               0.000004869               0.000016124               1.000000000               0.000007411               0.000020632               1.000000000               0.000000019              -0.000000084               1.000000000              -0.000000038              -0.000000132               1.000000000              -0.000000009              -0.000000214               1.000000000              -0.000000003               0.000000011               1.000000000               0.000000001               0.000000485               1.000000000              -0.000000040               0.000001319               1.000000000              -0.000000070               0.000002472               1.000000000              -0.000000100               0.000003949               1.000000000              -0.000000098               0.000005613               1.000000000              -0.000000020               0.000007442               1.000000000               0.000000255               0.000009480               1.000000000               0.000000885               0.000011920               1.000000000               0.000002008               0.000014951               1.000000000               0.000003709               0.000018734               1.000000000               0.000006010               0.000023377               1.000000000               0.000008874               0.000028905               1.000000000               0.000012244               0.000035308               1.000000000               0.000000029              -0.000000270               1.000000000              -0.000000012              -0.000000128               1.000000000              -0.000000018              -0.000000080               1.000000000               0.000000019               0.000000526               1.000000000              -0.000000030               0.000001564               1.000000000              -0.000000075               0.000003043               1.000000000              -0.000000077               0.000004994               1.000000000              -0.000000056               0.000007291               1.000000000               0.000000062               0.000009900               1.000000000               0.000000356               0.000012809               1.000000000               0.000001007               0.000016184               1.000000000               0.000002154               0.000020221               1.000000000               0.000003913               0.000025096               1.000000000               0.000006295               0.000030914               1.000000000               0.000009277               0.000037685               1.000000000               0.000012794               0.000045347               1.000000000               0.000016778               0.000053798               1.000000000               0.000000026              -0.000000399               1.000000000               0.000000026              -0.000000090               1.000000000              -0.000000034               0.000000289               1.000000000               0.000000028               0.000001374               1.000000000              -0.000000030               0.000003048               1.000000000              -0.000000056               0.000005346               1.000000000              -0.000000038               0.000008211               1.000000000               0.000000060               0.000011584               1.000000000               0.000000308               0.000015385               1.000000000               0.000000853               0.000019749               1.000000000               0.000001878               0.000024840               1.000000000               0.000003512               0.000030879               1.000000000               0.000005783               0.000037972               1.000000000               0.000008665               0.000046164               1.000000000               0.000012081               0.000055401               1.000000000               0.000015956               0.000065567               1.000000000               0.000020143               0.000076439               1.000000000              -0.000000020              -0.000000442               1.000000000               0.000000077              -0.000000061               1.000000000              -0.000000050               0.000000602               1.000000000               0.000000023               0.000001741               1.000000000              -0.000000012               0.000003578               1.000000000              -0.000000067               0.000005988               1.000000000              -0.000000047               0.000008942               1.000000000               0.000000018               0.000012458               1.000000000               0.000000161               0.000016416               1.000000000               0.000000443               0.000020888               1.000000000               0.000000980               0.000025925               1.000000000               0.000001900               0.000031689               1.000000000               0.000003258               0.000038287               1.000000000               0.000005075               0.000045823               1.000000000               0.000007306               0.000054312               1.000000000               0.000009909               0.000063792               1.000000000               0.000012851               0.000074196               1.000000000              -0.000000034              -0.000000441               1.000000000               0.000000093               0.000000003               1.000000000              -0.000000021               0.000000898               1.000000000              -0.000000015               0.000002155               1.000000000               0.000000038               0.000004036               1.000000000              -0.000000030               0.000006541               1.000000000              -0.000000038               0.000009575               1.000000000              -0.000000009               0.000013183               1.000000000               0.000000062               0.000017301               1.000000000               0.000000192               0.000021899               1.000000000               0.000000422               0.000027008               1.000000000               0.000000854               0.000032695               1.000000000               0.000001546               0.000039050               1.000000000               0.000002530               0.000046139               1.000000000               0.000003812               0.000054044               1.000000000               0.000005362               0.000062761               1.000000000               0.000007186               0.000072364               1.000000000              -0.000000013              -0.000000400               1.000000000               0.000000075               0.000000111               1.000000000               0.000000034               0.000001132               1.000000000              -0.000000047               0.000002578               1.000000000               0.000000028               0.000004496               1.000000000              -0.000000015               0.000007047               1.000000000              -0.000000052               0.000010153               1.000000000              -0.000000035               0.000013773               1.000000000              -0.000000009               0.000017979               1.000000000               0.000000050               0.000022659               1.000000000               0.000000130               0.000027866               1.000000000               0.000000274               0.000033572               1.000000000               0.000000538               0.000039870               1.000000000               0.000000961               0.000046760               1.000000000               0.000001549               0.000054341               1.000000000               0.000002304               0.000062590               1.000000000               0.000003177               0.000071590               1.000000000              -0.000000005              -0.000000307               1.000000000               0.000000043               0.000000237               1.000000000               0.000000060               0.000001347               1.000000000              -0.000000048               0.000002933               1.000000000               0.000000010               0.000004926               1.000000000               0.000000029               0.000007468               1.000000000              -0.000000016               0.000010633               1.000000000              -0.000000023               0.000014273               1.000000000              -0.000000018               0.000018479               1.000000000              -0.000000007               0.000023224               1.000000000               0.000000013               0.000028474               1.000000000               0.000000036               0.000034222               1.000000000               0.000000081               0.000040506               1.000000000               0.000000187               0.000047322               1.000000000               0.000000368               0.000054738               1.000000000               0.000000628               0.000062738               1.000000000               0.000000947               0.000071378               1.000000000              -0.000000001              -0.000000199               1.000000000               0.000000033               0.000000309               1.000000000               0.000000072               0.000001508               1.000000000              -0.000000031               0.000003199               1.000000000              -0.000000017               0.000005303               1.000000000               0.000000024               0.000007867               1.000000000               0.000000003               0.000011019               1.000000000              -0.000000022               0.000014711               1.000000000              -0.000000026               0.000018871               1.000000000              -0.000000030               0.000023608               1.000000000              -0.000000029               0.000028859               1.000000000              -0.000000033               0.000034616               1.000000000              -0.000000049               0.000040884               1.000000000              -0.000000070               0.000047663               1.000000000              -0.000000068               0.000054975               1.000000000              -0.000000033               0.000062832               1.000000000               0.000000049               0.000071251               1.000000000              -0.000000003              -0.000000071               1.000000000               0.000000016               0.000000387               1.000000000               0.000000053               0.000001635               1.000000000              -0.000000009               0.000003395               1.000000000              -0.000000028               0.000005542               1.000000000              -0.000000000               0.000008139               1.000000000               0.000000007               0.000011292               1.000000000              -0.000000004               0.000015024               1.000000000              -0.000000004               0.000019177               1.000000000              -0.000000004               0.000023882               1.000000000              -0.000000007               0.000029110               1.000000000              -0.000000011               0.000034857               1.000000000              -0.000000022               0.000041103               1.000000000              -0.000000044               0.000047862               1.000000000              -0.000000074               0.000055109               1.000000000              -0.000000098               0.000062876               1.000000000              -0.000000104               0.000071159               1.000000000              -0.000000013               0.000000022               1.000000000              -0.000000001               0.000000475               1.000000000               0.000000024               0.000001729               1.000000000               0.000000015               0.000003510               1.000000000              -0.000000011               0.000005712               1.000000000               0.000000003               0.000008329               1.000000000               0.000000013               0.000011454               1.000000000               0.000000015               0.000015194               1.000000000               0.000000010               0.000019366               1.000000000               0.000000001               0.000024055               1.000000000              -0.000000005               0.000029267               1.000000000               0.000000001               0.000034998               1.000000000               0.000000009               0.000041219               1.000000000               0.000000015               0.000047965               1.000000000               0.000000011               0.000055195               1.000000000              -0.000000004               0.000062941               1.000000000              -0.000000023               0.000071179               1.000000000               0.000000000               0.000000014               1.000000000               0.000000000               0.000000453               1.000000000               0.000000000               0.000001717               1.000000000              -0.000000000               0.000003537               1.000000000              -0.000000000               0.000005773               1.000000000              -0.000000000               0.000008392               1.000000000               0.000000000               0.000011510               1.000000000              -0.000000000               0.000015266               1.000000000               0.000000000               0.000019465               1.000000000               0.000000000               0.000024154               1.000000000               0.000000000               0.000029343               1.000000000               0.000000000               0.000035045               1.000000000              -0.000000000               0.000041240               1.000000000              -0.000000000               0.000047977               1.000000000              -0.000000000               0.000055211               1.000000000               0.000000000               0.000062968               1.000000000              -0.000000000               0.000071209               1.000000000 </DataArray>
<DataArray type="Float64"                                    Name="stress"                                                      NumberOfComponents="10" format="ascii">
             -0.000003341              -0.000006622               0.000000000              -0.000000425              -0.000002066              -0.000002491               0.000000000               0.000000000               0.000000000               0.000000000              -0.000003831              -0.000001286              -0.000000000              -0.000001276              -0.000000003              -0.000001279               0.000000000               0.000000000               0.000000000               0.000000000              -0.000002778               0.000002195              -0.000000000              -0.000001316               0.000001170              -0.000000146               0.000000000               0.000000000               0.000000000               0.000000000               0.000000964               0.000006911               0.000000000              -0.000000503               0.000002471               0.000001969               0.000000000               0.000000000               0.000000000               0.000000000               0.000003813               0.000012441               0.000000000              -0.000000125               0.000004189               0.000004063               0.000000000               0.000000000               0.000000000               0.000000000               0.000006423               0.000013955              -0.000000000               0.000000664               0.000004430               0.000005094               0.000000000               0.000000000               0.000000000               0.000000000               0.000008448               0.000012909              -0.000000000               0.000001554               0.000003785               0.000005339               0.000000000               0.000000000               0.000000000               0.000000000               0.000008436               0.000009113              -0.000000000               0.000002024               0.000002363               0.000004387               0.000000000               0.000000000               0.000000000               0.000000000               0.000006739               0.000003246              -0.000000000               0.000002121               0.000000375               0.000002496               0.000000000               0.000000000               0.000000000               0.000000000               0.000003669              -0.000002917              -0.000000000               0.000001740              -0.000001552               0.000000188               0.000000000               0.000000000               0.000000000               0.000000000              -0.000000796              -0.000007560              -0.000000000               0.000000646              -0.000002735              -0.000002089               0.000000000               0.000000000               0.000000000               0.000000000              -0.000006134              -0.000010585               0.000000000              -0.000000977              -0.000003203              -0.000004180               0.000000000               0.000000000               0.000000000               0.000000000              -0.000010628              -0.000013073               0.000000000              -0.000002351              -0.000003574              -0.000005925               0.000000000               0.000000000               0.000000000               0.000000000              -0.000012308              -0.000016369               0.000000000              -0.000002570              -0.000004600              -0.000007169               0.000000000               0.000000000               0.000000000               0.000000000              -0.000010268              -0.000021059               0.000000000              -0.000001218              -0.000006613              -0.000007832               0.000000000               0.000000000               0.000000000               0.000000000              -0.000005558              -0.000026166               0.000000000               0.000001186              -0.000009117              -0.000007931               0.000000000               0.000000000               0.000000000               0.000000000              -0.000003032              -0.000029095               0.000000000               0.000002500              -0.000010532              -0.000008032               0.000000000               0.000000000               0.000000000               0.000000000               0.000003040               0.000002072              -0.000000230               0.000000881               0.000000397               0.000001278               0.000000000               0.000000000               0.000000000               0.000000000               0.000003198               0.000002284               0.000001099               0.000000914               0.000000457               0.000001370               0.000000000               0.000000000               0.000000000               0.000000000               0.000003028               0.000004588               0.000002653               0.000000562               0.000001342               0.000001904               0.000000000               0.000000000               0.000000000               0.000000000               0.000001706               0.000003800               0.000003302               0.000000165               0.000001212               0.000001376               0.000000000               0.000000000               0.000000000               0.000000000               0.000000789               0.000001833               0.000002851               0.000000067               0.000000589               0.000000655               0.000000000               0.000000000               0.000000000               0.000000000              -0.000000661              -0.000001003               0.000001238              -0.000000123              -0.000000293              -0.000000416               0.000000000               0.000000000               0.000000000               0.000000000              -0.000002393              -0.000004450              -0.000000838              -0.000000341              -0.000001370              -0.000001711               0.000000000               0.000000000               0.000000000               0.000000000              -0.000003480              -0.000007861              -0.000003344              -0.000000322              -0.000002513              -0.000002835               0.000000000               0.000000000               0.000000000               0.000000000              -0.000004255              -0.000010291              -0.000005434              -0.000000309              -0.000003327              -0.000003637               0.000000000               0.000000000               0.000000000               0.000000000              -0.000005166              -0.000011214              -0.000006491              -0.000000536              -0.000003559              -0.000004095               0.000000000               0.000000000               0.000000000               0.000000000              -0.000005812              -0.000011142              -0.000006514              -0.000000787              -0.000003452              -0.000004238               0.000000000               0.000000000               0.000000000               0.000000000              -0.000005521              -0.000010945              -0.000005943              -0.000000702              -0.000003414              -0.000004116               0.000000000               0.000000000               0.000000000               0.000000000              -0.000003995              -0.000011358              -0.000005188              -0.000000079              -0.000003760              -0.000003838               0.000000000               0.000000000               0.000000000               0.000000000              -0.000001629              -0.000012580              -0.000004486               0.000000962              -0.000004514              -0.000003552               0.000000000               0.000000000               0.000000000               0.000000000               0.000000519              -0.000014029              -0.000003697               0.000001948              -0.000005326              -0.000003377               0.000000000               0.000000000               0.000000000               0.000000000               0.000001102              -0.000014706              -0.000002211               0.000002251              -0.000005652              -0.000003401               0.000000000               0.000000000               0.000000000               0.000000000               0.000001203              -0.000014125              -0.000001575               0.000002217              -0.000005447              -0.000003231               0.000000000               0.000000000               0.000000000               0.000000000               0.000003228               0.000011927               0.000000443              -0.000000280               0.000004069               0.000003789               0.000000000               0.000000000               0.000000000               0.000000000               0.000002838               0.000005489               0.000000459               0.000000378               0.000001704               0.000002082               0.000000000               0.000000000               0.000000000               0.000000000               0.000002161               0.000002091              -0.000001220               0.000000549               0.000000514               0.000001063               0.000000000               0.000000000               0.000000000               0.000000000              -0.000000933              -0.000005353              -0.000001982               0.000000319              -0.000001891              -0.000001571               0.000000000               0.000000000               0.000000000               0.000000000              -0.000003480              -0.000013171              -0.000001923               0.000000342              -0.000004504              -0.000004163               0.000000000               0.000000000               0.000000000               0.000000000              -0.000006149              -0.000018103              -0.000002425              -0.000000043              -0.000006020              -0.000006063               0.000000000               0.000000000               0.000000000               0.000000000              -0.000008400              -0.000020098              -0.000002550              -0.000000638              -0.000006487              -0.000007124               0.000000000               0.000000000               0.000000000               0.000000000              -0.000009360              -0.000017772              -0.000002220              -0.000001289              -0.000005494              -0.000006783               0.000000000               0.000000000               0.000000000               0.000000000              -0.000008831              -0.000011320              -0.000001150              -0.000001897              -0.000003141              -0.000005038               0.000000000               0.000000000               0.000000000               0.000000000              -0.000006438              -0.000002807               0.000000283              -0.000002063              -0.000000248              -0.000002311               0.000000000               0.000000000               0.000000000               0.000000000              -0.000001826               0.000005112               0.000001500              -0.000001324               0.000002145               0.000000821               0.000000000               0.000000000               0.000000000               0.000000000               0.000004856               0.000011329               0.000002182               0.000000405               0.000003641               0.000004046               0.000000000               0.000000000               0.000000000               0.000000000               0.000011991               0.000016475               0.000002177               0.000002437               0.000004679               0.000007116               0.000000000               0.000000000               0.000000000               0.000000000               0.000016908               0.000022717               0.000001755               0.000003501               0.000006405               0.000009906               0.000000000               0.000000000               0.000000000               0.000000000               0.000016939               0.000032488               0.000001405               0.000002291               0.000010066               0.000012357               0.000000000               0.000000000               0.000000000               0.000000000               0.000010538               0.000047360               0.000001246              -0.000001968               0.000016443               0.000014474               0.000000000               0.000000000               0.000000000               0.000000000               0.000008655               0.000061746              -0.000000631              -0.000004473               0.000022073               0.000017600               0.000000000               0.000000000               0.000000000               0.000000000              -0.000001671               0.000004727              -0.000004242              -0.000001218               0.000001981               0.000000764               0.000000000               0.000000000               0.000000000               0.000000000              -0.000003125              -0.000001382              -0.000001360              -0.000000999              -0.000000128              -0.000001127               0.000000000               0.000000000               0.000000000               0.000000000              -0.000003566              -0.000009260               0.000000064              -0.000000180              -0.000003027              -0.000003207               0.000000000               0.000000000               0.000000000               0.000000000              -0.000004896              -0.000014387              -0.000001000              -0.000000038              -0.000004783              -0.000004821               0.000000000               0.000000000               0.000000000               0.000000000              -0.000006319              -0.000015054              -0.000001300              -0.000000488              -0.000004855              -0.000005343               0.000000000               0.000000000               0.000000000               0.000000000              -0.000004294              -0.000009748              -0.000001413              -0.000000392              -0.000003119              -0.000003511               0.000000000               0.000000000               0.000000000               0.000000000              -0.000000275               0.000001494              -0.000000645              -0.000000290               0.000000594               0.000000305               0.000000000               0.000000000               0.000000000               0.000000000               0.000004651               0.000017468               0.000001166              -0.000000439               0.000005969               0.000005530               0.000000000               0.000000000               0.000000000               0.000000000               0.000010726               0.000035594               0.000003056              -0.000000427               0.000012007               0.000011580               0.000000000               0.000000000               0.000000000               0.000000000               0.000018087               0.000052608               0.000004122               0.000000207               0.000017467               0.000017674               0.000000000               0.000000000               0.000000000               0.000000000               0.000026771               0.000067630               0.000003752               0.000001586               0.000022015               0.000023600               0.000000000               0.000000000               0.000000000               0.000000000               0.000035103               0.000081745               0.000001893               0.000002945               0.000026266               0.000029212               0.000000000               0.000000000               0.000000000               0.000000000               0.000040257               0.000097561              -0.000000707               0.000002901               0.000031553               0.000034454               0.000000000               0.000000000               0.000000000               0.000000000               0.000039777               0.000118061              -0.000002883               0.000000159               0.000039300               0.000039459               0.000000000               0.000000000               0.000000000               0.000000000               0.000032392               0.000145124              -0.000003665              -0.000005993               0.000050372               0.000044379               0.000000000               0.000000000               0.000000000               0.000000000               0.000018041               0.000179590              -0.000002443              -0.000015683               0.000065090               0.000049407               0.000000000               0.000000000               0.000000000               0.000000000               0.000015333               0.000209578              -0.000004810              -0.000020447               0.000076674               0.000056227               0.000000000               0.000000000               0.000000000               0.000000000              -0.000000653              -0.000011243              -0.000004593               0.000001160              -0.000004135              -0.000002974               0.000000000               0.000000000               0.000000000               0.000000000              -0.000004849              -0.000014321              -0.000001040              -0.000000028              -0.000004764              -0.000004792               0.000000000               0.000000000               0.000000000               0.000000000              -0.000006787              -0.000018300               0.000000712              -0.000000258              -0.000006014              -0.000006272               0.000000000               0.000000000               0.000000000               0.000000000              -0.000004154              -0.000011061              -0.000000546              -0.000000175              -0.000003629              -0.000003804               0.000000000               0.000000000               0.000000000               0.000000000              -0.000000395               0.000003936              -0.000000134              -0.000000640               0.000001525               0.000000885               0.000000000               0.000000000               0.000000000               0.000000000               0.000007411               0.000027199               0.000000723              -0.000000621               0.000009273               0.000008652               0.000000000               0.000000000               0.000000000               0.000000000               0.000017839               0.000055686               0.000001888              -0.000000271               0.000018652               0.000018381               0.000000000               0.000000000               0.000000000               0.000000000               0.000028622               0.000085558               0.000002947               0.000000038               0.000028506               0.000028545               0.000000000               0.000000000               0.000000000               0.000000000               0.000039943               0.000113689               0.000002663               0.000000767               0.000037640               0.000038408               0.000000000               0.000000000               0.000000000               0.000000000               0.000051910               0.000138885               0.000000235               0.000002105               0.000045593               0.000047698               0.000000000               0.000000000               0.000000000               0.000000000               0.000062219               0.000162670              -0.000004245               0.000002998               0.000053223               0.000056222               0.000000000               0.000000000               0.000000000               0.000000000               0.000067904               0.000188064              -0.000009653               0.000001956               0.000062035               0.000063991               0.000000000               0.000000000               0.000000000               0.000000000               0.000066870               0.000218468              -0.000014238              -0.000002232               0.000073566               0.000071334               0.000000000               0.000000000               0.000000000               0.000000000               0.000058305               0.000254911              -0.000016443              -0.000010000               0.000088303               0.000078303               0.000000000               0.000000000               0.000000000               0.000000000               0.000043049               0.000296760              -0.000015219              -0.000020951               0.000105903               0.000084951               0.000000000               0.000000000               0.000000000               0.000000000               0.000022686               0.000342305              -0.000009594              -0.000034281               0.000125527               0.000091247               0.000000000               0.000000000               0.000000000               0.000000000               0.000018453               0.000377106              -0.000009570              -0.000040218               0.000139107               0.000098889               0.000000000               0.000000000               0.000000000               0.000000000              -0.000002727              -0.000021529               0.000001042               0.000001669              -0.000007732              -0.000006064               0.000000000               0.000000000               0.000000000               0.000000000              -0.000005823              -0.000017264              -0.000000234              -0.000000026              -0.000005746              -0.000005772               0.000000000               0.000000000               0.000000000               0.000000000              -0.000004666              -0.000008887               0.000000002              -0.000000639              -0.000002750              -0.000003388               0.000000000               0.000000000               0.000000000               0.000000000               0.000005710               0.000015101               0.000000304               0.000000254               0.000004949               0.000005203               0.000000000               0.000000000               0.000000000               0.000000000               0.000016993               0.000047588               0.000000813               0.000000424               0.000015721               0.000016145               0.000000000               0.000000000               0.000000000               0.000000000               0.000029694               0.000086482               0.000002131               0.000000325               0.000028719               0.000029044               0.000000000               0.000000000               0.000000000               0.000000000               0.000043765               0.000127475               0.000002804               0.000000478               0.000042332               0.000042810               0.000000000               0.000000000               0.000000000               0.000000000               0.000057410               0.000167538               0.000002081               0.000000586               0.000055650               0.000056236               0.000000000               0.000000000               0.000000000               0.000000000               0.000070932               0.000203804              -0.000001257               0.000001124               0.000067559               0.000068683               0.000000000               0.000000000               0.000000000               0.000000000               0.000082627               0.000237834              -0.000007300               0.000001256               0.000078859               0.000080114               0.000000000               0.000000000               0.000000000               0.000000000               0.000089587               0.000272796              -0.000014789              -0.000000504               0.000091099               0.000090595               0.000000000               0.000000000               0.000000000               0.000000000               0.000089348               0.000312231              -0.000021517              -0.000005523               0.000105917               0.000100394               0.000000000               0.000000000               0.000000000               0.000000000               0.000081083               0.000356977              -0.000025515              -0.000014216               0.000123730               0.000109514               0.000000000               0.000000000               0.000000000               0.000000000               0.000065798               0.000405529              -0.000025700              -0.000026017               0.000143847               0.000117830               0.000000000               0.000000000               0.000000000               0.000000000               0.000045668               0.000455464              -0.000021430              -0.000039807               0.000165089               0.000125282               0.000000000               0.000000000               0.000000000               0.000000000               0.000023096               0.000503732              -0.000012526              -0.000054305               0.000186011               0.000131705               0.000000000               0.000000000               0.000000000               0.000000000               0.000017961               0.000537075              -0.000010683              -0.000060399               0.000199156               0.000138757               0.000000000               0.000000000               0.000000000               0.000000000              -0.000002671              -0.000020313               0.000005417               0.000001538              -0.000007284              -0.000005746               0.000000000               0.000000000               0.000000000               0.000000000              -0.000000918              -0.000006644              -0.000000130               0.000000486              -0.000002377              -0.000001891               0.000000000               0.000000000               0.000000000               0.000000000               0.000003121               0.000015784              -0.000000196              -0.000000803               0.000005529               0.000004726               0.000000000               0.000000000               0.000000000               0.000000000               0.000019166               0.000057745               0.000000769              -0.000000031               0.000019258               0.000019228               0.000000000               0.000000000               0.000000000               0.000000000               0.000037499               0.000107457               0.000000903               0.000000630               0.000035608               0.000036239               0.000000000               0.000000000               0.000000000               0.000000000               0.000054851               0.000158677               0.000001835               0.000000735               0.000052647               0.000053382               0.000000000               0.000000000               0.000000000               0.000000000               0.000072301               0.000209879               0.000001118               0.000000878               0.000069666               0.000070544               0.000000000               0.000000000               0.000000000               0.000000000               0.000087970               0.000257102              -0.000001659               0.000000851               0.000085416               0.000086267               0.000000000               0.000000000               0.000000000               0.000000000               0.000101321               0.000301313              -0.000007900               0.000000331               0.000100326               0.000100658               0.000000000               0.000000000               0.000000000               0.000000000               0.000110053               0.000345776              -0.000016221              -0.000001952               0.000115908               0.000113956               0.000000000               0.000000000               0.000000000               0.000000000               0.000111139               0.000394052              -0.000024448              -0.000007579               0.000133876               0.000126297               0.000000000               0.000000000               0.000000000               0.000000000               0.000103554               0.000447464              -0.000030068              -0.000017100               0.000154853               0.000137753               0.000000000               0.000000000               0.000000000               0.000000000               0.000088484               0.000504349              -0.000031906              -0.000029862               0.000178069               0.000148207               0.000000000               0.000000000               0.000000000               0.000000000               0.000068269               0.000561951              -0.000029373              -0.000044643               0.000202196               0.000157553               0.000000000               0.000000000               0.000000000               0.000000000               0.000045703               0.000616955              -0.000022813              -0.000059980               0.000225643               0.000165663               0.000000000               0.000000000               0.000000000               0.000000000               0.000022768               0.000666195              -0.000012857              -0.000074736               0.000246975               0.000172239               0.000000000               0.000000000               0.000000000               0.000000000               0.000016872               0.000697971              -0.000010474              -0.000080919               0.000259628               0.000178708               0.000000000               0.000000000               0.000000000               0.000000000               0.000001805              -0.000006873               0.000007968               0.000001536              -0.000002803              -0.000001267               0.000000000               0.000000000               0.000000000               0.000000000               0.000007584               0.000011162               0.000000817               0.000001449               0.000003238               0.000004687               0.000000000               0.000000000               0.000000000               0.000000000               0.000015453               0.000049997              -0.000000658              -0.000000455               0.000016817               0.000016362               0.000000000               0.000000000               0.000000000               0.000000000               0.000037239               0.000109059               0.000001318               0.000000332               0.000036242               0.000036574               0.000000000               0.000000000               0.000000000               0.000000000               0.000059856               0.000170967               0.000001837               0.000001075               0.000056630               0.000057705               0.000000000               0.000000000               0.000000000               0.000000000               0.000079155               0.000232463               0.000001568               0.000000625               0.000077279               0.000077904               0.000000000               0.000000000               0.000000000               0.000000000               0.000097890               0.000291845              -0.000000598               0.000000228               0.000097205               0.000097433               0.000000000               0.000000000               0.000000000               0.000000000               0.000114599               0.000347569              -0.000005819              -0.000000471               0.000116012               0.000115541               0.000000000               0.000000000               0.000000000               0.000000000               0.000126557               0.000402024              -0.000013652              -0.000002794               0.000134938               0.000132144               0.000000000               0.000000000               0.000000000               0.000000000               0.000131201               0.000459505              -0.000022431              -0.000008238               0.000155913               0.000147675               0.000000000               0.000000000               0.000000000               0.000000000               0.000126431               0.000521920              -0.000029354              -0.000017828               0.000179914               0.000162086               0.000000000               0.000000000               0.000000000               0.000000000               0.000113147               0.000588322              -0.000032598              -0.000031110               0.000206476               0.000175365               0.000000000               0.000000000               0.000000000               0.000000000               0.000093607               0.000655705              -0.000031390              -0.000046860               0.000234186               0.000187326               0.000000000               0.000000000               0.000000000               0.000000000               0.000071068               0.000721134              -0.000026298              -0.000063491               0.000261539               0.000198048               0.000000000               0.000000000               0.000000000               0.000000000               0.000047163               0.000781433              -0.000018681              -0.000079993               0.000287139               0.000207146               0.000000000               0.000000000               0.000000000               0.000000000               0.000023566               0.000834308              -0.000009861              -0.000095451               0.000309917               0.000214466               0.000000000               0.000000000               0.000000000               0.000000000               0.000015424               0.000866900              -0.000008063              -0.000102578               0.000323156               0.000220578               0.000000000               0.000000000               0.000000000               0.000000000               0.000002931               0.000010587               0.000008006              -0.000000224               0.000003604               0.000003379               0.000000000               0.000000000               0.000000000               0.000000000               0.000014983               0.000031994               0.000002829               0.000001619               0.000010125               0.000011744               0.000000000               0.000000000               0.000000000               0.000000000               0.000028222               0.000086082              -0.000000206              -0.000000177               0.000028753               0.000028576               0.000000000               0.000000000               0.000000000               0.000000000               0.000051001               0.000152882               0.000001990               0.000000015               0.000050955               0.000050970               0.000000000               0.000000000               0.000000000               0.000000000               0.000077368               0.000223348               0.000003082               0.000001095               0.000074084               0.000075178               0.000000000               0.000000000               0.000000000               0.000000000               0.000098237               0.000291615               0.000002234               0.000000387               0.000097075               0.000097462               0.000000000               0.000000000               0.000000000               0.000000000               0.000117663               0.000356386              -0.000000213              -0.000000425               0.000118936               0.000118511               0.000000000               0.000000000               0.000000000               0.000000000               0.000134400               0.000418730              -0.000005775              -0.000001941               0.000140222               0.000138281               0.000000000               0.000000000               0.000000000               0.000000000               0.000145127               0.000480715              -0.000013014              -0.000005667               0.000162126               0.000156459               0.000000000               0.000000000               0.000000000               0.000000000               0.000147933               0.000547985              -0.000020555              -0.000013023               0.000187001               0.000173978               0.000000000               0.000000000               0.000000000               0.000000000               0.000141476               0.000620354              -0.000026015              -0.000024491               0.000214946               0.000190456               0.000000000               0.000000000               0.000000000               0.000000000               0.000128378               0.000696670              -0.000027840              -0.000038942               0.000245202               0.000206260               0.000000000               0.000000000               0.000000000               0.000000000               0.000110595               0.000772900              -0.000025504              -0.000055139               0.000276011               0.000220871               0.000000000               0.000000000               0.000000000               0.000000000               0.000090700               0.000846401              -0.000019803              -0.000071788               0.000306060               0.000234272               0.000000000               0.000000000               0.000000000               0.000000000               0.000069753               0.000914867              -0.000012275              -0.000088201               0.000334353               0.000246152               0.000000000               0.000000000               0.000000000               0.000000000               0.000049785               0.000977096              -0.000004985              -0.000103467               0.000360184               0.000256717               0.000000000               0.000000000               0.000000000               0.000000000               0.000038258               0.001009175              -0.000001906              -0.000111800               0.000373655               0.000261855               0.000000000               0.000000000               0.000000000               0.000000000               0.000003356               0.000025960               0.000004960              -0.000001987               0.000009316               0.000007329               0.000000000               0.000000000               0.000000000               0.000000000               0.000020760               0.000053470               0.000003763               0.000001101               0.000017456               0.000018557               0.000000000               0.000000000               0.000000000               0.000000000               0.000039210               0.000112541              -0.000000307               0.000000636               0.000037301               0.000037937               0.000000000               0.000000000               0.000000000               0.000000000               0.000058537               0.000179464              -0.000000035              -0.000000482               0.000059981               0.000059500               0.000000000               0.000000000               0.000000000               0.000000000               0.000087687               0.000254510               0.000001703               0.000001069               0.000084480               0.000085549               0.000000000               0.000000000               0.000000000               0.000000000               0.000109540               0.000323928               0.000000747               0.000000586               0.000107779               0.000108366               0.000000000               0.000000000               0.000000000               0.000000000               0.000129799               0.000392189              -0.000001841              -0.000000349               0.000130845               0.000130496               0.000000000               0.000000000               0.000000000               0.000000000               0.000148087               0.000457896              -0.000005767              -0.000001704               0.000153199               0.000151494               0.000000000               0.000000000               0.000000000               0.000000000               0.000162144               0.000522493              -0.000011362              -0.000004508               0.000175665               0.000171158               0.000000000               0.000000000               0.000000000               0.000000000               0.000169942               0.000589405              -0.000017200              -0.000009947               0.000199782               0.000189835               0.000000000               0.000000000               0.000000000               0.000000000               0.000169735               0.000659739              -0.000022273              -0.000018817               0.000226183               0.000207366               0.000000000               0.000000000               0.000000000               0.000000000               0.000162843               0.000733853              -0.000024886              -0.000030665               0.000254837               0.000224172               0.000000000               0.000000000               0.000000000               0.000000000               0.000151154               0.000809945              -0.000024173              -0.000044560               0.000284832               0.000240272               0.000000000               0.000000000               0.000000000               0.000000000               0.000136529               0.000886049              -0.000020027              -0.000059558               0.000315199               0.000255642               0.000000000               0.000000000               0.000000000               0.000000000               0.000120942               0.000961649              -0.000013321              -0.000074853               0.000345498               0.000270645               0.000000000               0.000000000               0.000000000               0.000000000               0.000105686               0.001035931              -0.000005836              -0.000089859               0.000375260               0.000285401               0.000000000               0.000000000               0.000000000               0.000000000               0.000091298               0.001068030               0.000000290              -0.000099267               0.000389095               0.000289828               0.000000000               0.000000000               0.000000000               0.000000000               0.000008866               0.000041178               0.000001646              -0.000001823               0.000014333               0.000012511               0.000000000               0.000000000               0.000000000               0.000000000               0.000025205               0.000073573               0.000003772               0.000000255               0.000024439               0.000024694               0.000000000               0.000000000               0.000000000               0.000000000               0.000048606               0.000133119               0.000001489               0.000001587               0.000043843               0.000045431               0.000000000               0.000000000               0.000000000               0.000000000               0.000063530               0.000196539              -0.000001246              -0.000000744               0.000065760               0.000065017               0.000000000               0.000000000               0.000000000               0.000000000               0.000091151               0.000269492               0.000000846               0.000000495               0.000089665               0.000090160               0.000000000               0.000000000               0.000000000               0.000000000               0.000115745               0.000340049               0.000001742               0.000000898               0.000113049               0.000113947               0.000000000               0.000000000               0.000000000               0.000000000               0.000135791               0.000408263              -0.000000110              -0.000000111               0.000136123               0.000136012               0.000000000               0.000000000               0.000000000               0.000000000               0.000155614               0.000475893              -0.000002139              -0.000001131               0.000159007               0.000157875               0.000000000               0.000000000               0.000000000               0.000000000               0.000173119               0.000541711              -0.000005744              -0.000002794               0.000181500               0.000178706               0.000000000               0.000000000               0.000000000               0.000000000               0.000187031               0.000606877              -0.000009765              -0.000005723               0.000204198               0.000198475               0.000000000               0.000000000               0.000000000               0.000000000               0.000195730               0.000674339              -0.000014119              -0.000010894               0.000228409               0.000217515               0.000000000               0.000000000               0.000000000               0.000000000               0.000198414               0.000744387              -0.000017591              -0.000018643               0.000254341               0.000235698               0.000000000               0.000000000               0.000000000               0.000000000               0.000196277               0.000816779              -0.000019105              -0.000028493               0.000281755               0.000253261               0.000000000               0.000000000               0.000000000               0.000000000               0.000190654               0.000890715              -0.000017783              -0.000039844               0.000310183               0.000270339               0.000000000               0.000000000               0.000000000               0.000000000               0.000182745               0.000964619              -0.000013639              -0.000052048               0.000338886               0.000286838               0.000000000               0.000000000               0.000000000               0.000000000               0.000173592               0.001038340              -0.000007118              -0.000064695               0.000367675               0.000302980               0.000000000               0.000000000               0.000000000               0.000000000               0.000161405               0.001070335              -0.000000499              -0.000073265               0.000381196               0.000307932               0.000000000               0.000000000               0.000000000               0.000000000               0.000015538               0.000056717              -0.000000265              -0.000001263               0.000019326               0.000018063               0.000000000               0.000000000               0.000000000               0.000000000               0.000028245               0.000090353               0.000002615              -0.000000702               0.000030351               0.000029649               0.000000000               0.000000000               0.000000000               0.000000000               0.000055023               0.000152790               0.000003258               0.000001535               0.000050418               0.000051953               0.000000000               0.000000000               0.000000000               0.000000000               0.000070462               0.000213474              -0.000000807              -0.000000261               0.000071244               0.000070983               0.000000000               0.000000000               0.000000000               0.000000000               0.000092856               0.000281654              -0.000000730              -0.000000386               0.000094012               0.000093627               0.000000000               0.000000000               0.000000000               0.000000000               0.000120321               0.000354215               0.000001753               0.000000844               0.000117789               0.000118633               0.000000000               0.000000000               0.000000000               0.000000000               0.000141618               0.000421814               0.000000655               0.000000380               0.000140476               0.000140856               0.000000000               0.000000000               0.000000000               0.000000000               0.000162245               0.000489591              -0.000000329              -0.000000357               0.000163314               0.000162957               0.000000000               0.000000000               0.000000000               0.000000000               0.000182120               0.000556768              -0.000001743              -0.000001301               0.000186021               0.000184720               0.000000000               0.000000000               0.000000000               0.000000000               0.000199994               0.000622199              -0.000004059              -0.000002777               0.000208323               0.000205546               0.000000000               0.000000000               0.000000000               0.000000000               0.000215459               0.000688220              -0.000006634              -0.000005231               0.000231148               0.000225917               0.000000000               0.000000000               0.000000000               0.000000000               0.000226895               0.000755828              -0.000009300              -0.000009393               0.000255071               0.000245678               0.000000000               0.000000000               0.000000000               0.000000000               0.000234142               0.000825082              -0.000011468              -0.000015332               0.000280135               0.000264803               0.000000000               0.000000000               0.000000000               0.000000000               0.000238230               0.000896331              -0.000012127              -0.000022705               0.000306342               0.000283637               0.000000000               0.000000000               0.000000000               0.000000000               0.000239661               0.000968163              -0.000010749              -0.000031147               0.000333100               0.000301953               0.000000000               0.000000000               0.000000000               0.000000000               0.000239273               0.001040524              -0.000006826              -0.000040338               0.000360284               0.000319946               0.000000000               0.000000000               0.000000000               0.000000000               0.000233220               0.001073944              -0.000001972              -0.000046785               0.000373573               0.000326788               0.000000000               0.000000000               0.000000000               0.000000000               0.000019551               0.000065787              -0.000001098              -0.000000892               0.000022226               0.000021334               0.000000000               0.000000000               0.000000000               0.000000000               0.000031356               0.000101426               0.000001881              -0.000000920               0.000034115               0.000033195               0.000000000               0.000000000               0.000000000               0.000000000               0.000058876               0.000169339               0.000004186               0.000000911               0.000056142               0.000057053               0.000000000               0.000000000               0.000000000               0.000000000               0.000077428               0.000229157               0.000000713               0.000000391               0.000076255               0.000076646               0.000000000               0.000000000               0.000000000               0.000000000               0.000095641               0.000291586              -0.000002194              -0.000000583               0.000097389               0.000096806               0.000000000               0.000000000               0.000000000               0.000000000               0.000122856               0.000364249               0.000000308               0.000000540               0.000121235               0.000121775               0.000000000               0.000000000               0.000000000               0.000000000               0.000146579               0.000433435               0.000000908               0.000000788               0.000144214               0.000145002               0.000000000               0.000000000               0.000000000               0.000000000               0.000167132               0.000499746               0.000000034               0.000000206               0.000166512               0.000166718               0.000000000               0.000000000               0.000000000               0.000000000               0.000188445               0.000567971               0.000000098              -0.000000329               0.000189431               0.000189102               0.000000000               0.000000000               0.000000000               0.000000000               0.000208850               0.000634910              -0.000000685              -0.000001045               0.000211983               0.000210938               0.000000000               0.000000000               0.000000000               0.000000000               0.000228031               0.000699894              -0.000001723              -0.000001975               0.000233954               0.000231979               0.000000000               0.000000000               0.000000000               0.000000000               0.000245991               0.000766308              -0.000002905              -0.000003542               0.000256614               0.000253072               0.000000000               0.000000000               0.000000000               0.000000000               0.000261188               0.000833207              -0.000004119              -0.000006205               0.000279801               0.000273596               0.000000000               0.000000000               0.000000000               0.000000000               0.000273920               0.000901831              -0.000005051              -0.000010009               0.000303944               0.000293935               0.000000000               0.000000000               0.000000000               0.000000000               0.000284697               0.000971358              -0.000004963              -0.000014658               0.000328669               0.000314010               0.000000000               0.000000000               0.000000000               0.000000000               0.000294345               0.001041790              -0.000003474              -0.000019844               0.000353875               0.000334030               0.000000000               0.000000000               0.000000000               0.000000000               0.000296322               0.001075821              -0.000001222              -0.000023357               0.000366389               0.000343032               0.000000000               0.000000000               0.000000000               0.000000000               0.000020344               0.000066061              -0.000002716              -0.000000628               0.000022230               0.000021601               0.000000000               0.000000000               0.000000000               0.000000000               0.000033843               0.000108405               0.000000891              -0.000000860               0.000036421               0.000035562               0.000000000               0.000000000               0.000000000               0.000000000               0.000061581               0.000183484               0.000004192               0.000000157               0.000061108               0.000061266               0.000000000               0.000000000               0.000000000               0.000000000               0.000083014               0.000243917               0.000002179               0.000000641               0.000081091               0.000081732               0.000000000               0.000000000               0.000000000               0.000000000               0.000098907               0.000301269              -0.000001547              -0.000000569               0.000100611               0.000100043               0.000000000               0.000000000               0.000000000               0.000000000               0.000122121               0.000369594              -0.000000526              -0.000000404               0.000123331               0.000122928               0.000000000               0.000000000               0.000000000               0.000000000               0.000147900               0.000441514               0.000000989               0.000000273               0.000147079               0.000147352               0.000000000               0.000000000               0.000000000               0.000000000               0.000169762               0.000506963               0.000000180               0.000000290               0.000168889               0.000169180               0.000000000               0.000000000               0.000000000               0.000000000               0.000191623               0.000573542               0.000000266               0.000000166               0.000191124               0.000191289               0.000000000               0.000000000               0.000000000               0.000000000               0.000214154               0.000642441               0.000000504               0.000000003               0.000214144               0.000214147               0.000000000               0.000000000               0.000000000               0.000000000               0.000235408               0.000708124               0.000000360              -0.000000237               0.000236118               0.000235881               0.000000000               0.000000000               0.000000000               0.000000000               0.000256575               0.000774089               0.000000146              -0.000000546               0.000258209               0.000257663               0.000000000               0.000000000               0.000000000               0.000000000               0.000277007               0.000840167              -0.000000025              -0.000001143               0.000280434               0.000279291               0.000000000               0.000000000               0.000000000               0.000000000               0.000296154               0.000906916              -0.000000420              -0.000002307               0.000303071               0.000300765               0.000000000               0.000000000               0.000000000               0.000000000               0.000313990               0.000974404              -0.000000615              -0.000004054               0.000326150               0.000322095               0.000000000               0.000000000               0.000000000               0.000000000               0.000331127               0.001042932              -0.000000576              -0.000006194               0.000349705               0.000343511               0.000000000               0.000000000               0.000000000               0.000000000               0.000338234               0.001076227               0.000000020              -0.000007691               0.000361302               0.000353612               0.000000000               0.000000000               0.000000000               0.000000000               0.000018628               0.000062390              -0.000004174              -0.000000813               0.000021068               0.000020254               0.000000000               0.000000000               0.000000000               0.000000000               0.000034525               0.000112771              -0.000001221              -0.000001150               0.000037973               0.000036823               0.000000000               0.000000000               0.000000000               0.000000000               0.000062821               0.000193947               0.000002343              -0.000000685               0.000064877               0.000064191               0.000000000               0.000000000               0.000000000               0.000000000               0.000086617               0.000254393               0.000002157               0.000000682               0.000084569               0.000085252               0.000000000               0.000000000               0.000000000               0.000000000               0.000103468               0.000309320              -0.000000577               0.000000135               0.000103060               0.000103196               0.000000000               0.000000000               0.000000000               0.000000000               0.000124015               0.000373956              -0.000000830              -0.000000239               0.000124730               0.000124492               0.000000000               0.000000000               0.000000000               0.000000000               0.000149523               0.000447293               0.000000527               0.000000159               0.000149043               0.000149203               0.000000000               0.000000000               0.000000000               0.000000000               0.000172258               0.000512952               0.000000280               0.000000478               0.000170823               0.000171301               0.000000000               0.000000000               0.000000000               0.000000000               0.000193510               0.000576789              -0.000000027               0.000000468               0.000192105               0.000192573               0.000000000               0.000000000               0.000000000               0.000000000               0.000216278               0.000645864               0.000000337               0.000000371               0.000215162               0.000215533               0.000000000               0.000000000               0.000000000               0.000000000               0.000238499               0.000713063               0.000000493               0.000000304               0.000237584               0.000237888               0.000000000               0.000000000               0.000000000               0.000000000               0.000260739               0.000779134               0.000000487               0.000000385               0.000259580               0.000259966               0.000000000               0.000000000               0.000000000               0.000000000               0.000283332               0.000845256               0.000000595               0.000000592               0.000281552               0.000282144               0.000000000               0.000000000               0.000000000               0.000000000               0.000305702               0.000911098               0.000000575               0.000000751               0.000303446               0.000304197               0.000000000               0.000000000               0.000000000               0.000000000               0.000327405               0.000977104               0.000000497               0.000000639               0.000325485               0.000326124               0.000000000               0.000000000               0.000000000               0.000000000               0.000348482               0.001044101               0.000000245               0.000000168               0.000347974               0.000348142               0.000000000               0.000000000               0.000000000               0.000000000               0.000357971               0.001076464               0.000000281              -0.000000319               0.000358924               0.000358605               0.000000000               0.000000000               0.000000000               0.000000000               0.000019376               0.000059497              -0.000001465              -0.000000171               0.000019889               0.000019718               0.000000000               0.000000000               0.000000000               0.000000000               0.000036266               0.000114028              -0.000000150              -0.000000654               0.000038227               0.000037573               0.000000000               0.000000000               0.000000000               0.000000000               0.000063673               0.000198658               0.000001516              -0.000000955               0.000066537               0.000065582               0.000000000               0.000000000               0.000000000               0.000000000               0.000087209               0.000260919               0.000001470               0.000000089               0.000086943               0.000087031               0.000000000               0.000000000               0.000000000               0.000000000               0.000106285               0.000315676              -0.000000353               0.000000397               0.000105092               0.000105489               0.000000000               0.000000000               0.000000000               0.000000000               0.000125490               0.000376109              -0.000000918               0.000000045               0.000125353               0.000125398               0.000000000               0.000000000               0.000000000               0.000000000               0.000149618               0.000449374              -0.000000006              -0.000000065               0.000149811               0.000149746               0.000000000               0.000000000               0.000000000               0.000000000               0.000172493               0.000517195               0.000000086               0.000000035               0.000172385               0.000172420               0.000000000               0.000000000               0.000000000               0.000000000               0.000193314               0.000579454              -0.000000233               0.000000061               0.000193129               0.000193190               0.000000000               0.000000000               0.000000000               0.000000000               0.000215844               0.000647045              -0.000000141               0.000000061               0.000215659               0.000215720               0.000000000               0.000000000               0.000000000               0.000000000               0.000238419               0.000714618              -0.000000039               0.000000080               0.000238177               0.000238257               0.000000000               0.000000000               0.000000000               0.000000000               0.000260469               0.000780387               0.000000041               0.000000127               0.000260084               0.000260211               0.000000000               0.000000000               0.000000000               0.000000000               0.000282905               0.000846818               0.000000238               0.000000237               0.000282191               0.000282428               0.000000000               0.000000000               0.000000000               0.000000000               0.000305504               0.000913101               0.000000348               0.000000426               0.000304222               0.000304648               0.000000000               0.000000000               0.000000000               0.000000000               0.000328058               0.000978968               0.000000352               0.000000651               0.000326102               0.000326753               0.000000000               0.000000000               0.000000000               0.000000000               0.000350540               0.001045187               0.000000200               0.000000804               0.000348124               0.000348928               0.000000000               0.000000000               0.000000000               0.000000000               0.000361211               0.001076978               0.000000104               0.000000832               0.000358712               0.000359544               0.000000000               0.000000000               0.000000000               0.000000000               0.000021054               0.000058338               0.000000000               0.000000603               0.000019245               0.000019848               0.000000000               0.000000000               0.000000000               0.000000000               0.000037852               0.000114356               0.000000000              -0.000000100               0.000038152               0.000038052               0.000000000               0.000000000               0.000000000               0.000000000               0.000064473               0.000201143              -0.000000000              -0.000000966               0.000067369               0.000066403               0.000000000               0.000000000               0.000000000               0.000000000               0.000086588               0.000264109              -0.000000000              -0.000000543               0.000088217               0.000087673               0.000000000               0.000000000               0.000000000               0.000000000               0.000106362               0.000317760               0.000000000               0.000000166               0.000105864               0.000106030               0.000000000               0.000000000               0.000000000               0.000000000               0.000125154               0.000376197              -0.000000000              -0.000000092               0.000125428               0.000125336               0.000000000               0.000000000               0.000000000               0.000000000               0.000149006               0.000450048              -0.000000000              -0.000000379               0.000150141               0.000149762               0.000000000               0.000000000               0.000000000               0.000000000               0.000172089               0.000519487              -0.000000000              -0.000000403               0.000173295               0.000172892               0.000000000               0.000000000               0.000000000               0.000000000               0.000193047               0.000581064              -0.000000000              -0.000000240               0.000193766               0.000193526               0.000000000               0.000000000               0.000000000               0.000000000               0.000215584               0.000646989               0.000000000              -0.000000030               0.000215671               0.000215641               0.000000000               0.000000000               0.000000000               0.000000000               0.000238131               0.000713875               0.000000000               0.000000065               0.000237934               0.000237999               0.000000000               0.000000000               0.000000000               0.000000000               0.000259752               0.000779458               0.000000000              -0.000000025               0.000259825               0.000259800               0.000000000               0.000000000               0.000000000               0.000000000               0.000281667               0.000846419               0.000000000              -0.000000177               0.000282196               0.000282019               0.000000000               0.000000000               0.000000000               0.000000000               0.000303851               0.000913555               0.000000000              -0.000000250               0.000304599               0.000304349               0.000000000               0.000000000               0.000000000               0.000000000               0.000326199               0.000979903               0.000000000              -0.000000163               0.000326686               0.000326522               0.000000000               0.000000000               0.000000000               0.000000000               0.000348846               0.001045914               0.000000000               0.000000078               0.000348609               0.000348687               0.000000000               0.000000000               0.000000000               0.000000000               0.000359872               0.001077420               0.000000000               0.000000275               0.000359045               0.000359320               0.000000000               0.000000000               0.000000000               0.000000000               0.000000000               0.000000000               0.000000000               0.000000000               0.000000000               0.000000000               0.000000000               0.000000000               0.000000000               0.000000000               0.000000000               0.000000000               0.000000000               0.000000000               0.000000000               0.000000000               0.000000000               0.000000000               0.000000000               0.000000000               0.000000000               0.000000000               0.000000000               0.000000000               0.000000000               0.000000000               0.000000000               0.000000000               0.000000000               0.000000000               0.000000000               0.000000000               0.000000000               0.000000000               0.000000000               0.000000000               0.000000000               0.000000000               0.000000000               0.000000000               0.000000000               0.000000000               0.000000000               0.000000000               0.000000000               0.000000000               0.000000000               0.000000000               0.000000000               0.000000000               0.000000000               0.000000000               0.000000000               0.000000000               0.000000000               0.000000000               0.000000000               0.000000000               0.000000000               0.000000000               0.000000000               0.000000000               0.000000000               0.000000000               0.000000000               0.000000000               0.000000000               0.000000000               0.000000000               0.000000000               0.000000000               0.000000000               0.000000000               0.000000000               0.000000000               0.000000000               0.000000000               0.000000000               0.000000000               0.000000000               0.000000000               0.000000000               0.000000000               0.000000000               0.000000000               0.000000000               0.000000000               0.000000000               0.000000000               0.000000000               0.000000000               0.000000000               0.000000000               0.000000000               0.000000000               0.000000000               0.000000000               0.000000000               0.000000000               0.000000000               0.000000000               0.000000000               0.000000000               0.000000000               0.000000000               0.000000000               0.000000000               0.000000000               0.000000000               0.000000000               0.000000000               0.000000000               0.000000000               0.000000000               0.000000000               0.000000000               0.000000000               0.000000000               0.000000000               0.000000000               0.000000000               0.000000000               0.000000000               0.000000000               0.000000000               0.000000000               0.000000000               0.000000000               0.000000000               0.000000000               0.000000000               0.000000000               0.000000000               0.000000000               0.000000000               0.000000000               0.000000000               0.000000000               0.000000000               0.000000000               0.000000000               0.000000000               0.000000000               0.000000000               0.000000000               0.000000000               0.000000000               0.000000000               0.000000000               0.000000000               0.000000000               0.000000000               0.000000000               0.000000000               0.000000000               0.000000000               0.000000000               0.000000000               0.000000000               0.000000000               0.000000000               0.000000000               0.000000000               0.000000000               0.000000000               0.000000000               0.000000000               0.000000000               0.000000000               0.000000000               0.000003040               0.000002072               0.000000230               0.000000881               0.000000397               0.000001278               0.000000000               0.000000000               0.000000000               0.000000000               0.000003198               0.000002284              -0.000001099               0.000000914               0.000000457               0.000001370               0.000000000               0.000000000               0.000000000               0.000000000               0.000003028               0.000004588              -0.000002653               0.000000562               0.000001342               0.000001904               0.000000000               0.000000000               0.000000000               0.000000000               0.000001706               0.000003800              -0.000003302               0.000000165               0.000001212               0.000001376               0.000000000               0.000000000               0.000000000               0.000000000               0.000000789               0.000001833              -0.000002851               0.000000067               0.000000589               0.000000655               0.000000000               0.000000000               0.000000000               0.000000000              -0.000000661              -0.000001003              -0.000001238              -0.000000123              -0.000000293              -0.000000416               0.000000000               0.000000000               0.000000000               0.000000000              -0.000002393              -0.000004450               0.000000838              -0.000000341              -0.000001370              -0.000001711               0.000000000               0.000000000               0.000000000               0.000000000              -0.000003480              -0.000007861               0.000003344              -0.000000322              -0.000002513              -0.000002835               0.000000000               0.000000000               0.000000000               0.000000000              -0.000004255              -0.000010291               0.000005434              -0.000000309              -0.000003327              -0.000003637               0.000000000               0.000000000               0.000000000               0.000000000              -0.000005166              -0.000011214               0.000006491              -0.000000536              -0.000003559              -0.000004095               0.000000000               0.000000000               0.000000000               0.000000000              -0.000005812              -0.000011142               0.000006514              -0.000000787              -0.000003452              -0.000004238               0.000000000               0.000000000               0.000000000               0.000000000              -0.000005521              -0.000010945               0.000005943              -0.000000702              -0.000003414              -0.000004116               0.000000000               0.000000000               0.000000000               0.000000000              -0.000003995              -0.000011358               0.000005188              -0.000000079              -0.000003760              -0.000003838               0.000000000               0.000000000               0.000000000               0.000000000              -0.000001629              -0.000012580               0.000004486               0.000000962              -0.000004514              -0.000003552               0.000000000               0.000000000               0.000000000               0.000000000               0.000000519              -0.000014029               0.000003697               0.000001948              -0.000005326              -0.000003377               0.000000000               0.000000000               0.000000000               0.000000000               0.000001102              -0.000014706               0.000002211               0.000002251              -0.000005652              -0.000003401               0.000000000               0.000000000               0.000000000               0.000000000               0.000001203              -0.000014125               0.000001575               0.000002217              -0.000005447              -0.000003231               0.000000000               0.000000000               0.000000000               0.000000000               0.000003228               0.000011927              -0.000000443              -0.000000280               0.000004069               0.000003789               0.000000000               0.000000000               0.000000000               0.000000000               0.000002838               0.000005489              -0.000000459               0.000000378               0.000001704               0.000002082               0.000000000               0.000000000               0.000000000               0.000000000               0.000002161               0.000002091               0.000001220               0.000000549               0.000000514               0.000001063               0.000000000               0.000000000               0.000000000               0.000000000              -0.000000933              -0.000005353               0.000001982               0.000000319              -0.000001891              -0.000001571               0.000000000               0.000000000               0.000000000               0.000000000              -0.000003480              -0.000013171               0.000001923               0.000000342              -0.000004504              -0.000004163               0.000000000               0.000000000               0.000000000               0.000000000              -0.000006149              -0.000018103               0.000002425              -0.000000043              -0.000006020              -0.000006063               0.000000000               0.000000000               0.000000000               0.000000000              -0.000008400              -0.000020098               0.000002550              -0.000000638              -0.000006487              -0.000007124               0.000000000               0.000000000               0.000000000               0.000000000              -0.000009360              -0.000017772               0.000002220              -0.000001289              -0.000005494              -0.000006783               0.000000000               0.000000000               0.000000000               0.000000000              -0.000008831              -0.000011320               0.000001150              -0.000001897              -0.000003141              -0.000005038               0.000000000               0.000000000               0.000000000               0.000000000              -0.000006438              -0.000002807              -0.000000283              -0.000002063              -0.000000248              -0.000002311               0.000000000               0.000000000               0.000000000               0.000000000              -0.000001826               0.000005112              -0.000001500              -0.000001324               0.000002145               0.000000821               0.000000000               0.000000000               0.000000000               0.000000000               0.000004856               0.000011329              -0.000002182               0.000000405               0.000003641               0.000004046               0.000000000               0.000000000               0.000000000               0.000000000               0.000011991               0.000016475              -0.000002177               0.000002437               0.000004679               0.000007116               0.000000000               0.000000000               0.000000000               0.000000000               0.000016908               0.000022717              -0.000001755               0.000003501               0.000006405               0.000009906               0.000000000               0.000000000               0.000000000               0.000000000               0.000016939               0.000032488              -0.000001405               0.000002291               0.000010066               0.000012357               0.000000000               0.000000000               0.000000000               0.000000000               0.000010538               0.000047360              -0.000001246              -0.000001968               0.000016443               0.000014474               0.000000000               0.000000000               0.000000000               0.000000000               0.000008655               0.000061746               0.000000631              -0.000004473               0.000022073               0.000017600               0.000000000               0.000000000               0.000000000               0.000000000              -0.000001671               0.000004727               0.000004242              -0.000001218               0.000001981               0.000000764               0.000000000               0.000000000               0.000000000               0.000000000              -0.000003125              -0.000001382               0.000001360              -0.000000999              -0.000000128              -0.000001127               0.000000000               0.000000000               0.000000000               0.000000000              -0.000003566              -0.000009260              -0.000000064              -0.000000180              -0.000003027              -0.000003207               0.000000000               0.000000000               0.000000000               0.000000000              -0.000004896              -0.000014387               0.000001000              -0.000000038              -0.000004783              -0.000004821               0.000000000               0.000000000               0.000000000               0.000000000              -0.000006319              -0.000015054               0.000001300              -0.000000488              -0.000004855              -0.000005343               0.000000000               0.000000000               0.000000000               0.000000000              -0.000004294              -0.000009748               0.000001413              -0.000000392              -0.000003119              -0.000003511               0.000000000               0.000000000               0.000000000               0.000000000              -0.000000275               0.000001494               0.000000645              -0.000000290               0.000000594               0.000000305               0.000000000               0.000000000               0.000000000               0.000000000               0.000004651               0.000017468              -0.000001166              -0.000000439               0.000005969               0.000005530               0.000000000               0.000000000               0.000000000               0.000000000               0.000010726               0.000035594              -0.000003056              -0.000000427               0.000012007               0.000011580               0.000000000               0.000000000               0.000000000               0.000000000               0.000018087               0.000052608              -0.000004122               0.000000207               0.000017467               0.000017674               0.000000000               0.000000000               0.000000000               0.000000000               0.000026771               0.000067630              -0.000003752               0.000001586               0.000022015               0.000023600               0.000000000               0.000000000               0.000000000               0.000000000               0.000035103               0.000081745              -0.000001893               0.000002945               0.000026266               0.000029212               0.000000000               0.000000000               0.000000000               0.000000000               0.000040257               0.000097561               0.000000707               0.000002901               0.000031553               0.000034454               0.000000000               0.000000000               0.000000000               0.000000000               0.000039777               0.000118061               0.000002883               0.000000159               0.000039300               0.000039459               0.000000000               0.000000000               0.000000000               0.000000000               0.000032392               0.000145124               0.000003665              -0.000005993               0.000050372               0.000044379               0.000000000               0.000000000               0.000000000               0.000000000               0.000018041               0.000179590               0.000002443              -0.000015683               0.000065090               0.000049407               0.000000000               0.000000000               0.000000000               0.000000000               0.000015333               0.000209578               0.000004810              -0.000020447               0.000076674               0.000056227               0.000000000               0.000000000               0.000000000               0.000000000              -0.000000653              -0.000011243               0.000004593               0.000001160              -0.000004135              -0.000002974               0.000000000               0.000000000               0.000000000               0.000000000              -0.000004849              -0.000014321               0.000001040              -0.000000028              -0.000004764              -0.000004792               0.000000000               0.000000000               0.000000000               0.000000000              -0.000006787              -0.000018300              -0.000000712              -0.000000258              -0.000006014              -0.000006272               0.000000000               0.000000000               0.000000000               0.000000000              -0.000004154              -0.000011061               0.000000546              -0.000000175              -0.000003629              -0.000003804               0.000000000               0.000000000               0.000000000               0.000000000              -0.000000395               0.000003936               0.000000134              -0.000000640               0.000001525               0.000000885               0.000000000               0.000000000               0.000000000               0.000000000               0.000007411               0.000027199              -0.000000723              -0.000000621               0.000009273               0.000008652               0.000000000               0.000000000               0.000000000               0.000000000               0.000017839               0.000055686              -0.000001888              -0.000000271               0.000018652               0.000018381               0.000000000               0.000000000               0.000000000               0.000000000               0.000028622               0.000085558              -0.000002947               0.000000038               0.000028506               0.000028545               0.000000000               0.000000000               0.000000000               0.000000000               0.000039943               0.000113689              -0.000002663               0.000000767               0.000037640               0.000038408               0.000000000               0.000000000               0.000000000               0.000000000               0.000051910               0.000138885              -0.000000235               0.000002105               0.000045593               0.000047698               0.000000000               0.000000000               0.000000000               0.000000000               0.000062219               0.000162670               0.000004245               0.000002998               0.000053223               0.000056222               0.000000000               0.000000000               0.000000000               0.000000000               0.000067904               0.000188064               0.000009653               0.000001956               0.000062035               0.000063991               0.000000000               0.000000000               0.000000000               0.000000000               0.000066870               0.000218468               0.000014238              -0.000002232               0.000073566               0.000071334               0.000000000               0.000000000               0.000000000               0.000000000               0.000058305               0.000254911               0.000016443              -0.000010000               0.000088303               0.000078303               0.000000000               0.000000000               0.000000000               0.000000000               0.000043049               0.000296760               0.000015219              -0.000020951               0.000105903               0.000084951               0.000000000               0.000000000               0.000000000               0.000000000               0.000022686               0.000342305               0.000009594              -0.000034281               0.000125527               0.000091247               0.000000000               0.000000000               0.000000000               0.000000000               0.000018453               0.000377106               0.000009570              -0.000040218               0.000139107               0.000098889               0.000000000               0.000000000               0.000000000               0.000000000              -0.000002727              -0.000021529              -0.000001042               0.000001669              -0.000007732              -0.000006064               0.000000000               0.000000000               0.000000000               0.000000000              -0.000005823              -0.000017264               0.000000234              -0.000000026              -0.000005746              -0.000005772               0.000000000               0.000000000               0.000000000               0.000000000              -0.000004666              -0.000008887              -0.000000002              -0.000000639              -0.000002750              -0.000003388               0.000000000               0.000000000               0.000000000               0.000000000               0.000005710               0.000015101              -0.000000304               0.000000254               0.000004949               0.000005203               0.000000000               0.000000000               0.000000000               0.000000000               0.000016993               0.000047588              -0.000000813               0.000000424               0.000015721               0.000016145               0.000000000               0.000000000               0.000000000               0.000000000               0.000029694               0.000086482              -0.000002131               0.000000325               0.000028719               0.000029044               0.000000000               0.000000000               0.000000000               0.000000000               0.000043765               0.000127475              -0.000002804               0.000000478               0.000042332               0.000042810               0.000000000               0.000000000               0.000000000               0.000000000               0.000057410               0.000167538              -0.000002081               0.000000586               0.000055650               0.000056236               0.000000000               0.000000000               0.000000000               0.000000000               0.000070932               0.000203804               0.000001257               0.000001124               0.000067559               0.000068683               0.000000000               0.000000000               0.000000000               0.000000000               0.000082627               0.000237834               0.000007300               0.000001256               0.000078859               0.000080114               0.000000000               0.000000000               0.000000000               0.000000000               0.000089587               0.000272796               0.000014789              -0.000000504               0.000091099               0.000090595               0.000000000               0.000000000               0.000000000               0.000000000               0.000089348               0.000312231               0.000021517              -0.000005523               0.000105917               0.000100394               0.000000000               0.000000000               0.000000000               0.000000000               0.000081083               0.000356977               0.000025515              -0.000014216               0.000123730               0.000109514               0.000000000               0.000000000               0.000000000               0.000000000               0.000065798               0.000405529               0.000025700              -0.000026017               0.000143847               0.000117830               0.000000000               0.000000000               0.000000000               0.000000000               0.000045668               0.000455464               0.000021430              -0.000039807               0.000165089               0.000125282               0.000000000               0.000000000               0.000000000               0.000000000               0.000023096               0.000503732               0.000012526              -0.000054305               0.000186011               0.000131705               0.000000000               0.000000000               0.000000000               0.000000000               0.000017961               0.000537075               0.000010683              -0.000060399               0.000199156               0.000138757               0.000000000               0.000000000               0.000000000               0.000000000              -0.000002671              -0.000020313              -0.000005417               0.000001538              -0.000007284              -0.000005746               0.000000000               0.000000000               0.000000000               0.000000000              -0.000000918              -0.000006644               0.000000130               0.000000486              -0.000002377              -0.000001891               0.000000000               0.000000000               0.000000000               0.000000000               0.000003121               0.000015784               0.000000196              -0.000000803               0.000005529               0.000004726               0.000000000               0.000000000               0.000000000               0.000000000               0.000019166               0.000057745              -0.000000769              -0.000000031               0.000019258               0.000019228               0.000000000               0.000000000               0.000000000               0.000000000               0.000037499               0.000107457              -0.000000903               0.000000630               0.000035608               0.000036239               0.000000000               0.000000000               0.000000000               0.000000000               0.000054851               0.000158677              -0.000001835               0.000000735               0.000052647               0.000053382               0.000000000               0.000000000               0.000000000               0.000000000               0.000072301               0.000209879              -0.000001118               0.000000878               0.000069666               0.000070544               0.000000000               0.000000000               0.000000000               0.000000000               0.000087970               0.000257102               0.000001659               0.000000851               0.000085416               0.000086267               0.000000000               0.000000000               0.000000000               0.000000000               0.000101321               0.000301313               0.000007900               0.000000331               0.000100326               0.000100658               0.000000000               0.000000000               0.000000000               0.000000000               0.000110053               0.000345776               0.000016221              -0.000001952               0.000115908               0.000113956               0.000000000               0.000000000               0.000000000               0.000000000               0.000111139               0.000394052               0.000024448              -0.000007579               0.000133876               0.000126297               0.000000000               0.000000000               0.000000000               0.000000000               0.000103554               0.000447464               0.000030068              -0.000017100               0.000154853               0.000137753               0.000000000               0.000000000               0.000000000               0.000000000               0.000088484               0.000504349               0.000031906              -0.000029862               0.000178069               0.000148207               0.000000000               0.000000000               0.000000000               0.000000000               0.000068269               0.000561951               0.000029373              -0.000044643               0.000202196               0.000157553               0.000000000               0.000000000               0.000000000               0.000000000               0.000045703               0.000616955               0.000022813              -0.000059980               0.000225643               0.000165663               0.000000000               0.000000000               0.000000000               0.000000000               0.000022768               0.000666195               0.000012857              -0.000074736               0.000246975               0.000172239               0.000000000               0.000000000               0.000000000               0.000000000               0.000016872               0.000697971               0.000010474              -0.000080919               0.000259628               0.000178708               0.000000000               0.000000000               0.000000000               0.000000000               0.000001805              -0.000006873              -0.000007968               0.000001536              -0.000002803              -0.000001267               0.000000000               0.000000000               0.000000000               0.000000000               0.000007584               0.000011162              -0.000000817               0.000001449               0.000003238               0.000004687               0.000000000               0.000000000               0.000000000               0.000000000               0.000015453               0.000049997               0.000000658              -0.000000455               0.000016817               0.000016362               0.000000000               0.000000000               0.000000000               0.000000000               0.000037239               0.000109059              -0.000001318               0.000000332               0.000036242               0.000036574               0.000000000               0.000000000               0.000000000               0.000000000               0.000059856               0.000170967              -0.000001837               0.000001075               0.000056630               0.000057705               0.000000000               0.000000000               0.000000000               0.000000000               0.000079155               0.000232463              -0.000001568               0.000000625               0.000077279               0.000077904               0.000000000               0.000000000               0.000000000               0.000000000               0.000097890               0.000291845               0.000000598               0.000000228               0.000097205               0.000097433               0.000000000               0.000000000               0.000000000               0.000000000               0.000114599               0.000347569               0.000005819              -0.000000471               0.000116012               0.000115541               0.000000000               0.000000000               0.000000000               0.000000000               0.000126557               0.000402024               0.000013652              -0.000002794               0.000134938               0.000132144               0.000000000               0.000000000               0.000000000               0.000000000               0.000131201               0.000459505               0.000022431              -0.000008238               0.000155913               0.000147675               0.000000000               0.000000000               0.000000000               0.000000000               0.000126431               0.000521920               0.000029354              -0.000017828               0.000179914               0.000162086               0.000000000               0.000000000               0.000000000               0.000000000               0.000113147               0.000588322               0.000032598              -0.000031110               0.000206476               0.000175365               0.000000000               0.000000000               0.000000000               0.000000000               0.000093607               0.000655705               0.000031390              -0.000046860               0.000234186               0.000187326               0.000000000               0.000000000               0.000000000               0.000000000               0.000071068               0.000721134               0.000026298              -0.000063491               0.000261539               0.000198048               0.000000000               0.000000000               0.000000000               0.000000000               0.000047163               0.000781433               0.000018681              -0.000079993               0.000287139               0.000207146               0.000000000               0.000000000               0.000000000               0.000000000               0.000023566               0.000834308               0.000009861              -0.000095451               0.000309917               0.000214466               0.000000000               0.000000000               0.000000000               0.000000000               0.000015424               0.000866900               0.000008063              -0.000102578               0.000323156               0.000220578               0.000000000               0.000000000               0.000000000               0.000000000               0.000002931               0.000010587              -0.000008006              -0.000000224               0.000003604               0.000003379               0.000000000               0.000000000               0.000000000               0.000000000               0.000014983               0.000031994              -0.000002829               0.000001619               0.000010125               0.000011744               0.000000000               0.000000000               0.000000000               0.000000000               0.000028222               0.000086082               0.000000206              -0.000000177               0.000028753               0.000028576               0.000000000               0.000000000               0.000000000               0.000000000               0.000051001               0.000152882              -0.000001990               0.000000015               0.000050955               0.000050970               0.000000000               0.000000000               0.000000000               0.000000000               0.000077368               0.000223348              -0.000003082               0.000001095               0.000074084               0.000075178               0.000000000               0.000000000               0.000000000               0.000000000               0.000098237               0.000291615              -0.000002234               0.000000387               0.000097075               0.000097462               0.000000000               0.000000000               0.000000000               0.000000000               0.000117663               0.000356386               0.000000213              -0.000000425               0.000118936               0.000118511               0.000000000               0.000000000               0.000000000               0.000000000               0.000134400               0.000418730               0.000005775              -0.000001941               0.000140222               0.000138281               0.000000000               0.000000000               0.000000000               0.000000000               0.000145127               0.000480715               0.000013014              -0.000005667               0.000162126               0.000156459               0.000000000               0.000000000               0.000000000               0.000000000               0.000147933               0.000547985               0.000020555              -0.000013023               0.000187001               0.000173978               0.000000000               0.000000000               0.000000000               0.000000000               0.000141476               0.000620354               0.000026015              -0.000024491               0.000214946               0.000190456               0.000000000               0.000000000               0.000000000               0.000000000               0.000128378               0.000696670               0.000027840              -0.000038942               0.000245202               0.000206260               0.000000000               0.000000000               0.000000000               0.000000000               0.000110595               0.000772900               0.000025504              -0.000055139               0.000276011               0.000220871               0.000000000               0.000000000               0.000000000               0.000000000               0.000090700               0.000846401               0.000019803              -0.000071788               0.000306060               0.000234272               0.000000000               0.000000000               0.000000000               0.000000000               0.000069753               0.000914867               0.000012275              -0.000088201               0.000334353               0.000246152               0.000000000               0.000000000               0.000000000               0.000000000               0.000049785               0.000977096               0.000004985              -0.000103467               0.000360184               0.000256717               0.000000000               0.000000000               0.000000000               0.000000000               0.000038258               0.001009175               0.000001906              -0.000111800               0.000373655               0.000261855               0.000000000               0.000000000               0.000000000               0.000000000               0.000003356               0.000025960              -0.000004960              -0.000001987               0.000009316               0.000007329               0.000000000               0.000000000               0.000000000               0.000000000               0.000020760               0.000053470              -0.000003763               0.000001101               0.000017456               0.000018557               0.000000000               0.000000000               0.000000000               0.000000000               0.000039210               0.000112541               0.000000307               0.000000636               0.000037301               0.000037937               0.000000000               0.000000000               0.000000000               0.000000000               0.000058537               0.000179464               0.000000035              -0.000000482               0.000059981               0.000059500               0.000000000               0.000000000               0.000000000               0.000000000               0.000087687               0.000254510              -0.000001703               0.000001069               0.000084480               0.000085549               0.000000000               0.000000000               0.000000000               0.000000000               0.000109540               0.000323928              -0.000000747               0.000000586               0.000107779               0.000108366               0.000000000               0.000000000               0.000000000               0.000000000               0.000129799               0.000392189               0.000001841              -0.000000349               0.000130845               0.000130496               0.000000000               0.000000000               0.000000000               0.000000000               0.000148087               0.000457896               0.000005767              -0.000001704               0.000153199               0.000151494               0.000000000               0.000000000               0.000000000               0.000000000               0.000162144               0.000522493               0.000011362              -0.000004508               0.000175665               0.000171158               0.000000000               0.000000000               0.000000000               0.000000000               0.000169942               0.000589405               0.000017200              -0.000009947               0.000199782               0.000189835               0.000000000               0.000000000               0.000000000               0.000000000               0.000169735               0.000659739               0.000022273              -0.000018817               0.000226183               0.000207366               0.000000000               0.000000000               0.000000000               0.000000000               0.000162843               0.000733853               0.000024886              -0.000030665               0.000254837               0.000224172               0.000000000               0.000000000               0.000000000               0.000000000               0.000151154               0.000809945               0.000024173              -0.000044560               0.000284832               0.000240272               0.000000000               0.000000000               0.000000000               0.000000000               0.000136529               0.000886049               0.000020027              -0.000059558               0.000315199               0.000255642               0.000000000               0.000000000               0.000000000               0.000000000               0.000120942               0.000961649               0.000013321              -0.000074853               0.000345498               0.000270645               0.000000000               0.000000000               0.000000000               0.000000000               0.000105686               0.001035931               0.000005836              -0.000089859               0.000375260               0.000285401               0.000000000               0.000000000               0.000000000               0.000000000               0.000091298               0.001068030              -0.000000290              -0.000099267               0.000389095               0.000289828               0.000000000               0.000000000               0.000000000               0.000000000               0.000008866               0.000041178              -0.000001646              -0.000001823               0.000014333               0.000012511               0.000000000               0.000000000               0.000000000               0.000000000               0.000025205               0.000073573              -0.000003772               0.000000255               0.000024439               0.000024694               0.000000000               0.000000000               0.000000000               0.000000000               0.000048606               0.000133119              -0.000001489               0.000001587               0.000043843               0.000045431               0.000000000               0.000000000               0.000000000               0.000000000               0.000063530               0.000196539               0.000001246              -0.000000744               0.000065760               0.000065017               0.000000000               0.000000000               0.000000000               0.000000000               0.000091151               0.000269492              -0.000000846               0.000000495               0.000089665               0.000090160               0.000000000               0.000000000               0.000000000               0.000000000               0.000115745               0.000340049              -0.000001742               0.000000898               0.000113049               0.000113947               0.000000000               0.000000000               0.000000000               0.000000000               0.000135791               0.000408263               0.000000110              -0.000000111               0.000136123               0.000136012               0.000000000               0.000000000               0.000000000               0.000000000               0.000155614               0.000475893               0.000002139              -0.000001131               0.000159007               0.000157875               0.000000000               0.000000000               0.000000000               0.000000000               0.000173119               0.000541711               0.000005744              -0.000002794               0.000181500               0.000178706               0.000000000               0.000000000               0.000000000               0.000000000               0.000187031               0.000606877               0.000009765              -0.000005723               0.000204198               0.000198475               0.000000000               0.000000000               0.000000000               0.000000000               0.000195730               0.000674339               0.000014119              -0.000010894               0.000228409               0.000217515               0.000000000               0.000000000               0.000000000               0.000000000               0.000198414               0.000744387               0.000017591              -0.000018643               0.000254341               0.000235698               0.000000000               0.000000000               0.000000000               0.000000000               0.000196277               0.000816779               0.000019105              -0.000028493               0.000281755               0.000253261               0.000000000               0.000000000               0.000000000               0.000000000               0.000190654               0.000890715               0.000017783              -0.000039844               0.000310183               0.000270339               0.000000000               0.000000000               0.000000000               0.000000000               0.000182745               0.000964619               0.000013639              -0.000052048               0.000338886               0.000286838               0.000000000               0.000000000               0.000000000               0.000000000               0.000173592               0.001038340               0.000007118              -0.000064695               0.000367675               0.000302980               0.000000000               0.000000000               0.000000000               0.000000000               0.000161405               0.001070335               0.000000499              -0.000073265               0.000381196               0.000307932               0.000000000               0.000000000               0.000000000               0.000000000               0.000015538               0.000056717               0.000000265              -0.000001263               0.000019326               0.000018063               0.000000000               0.000000000               0.000000000               0.000000000               0.000028245               0.000090353              -0.000002615              -0.000000702               0.000030351               0.000029649               0.000000000               0.000000000               0.000000000               0.000000000               0.000055023               0.000152790              -0.000003258               0.000001535               0.000050418               0.000051953               0.000000000               0.000000000               0.000000000               0.000000000               0.000070462               0.000213474               0.000000807              -0.000000261               0.000071244               0.000070983               0.000000000               0.000000000               0.000000000               0.000000000               0.000092856               0.000281654               0.000000730              -0.000000386               0.000094012               0.000093627               0.000000000               0.000000000               0.000000000               0.000000000               0.000120321               0.000354215              -0.000001753               0.000000844               0.000117789               0.000118633               0.000000000               0.000000000               0.000000000               0.000000000               0.000141618               0.000421814              -0.000000655               0.000000380               0.000140476               0.000140856               0.000000000               0.000000000               0.000000000               0.000000000               0.000162245               0.000489591               0.000000329              -0.000000357               0.000163314               0.000162957               0.000000000               0.000000000               0.000000000               0.000000000               0.000182120               0.000556768               0.000001743              -0.000001301               0.000186021               0.000184720               0.000000000               0.000000000               0.000000000               0.000000000               0.000199994               0.000622199               0.000004059              -0.000002777               0.000208323               0.000205546               0.000000000               0.000000000               0.000000000               0.000000000               0.000215459               0.000688220               0.000006634              -0.000005231               0.000231148               0.000225917               0.000000000               0.000000000               0.000000000               0.000000000               0.000226895               0.000755828               0.000009300              -0.000009393               0.000255071               0.000245678               0.000000000               0.000000000               0.000000000               0.000000000               0.000234142               0.000825082               0.000011468              -0.000015332               0.000280135               0.000264803               0.000000000               0.000000000               0.000000000               0.000000000               0.000238230               0.000896331               0.000012127              -0.000022705               0.000306342               0.000283637               0.000000000               0.000000000               0.000000000               0.000000000               0.000239661               0.000968163               0.000010749              -0.000031147               0.000333100               0.000301953               0.000000000               0.000000000               0.000000000               0.000000000               0.000239273               0.001040524               0.000006826              -0.000040338               0.000360284               0.000319946               0.000000000               0.000000000               0.000000000               0.000000000               0.000233220               0.001073944               0.000001972              -0.000046785               0.000373573               0.000326788               0.000000000               0.000000000               0.000000000               0.000000000               0.000019551               0.000065787               0.000001098              -0.000000892               0.000022226               0.000021334               0.000000000               0.000000000               0.000000000               0.000000000               0.000031356               0.000101426              -0.000001881              -0.000000920               0.000034115               0.000033195               0.000000000               0.000000000               0.000000000               0.000000000               0.000058876               0.000169339              -0.000004186               0.000000911               0.000056142               0.000057053               0.000000000               0.000000000               0.000000000               0.000000000               0.000077428               0.000229157              -0.000000713               0.000000391               0.000076255               0.000076646               0.000000000               0.000000000               0.000000000               0.000000000               0.000095641               0.000291586               0.000002194              -0.000000583               0.000097389               0.000096806               0.000000000               0.000000000               0.000000000               0.000000000               0.000122856               0.000364249              -0.000000308               0.000000540               0.000121235               0.000121775               0.000000000               0.000000000               0.000000000               0.000000000               0.000146579               0.000433435              -0.000000908               0.000000788               0.000144214               0.000145002               0.000000000               0.000000000               0.000000000               0.000000000               0.000167132               0.000499746              -0.000000034               0.000000206               0.000166512               0.000166718               0.000000000               0.000000000               0.000000000               0.000000000               0.000188445               0.000567971              -0.000000098              -0.000000329               0.000189431               0.000189102               0.000000000               0.000000000               0.000000000               0.000000000               0.000208850               0.000634910               0.000000685              -0.000001045               0.000211983               0.000210938               0.000000000               0.000000000               0.000000000               0.000000000               0.000228031               0.000699894               0.000001723              -0.000001975               0.000233954               0.000231979               0.000000000               0.000000000               0.000000000               0.000000000               0.000245991               0.000766308               0.000002905              -0.000003542               0.000256614               0.000253072               0.000000000               0.000000000               0.000000000               0.000000000               0.000261188               0.000833207               0.000004119              -0.000006205               0.000279801               0.000273596               0.000000000               0.000000000               0.000000000               0.000000000               0.000273920               0.000901831               0.000005051              -0.000010009               0.000303944               0.000293935               0.000000000               0.000000000               0.000000000               0.000000000               0.000284697               0.000971358               0.000004963              -0.000014658               0.000328669               0.000314010               0.000000000               0.000000000               0.000000000               0.000000000               0.000294345               0.001041790               0.000003474              -0.000019844               0.000353875               0.000334030               0.000000000               0.000000000               0.000000000               0.000000000               0.000296322               0.001075821               0.000001222              -0.000023357               0.000366389               0.000343032               0.000000000               0.000000000               0.000000000               0.000000000               0.000020344               0.000066061               0.000002716              -0.000000628               0.000022230               0.000021601               0.000000000               0.000000000               0.000000000               0.000000000               0.000033843               0.000108405              -0.000000891              -0.000000860               0.000036421               0.000035562               0.000000000               0.000000000               0.000000000               0.000000000               0.000061581               0.000183484              -0.000004192               0.000000157               0.000061108               0.000061266               0.000000000               0.000000000               0.000000000               0.000000000               0.000083014               0.000243917              -0.000002179               0.000000641               0.000081091               0.000081732               0.000000000               0.000000000               0.000000000               0.000000000               0.000098907               0.000301269               0.000001547              -0.000000569               0.000100611               0.000100043               0.000000000               0.000000000               0.000000000               0.000000000               0.000122121               0.000369594               0.000000526              -0.000000404               0.000123331               0.000122928               0.000000000               0.000000000               0.000000000               0.000000000               0.000147900               0.000441514              -0.000000989               0.000000273               0.000147079               0.000147352               0.000000000               0.000000000               0.000000000               0.000000000               0.000169762               0.000506963              -0.000000180               0.000000290               0.000168889               0.000169180               0.000000000               0.000000000               0.000000000               0.000000000               0.000191623               0.000573542              -0.000000266               0.000000166               0.000191124               0.000191289               0.000000000               0.000000000               0.000000000               0.000000000               0.000214154               0.000642441              -0.000000504               0.000000003               0.000214144               0.000214147               0.000000000               0.000000000               0.000000000               0.000000000               0.000235408               0.000708124              -0.000000360              -0.000000237               0.000236118               0.000235881               0.000000000               0.000000000               0.000000000               0.000000000               0.000256575               0.000774089              -0.000000146              -0.000000546               0.000258209               0.000257663               0.000000000               0.000000000               0.000000000               0.000000000               0.000277007               0.000840167               0.000000025              -0.000001143               0.000280434               0.000279291               0.000000000               0.000000000               0.000000000               0.000000000               0.000296154               0.000906916               0.000000420              -0.000002307               0.000303071               0.000300765               0.000000000               0.000000000               0.000000000               0.000000000               0.000313990               0.000974404               0.000000615              -0.000004054               0.000326150               0.000322095               0.000000000               0.000000000               0.000000000               0.000000000               0.000331127               0.001042932               0.000000576              -0.000006194               0.000349705               0.000343511               0.000000000               0.000000000               0.000000000               0.000000000               0.000338234               0.001076227              -0.000000020              -0.000007691               0.000361302               0.000353612               0.000000000               0.000000000               0.000000000               0.000000000               0.000018628               0.000062390               0.000004174              -0.000000813               0.000021068               0.000020254               0.000000000               0.000000000               0.000000000               0.000000000               0.000034525               0.000112771               0.000001221              -0.000001150               0.000037973               0.000036823               0.000000000               0.000000000               0.000000000               0.000000000               0.000062821               0.000193947              -0.000002343              -0.000000685               0.000064877               0.000064191               0.000000000               0.000000000               0.000000000               0.000000000               0.000086617               0.000254393              -0.000002157               0.000000682               0.000084569               0.000085252               0.000000000               0.000000000               0.000000000               0.000000000               0.000103468               0.000309320               0.000000577               0.000000135               0.000103060               0.000103196               0.000000000               0.000000000               0.000000000               0.000000000               0.000124015               0.000373956               0.000000830              -0.000000239               0.000124730               0.000124492               0.000000000               0.000000000               0.000000000               0.000000000               0.000149523               0.000447293              -0.000000527               0.000000159               0.000149043               0.000149203               0.000000000               0.000000000               0.000000000               0.000000000               0.000172258               0.000512952              -0.000000280               0.000000478               0.000170823               0.000171301               0.000000000               0.000000000               0.000000000               0.000000000               0.000193510               0.000576789               0.000000027               0.000000468               0.000192105               0.000192573               0.000000000               0.000000000               0.000000000               0.000000000               0.000216278               0.000645864              -0.000000337               0.000000371               0.000215162               0.000215533               0.000000000               0.000000000               0.000000000               0.000000000               0.000238499               0.000713063              -0.000000493               0.000000304               0.000237584               0.000237888               0.000000000               0.000000000               0.000000000               0.000000000               0.000260739               0.000779134              -0.000000487               0.000000385               0.000259580               0.000259966               0.000000000               0.000000000               0.000000000               0.000000000               0.000283332               0.000845256              -0.000000595               0.000000592               0.000281552               0.000282144               0.000000000               0.000000000               0.000000000               0.000000000               0.000305702               0.000911098              -0.000000575               0.000000751               0.000303446               0.000304197               0.000000000               0.000000000               0.000000000               0.000000000               0.000327405               0.000977104              -0.000000497               0.000000639               0.000325485               0.000326124               0.000000000               0.000000000               0.000000000               0.000000000               0.000348482               0.001044101              -0.000000245               0.000000168               0.000347974               0.000348142               0.000000000               0.000000000               0.000000000               0.000000000               0.000357971               0.001076464              -0.000000281              -0.000000319               0.000358924               0.000358605               0.000000000               0.000000000               0.000000000               0.000000000               0.000019376               0.000059497               0.000001465              -0.000000171               0.000019889               0.000019718               0.000000000               0.000000000               0.000000000               0.000000000               0.000036266               0.000114028               0.000000150              -0.000000654               0.000038227               0.000037573               0.000000000               0.000000000               0.000000000               0.000000000               0.000063673               0.000198658              -0.000001516              -0.000000955               0.000066537               0.000065582               0.000000000               0.000000000               0.000000000               0.000000000               0.000087209               0.000260919              -0.000001470               0.000000089               0.000086943               0.000087031               0.000000000               0.000000000               0.000000000               0.000000000               0.000106285               0.000315676               0.000000353               0.000000397               0.000105092               0.000105489               0.000000000               0.000000000               0.000000000               0.000000000               0.000125490               0.000376109               0.000000918               0.000000045               0.000125353               0.000125398               0.000000000               0.000000000               0.000000000               0.000000000               0.000149618               0.000449374               0.000000006              -0.000000065               0.000149811               0.000149746               0.000000000               0.000000000               0.000000000               0.000000000               0.000172493               0.000517195              -0.000000086               0.000000035               0.000172385               0.000172420               0.000000000               0.000000000               0.000000000               0.000000000               0.000193314               0.000579454               0.000000233               0.000000061               0.000193129               0.000193190               0.000000000               0.000000000               0.000000000               0.000000000               0.000215844               0.000647045               0.000000141               0.000000061               0.000215659               0.000215720               0.000000000               0.000000000               0.000000000               0.000000000               0.000238419               0.000714618               0.000000039               0.000000080               0.000238177               0.000238257               0.000000000               0.000000000               0.000000000               0.000000000               0.000260469               0.000780387              -0.000000041               0.000000127               0.000260084               0.000260211               0.000000000               0.000000000               0.000000000               0.000000000               0.000282905               0.000846818              -0.000000238               0.000000237               0.000282191               0.000282428               0.000000000               0.000000000               0.000000000               0.000000000               0.000305504               0.000913101              -0.000000348               0.000000426               0.000304222               0.000304648               0.000000000               0.000000000               0.000000000               0.000000000               0.000328058               0.000978968              -0.000000352               0.000000651               0.000326102               0.000326753               0.000000000               0.000000000               0.000000000               0.000000000               0.000350540               0.001045187              -0.000000200               0.000000804               0.000348124               0.000348928               0.000000000               0.000000000               0.000000000               0.000000000               0.000361211               0.001076978              -0.000000104               0.000000832               0.000358712               0.000359544               0.000000000               0.000000000               0.000000000               0.000000000               0.000021054               0.000058338               0.000000000               0.000000603               0.000019245               0.000019848               0.000000000               0.000000000               0.000000000               0.000000000               0.000037852               0.000114356               0.000000000              -0.000000100               0.000038152               0.000038052               0.000000000               0.000000000               0.000000000               0.000000000               0.000064473               0.000201143              -0.000000000              -0.000000966               0.000067369               0.000066403               0.000000000               0.000000000               0.000000000               0.000000000               0.000086588               0.000264109              -0.000000000              -0.000000543               0.000088217               0.000087673               0.000000000               0.000000000               0.000000000               0.000000000               0.000106362               0.000317760               0.000000000               0.000000166               0.000105864               0.000106030               0.000000000               0.000000000               0.000000000               0.000000000               0.000125154               0.000376197               0.000000000              -0.000000092               0.000125428               0.000125336               0.000000000               0.000000000               0.000000000               0.000000000               0.000149006               0.000450048               0.000000000              -0.000000379               0.000150141               0.000149762               0.000000000               0.000000000               0.000000000               0.000000000               0.000172089               0.000519487               0.000000000              -0.000000403               0.000173295               0.000172892               0.000000000               0.000000000               0.000000000               0.000000000               0.000193047               0.000581064               0.000000000              -0.000000240               0.000193766               0.000193526               0.000000000               0.000000000               0.000000000               0.000000000               0.000215584               0.000646989               0.000000000              -0.000000030               0.000215671               0.000215641               0.000000000               0.000000000               0.000000000               0.000000000               0.000238131               0.000713875               0.000000000               0.000000065               0.000237934               0.000237999               0.000000000               0.000000000               0.000000000               0.000000000               0.000259752               0.000779458              -0.000000000              -0.000000025               0.000259825               0.000259800               0.000000000               0.000000000               0.000000000               0.000000000               0.000281667               0.000846419              -0.000000000              -0.000000177               0.000282196               0.000282019               0.000000000               0.000000000               0.000000000               0.000000000               0.000303851               0.000913555               0.000000000              -0.000000250               0.000304599               0.000304349               0.000000000               0.000000000               0.000000000               0.000000000               0.000326199               0.000979903               0.000000000              -0.000000163               0.000326686               0.000326522               0.000000000               0.000000000               0.000000000               0.000000000               0.000348846               0.001045914               0.000000000               0.000000078               0.000348609               0.000348687               0.000000000               0.000000000               0.000000000               0.000000000               0.000359872               0.001077420              -0.000000000               0.000000275               0.000359045               0.000359320               0.000000000               0.000000000               0.000000000               0.000000000              -0.000003341              -0.000006622               0.000000000              -0.000000425              -0.000002066              -0.000002491               0.000000000               0.000000000               0.000000000               0.000000000              -0.000003831              -0.000001286              -0.000000000              -0.000001276              -0.000000003              -0.000001279               0.000000000               0.000000000               0.000000000               0.000000000              -0.000002778               0.000002195               0.000000000              -0.000001316               0.000001170              -0.000000146               0.000000000               0.000000000               0.000000000               0.000000000               0.000000964               0.000006911               0.000000000              -0.000000503               0.000002471               0.000001969               0.000000000               0.000000000               0.000000000               0.000000000               0.000003813               0.000012441              -0.000000000              -0.000000125               0.000004189               0.000004063               0.000000000               0.000000000               0.000000000               0.000000000               0.000006423               0.000013955              -0.000000000               0.000000664               0.000004430               0.000005094               0.000000000               0.000000000               0.000000000               0.000000000               0.000008448               0.000012909               0.000000000               0.000001554               0.000003785               0.000005339               0.000000000               0.000000000               0.000000000               0.000000000               0.000008436               0.000009113               0.000000000               0.000002024               0.000002363               0.000004387               0.000000000               0.000000000               0.000000000               0.000000000               0.000006739               0.000003246              -0.000000000               0.000002121               0.000000375               0.000002496               0.000000000               0.000000000               0.000000000               0.000000000               0.000003669              -0.000002917              -0.000000000               0.000001740              -0.000001552               0.000000188               0.000000000               0.000000000               0.000000000               0.000000000              -0.000000796              -0.000007560               0.000000000               0.000000646              -0.000002735              -0.000002089               0.000000000               0.000000000               0.000000000               0.000000000              -0.000006134              -0.000010585               0.000000000              -0.000000977              -0.000003203              -0.000004180               0.000000000               0.000000000               0.000000000               0.000000000              -0.000010628              -0.000013073               0.000000000              -0.000002351              -0.000003574              -0.000005925               0.000000000               0.000000000               0.000000000               0.000000000              -0.000012308              -0.000016369               0.000000000              -0.000002570              -0.000004600              -0.000007169               0.000000000               0.000000000               0.000000000               0.000000000              -0.000010268              -0.000021059               0.000000000              -0.000001218              -0.000006613              -0.000007832               0.000000000               0.000000000               0.000000000               0.000000000              -0.000005558              -0.000026166               0.000000000               0.000001186              -0.000009117              -0.000007931               0.000000000               0.000000000               0.000000000               0.000000000              -0.000003032              -0.000029095               0.000000000               0.000002500              -0.000010532              -0.000008032               0.000000000               0.000000000               0.000000000               0.000000000               0.000003040               0.000002072              -0.000000230               0.000000881               0.000000397               0.000001278               0.000000000               0.000000000               0.000000000               0.000000000               0.000003198               0.000002284               0.000001099               0.000000914               0.000000457               0.000001370               0.000000000               0.000000000               0.000000000               0.000000000               0.000003028               0.000004588               0.000002653               0.000000562               0.000001342               0.000001904               0.000000000               0.000000000               0.000000000               0.000000000               0.000001706               0.000003800               0.000003302               0.000000165               0.000001212               0.000001376               0.000000000               0.000000000               0.000000000               0.000000000               0.000000789               0.000001833               0.000002851               0.000000067               0.000000589               0.000000655               0.000000000               0.000000000               0.000000000               0.000000000              -0.000000661              -0.000001003               0.000001238              -0.000000123              -0.000000293              -0.000000416               0.000000000               0.000000000               0.000000000               0.000000000              -0.000002393              -0.000004450              -0.000000838              -0.000000341              -0.000001370              -0.000001711               0.000000000               0.000000000               0.000000000               0.000000000              -0.000003480              -0.000007861              -0.000003344              -0.000000322              -0.000002513              -0.000002835               0.000000000               0.000000000               0.000000000               0.000000000              -0.000004255              -0.000010291              -0.000005434              -0.000000309              -0.000003327              -0.000003637               0.000000000               0.000000000               0.000000000               0.000000000              -0.000005166              -0.000011214              -0.000006491              -0.000000536              -0.000003559              -0.000004095               0.000000000               0.000000000               0.000000000               0.000000000              -0.000005812              -0.000011142              -0.000006514              -0.000000787              -0.000003452              -0.000004238               0.000000000               0.000000000               0.000000000               0.000000000              -0.000005521              -0.000010945              -0.000005943              -0.000000702              -0.000003414              -0.000004116               0.000000000               0.000000000               0.000000000               0.000000000              -0.000003995              -0.000011358              -0.000005188              -0.000000079              -0.000003760              -0.000003838               0.000000000               0.000000000               0.000000000               0.000000000              -0.000001629              -0.000012580              -0.000004486               0.000000962              -0.000004514              -0.000003552               0.000000000               0.000000000               0.000000000               0.000000000               0.000000519              -0.000014029              -0.000003697               0.000001948              -0.000005326              -0.000003377               0.000000000               0.000000000               0.000000000               0.000000000               0.000001102              -0.000014706              -0.000002211               0.000002251              -0.000005652              -0.000003401               0.000000000               0.000000000               0.000000000               0.000000000               0.000001203              -0.000014125              -0.000001575               0.000002217              -0.000005447              -0.000003231               0.000000000               0.000000000               0.000000000               0.000000000               0.000003228               0.000011927               0.000000443              -0.000000280               0.000004069               0.000003789               0.000000000               0.000000000               0.000000000               0.000000000               0.000002838               0.000005489               0.000000459               0.000000378               0.000001704               0.000002082               0.000000000               0.000000000               0.000000000               0.000000000               0.000002161               0.000002091              -0.000001220               0.000000549               0.000000514               0.000001063               0.000000000               0.000000000               0.000000000               0.000000000              -0.000000933              -0.000005353              -0.000001982               0.000000319              -0.000001891              -0.000001571               0.000000000               0.000000000               0.000000000               0.000000000              -0.000003480              -0.000013171              -0.000001923               0.000000342              -0.000004504              -0.000004163               0.000000000               0.000000000               0.000000000               0.000000000              -0.000006149              -0.000018103              -0.000002425              -0.000000043              -0.000006020              -0.000006063               0.000000000               0.000000000               0.000000000               0.000000000              -0.000008400              -0.000020098              -0.000002550              -0.000000638              -0.000006487              -0.000007124               0.000000000               0.000000000               0.000000000               0.000000000              -0.000009360              -0.000017772              -0.000002220              -0.000001289              -0.000005494              -0.000006783               0.000000000               0.000000000               0.000000000               0.000000000              -0.000008831              -0.000011320              -0.000001150              -0.000001897              -0.000003141              -0.000005038               0.000000000               0.000000000               0.000000000               0.000000000              -0.000006438              -0.000002807               0.000000283              -0.000002063              -0.000000248              -0.000002311               0.000000000               0.000000000               0.000000000               0.000000000              -0.000001826               0.000005112               0.000001500              -0.000001324               0.000002145               0.000000821               0.000000000               0.000000000               0.000000000               0.000000000               0.000004856               0.000011329               0.000002182               0.000000405               0.000003641               0.000004046               0.000000000               0.000000000               0.000000000               0.000000000               0.000011991               0.000016475               0.000002177               0.000002437               0.000004679               0.000007116               0.000000000               0.000000000               0.000000000               0.000000000               0.000016908               0.000022717               0.000001755               0.000003501               0.000006405               0.000009906               0.000000000               0.000000000               0.000000000               0.000000000               0.000016939               0.000032488               0.000001405               0.000002291               0.000010066               0.000012357               0.000000000               0.000000000               0.000000000               0.000000000               0.000010538               0.000047360               0.000001246              -0.000001968               0.000016443               0.000014474               0.000000000               0.000000000               0.000000000               0.000000000               0.000008655               0.000061746              -0.000000631              -0.000004473               0.000022073               0.000017600               0.000000000               0.000000000               0.000000000               0.000000000              -0.000001671               0.000004727              -0.000004242              -0.000001218               0.000001981               0.000000764               0.000000000               0.000000000               0.000000000               0.000000000              -0.000003125              -0.000001382              -0.000001360              -0.000000999              -0.000000128              -0.000001127               0.000000000               0.000000000               0.000000000               0.000000000              -0.000003566              -0.000009260               0.000000064              -0.000000180              -0.000003027              -0.000003207               0.000000000               0.000000000               0.000000000               0.000000000              -0.000004896              -0.000014387              -0.000001000              -0.000000038              -0.000004783              -0.000004821               0.000000000               0.000000000               0.000000000               0.000000000              -0.000006319              -0.000015054              -0.000001300              -0.000000488              -0.000004855              -0.000005343               0.000000000               0.000000000               0.000000000               0.000000000              -0.000004294              -0.000009748              -0.000001413              -0.000000392              -0.000003119              -0.000003511               0.000000000               0.000000000               0.000000000               0.000000000              -0.000000275               0.000001494              -0.000000645              -0.000000290               0.000000594               0.000000305               0.000000000               0.000000000               0.000000000               0.000000000               0.000004651               0.000017468               0.000001166              -0.000000439               0.000005969               0.000005530               0.000000000               0.000000000               0.000000000               0.000000000               0.000010726               0.000035594               0.000003056              -0.000000427               0.000012007               0.000011580               0.000000000               0.000000000               0.000000000               0.000000000               0.000018087               0.000052608               0.000004122               0.000000207               0.000017467               0.000017674               0.000000000               0.000000000               0.000000000               0.000000000               0.000026771               0.000067630               0.000003752               0.000001586               0.000022015               0.000023600               0.000000000               0.000000000               0.000000000               0.000000000               0.000035103               0.000081745               0.000001893               0.000002945               0.000026266               0.000029212               0.000000000               0.000000000               0.000000000               0.000000000               0.000040257               0.000097561              -0.000000707               0.000002901               0.000031553               0.000034454               0.000000000               0.000000000               0.000000000               0.000000000               0.000039777               0.000118061              -0.000002883               0.000000159               0.000039300               0.000039459               0.000000000               0.000000000               0.000000000               0.000000000               0.000032392               0.000145124              -0.000003665              -0.000005993               0.000050372               0.000044379               0.000000000               0.000000000               0.000000000               0.000000000               0.000018041               0.000179590              -0.000002443              -0.000015683               0.000065090               0.000049407               0.000000000               0.000000000               0.000000000               0.000000000               0.000015333               0.000209578              -0.000004810              -0.000020447               0.000076674               0.000056227               0.000000000               0.000000000               0.000000000               0.000000000              -0.000000653              -0.000011243              -0.000004593               0.000001160              -0.000004135              -0.000002974               0.000000000               0.000000000               0.000000000               0.000000000              -0.000004849              -0.000014321              -0.000001040              -0.000000028              -0.000004764              -0.000004792               0.000000000               0.000000000               0.000000000               0.000000000              -0.000006787              -0.000018300               0.000000712              -0.000000258              -0.000006014              -0.000006272               0.000000000               0.000000000               0.000000000               0.000000000              -0.000004154              -0.000011061              -0.000000546              -0.000000175              -0.000003629              -0.000003804               0.000000000               0.000000000               0.000000000               0.000000000              -0.000000395               0.000003936              -0.000000134              -0.000000640               0.000001525               0.000000885               0.000000000               0.000000000               0.000000000               0.000000000               0.000007411               0.000027199               0.000000723              -0.000000621               0.000009273               0.000008652               0.000000000               0.000000000               0.000000000               0.000000000               0.000017839               0.000055686               0.000001888              -0.000000271               0.000018652               0.000018381               0.000000000               0.000000000               0.000000000               0.000000000               0.000028622               0.000085558               0.000002947               0.000000038               0.000028506               0.000028545               0.000000000               0.000000000               0.000000000               0.000000000               0.000039943               0.000113689               0.000002663               0.000000767               0.000037640               0.000038408               0.000000000               0.000000000               0.000000000               0.000000000               0.000051910               0.000138885               0.000000235               0.000002105               0.000045593               0.000047698               0.000000000               0.000000000               0.000000000               0.000000000               0.000062219               0.000162670              -0.000004245               0.000002998               0.000053223               0.000056222               0.000000000               0.000000000               0.000000000               0.000000000               0.000067904               0.000188064              -0.000009653               0.000001956               0.000062035               0.000063991               0.000000000               0.000000000               0.000000000               0.000000000               0.000066870               0.000218468              -0.000014238              -0.000002232               0.000073566               0.000071334               0.000000000               0.000000000               0.000000000               0.000000000               0.000058305               0.000254911              -0.000016443              -0.000010000               0.000088303               0.000078303               0.000000000               0.000000000               0.000000000               0.000000000               0.000043049               0.000296760              -0.000015219              -0.000020951               0.000105903               0.000084951               0.000000000               0.000000000               0.000000000               0.000000000               0.000022686               0.000342305              -0.000009594              -0.000034281               0.000125527               0.000091247               0.000000000               0.000000000               0.000000000               0.000000000               0.000018453               0.000377106              -0.000009570              -0.000040218               0.000139107               0.000098889               0.000000000               0.000000000               0.000000000               0.000000000              -0.000002727              -0.000021529               0.000001042               0.000001669              -0.000007732              -0.000006064               0.000000000               0.000000000               0.000000000               0.000000000              -0.000005823              -0.000017264              -0.000000234              -0.000000026              -0.000005746              -0.000005772               0.000000000               0.000000000               0.000000000               0.000000000              -0.000004666              -0.000008887               0.000000002              -0.000000639              -0.000002750              -0.000003388               0.000000000               0.000000000               0.000000000               0.000000000               0.000005710               0.000015101               0.000000304               0.000000254               0.000004949               0.000005203               0.000000000               0.000000000               0.000000000               0.000000000               0.000016993               0.000047588               0.000000813               0.000000424               0.000015721               0.000016145               0.000000000               0.000000000               0.000000000               0.000000000               0.000029694               0.000086482               0.000002131               0.000000325               0.000028719               0.000029044               0.000000000               0.000000000               0.000000000               0.000000000               0.000043765               0.000127475               0.000002804               0.000000478               0.000042332               0.000042810               0.000000000               0.000000000               0.000000000               0.000000000               0.000057410               0.000167538               0.000002081               0.000000586               0.000055650               0.000056236               0.000000000               0.000000000               0.000000000               0.000000000               0.000070932               0.000203804              -0.000001257               0.000001124               0.000067559               0.000068683               0.000000000               0.000000000               0.000000000               0.000000000               0.000082627               0.000237834              -0.000007300               0.000001256               0.000078859               0.000080114               0.000000000               0.000000000               0.000000000               0.000000000               0.000089587               0.000272796              -0.000014789              -0.000000504               0.000091099               0.000090595               0.000000000               0.000000000               0.000000000               0.000000000               0.000089348               0.000312231              -0.000021517              -0.000005523               0.000105917               0.000100394               0.000000000               0.000000000               0.000000000               0.000000000               0.000081083               0.000356977              -0.000025515              -0.000014216               0.000123730               0.000109514               0.000000000               0.000000000               0.000000000               0.000000000               0.000065798               0.000405529              -0.000025700              -0.000026017               0.000143847               0.000117830               0.000000000               0.000000000               0.000000000               0.000000000               0.000045668               0.000455464              -0.000021430              -0.000039807               0.000165089               0.000125282               0.000000000               0.000000000               0.000000000               0.000000000               0.000023096               0.000503732              -0.000012526              -0.000054305               0.000186011               0.000131705               0.000000000               0.000000000               0.000000000               0.000000000               0.000017961               0.000537075              -0.000010683              -0.000060399               0.000199156               0.000138757               0.000000000               0.000000000               0.000000000               0.000000000              -0.000002671              -0.000020313               0.000005417               0.000001538              -0.000007284              -0.000005746               0.000000000               0.000000000               0.000000000               0.000000000              -0.000000918              -0.000006644              -0.000000130               0.000000486              -0.000002377              -0.000001891               0.000000000               0.000000000               0.000000000               0.000000000               0.000003121               0.000015784              -0.000000196              -0.000000803               0.000005529               0.000004726               0.000000000               0.000000000               0.000000000               0.000000000               0.000019166               0.000057745               0.000000769              -0.000000031               0.000019258               0.000019228               0.000000000               0.000000000               0.000000000               0.000000000               0.000037499               0.000107457               0.000000903               0.000000630               0.000035608               0.000036239               0.000000000               0.000000000               0.000000000               0.000000000               0.000054851               0.000158677               0.000001835               0.000000735               0.000052647               0.000053382               0.000000000               0.000000000               0.000000000               0.000000000               0.000072301               0.000209879               0.000001118               0.000000878               0.000069666               0.000070544               0.000000000               0.000000000               0.000000000               0.000000000               0.000087970               0.000257102              -0.000001659               0.000000851               0.000085416               0.000086267               0.000000000               0.000000000               0.000000000               0.000000000               0.000101321               0.000301313              -0.000007900               0.000000331               0.000100326               0.000100658               0.000000000               0.000000000               0.000000000               0.000000000               0.000110053               0.000345776              -0.000016221              -0.000001952               0.000115908               0.000113956               0.000000000               0.000000000               0.000000000               0.000000000               0.000111139               0.000394052              -0.000024448              -0.000007579               0.000133876               0.000126297               0.000000000               0.000000000               0.000000000               0.000000000               0.000103554               0.000447464              -0.000030068              -0.000017100               0.000154853               0.000137753               0.000000000               0.000000000               0.000000000               0.000000000               0.000088484               0.000504349              -0.000031906              -0.000029862               0.000178069               0.000148207               0.000000000               0.000000000               0.000000000               0.000000000               0.000068269               0.000561951              -0.000029373              -0.000044643               0.000202196               0.000157553               0.000000000               0.000000000               0.000000000               0.000000000               0.000045703               0.000616955              -0.000022813              -0.000059980               0.000225643               0.000165663               0.000000000               0.000000000               0.000000000               0.000000000               0.000022768               0.000666195              -0.000012857              -0.000074736               0.000246975               0.000172239               0.000000000               0.000000000               0.000000000               0.000000000               0.000016872               0.000697971              -0.000010474              -0.000080919               0.000259628               0.000178708               0.000000000               0.000000000               0.000000000               0.000000000               0.000001805              -0.000006873               0.000007968               0.000001536              -0.000002803              -0.000001267               0.000000000               0.000000000               0.000000000               0.000000000               0.000007584               0.000011162               0.000000817               0.000001449               0.000003238               0.000004687               0.000000000               0.000000000               0.000000000               0.000000000               0.000015453               0.000049997              -0.000000658              -0.000000455               0.000016817               0.000016362               0.000000000               0.000000000               0.000000000               0.000000000               0.000037239               0.000109059               0.000001318               0.000000332               0.000036242               0.000036574               0.000000000               0.000000000               0.000000000               0.000000000               0.000059856               0.000170967               0.000001837               0.000001075               0.000056630               0.000057705               0.000000000               0.000000000               0.000000000               0.000000000               0.000079155               0.000232463               0.000001568               0.000000625               0.000077279               0.000077904               0.000000000               0.000000000               0.000000000               0.000000000               0.000097890               0.000291845              -0.000000598               0.000000228               0.000097205               0.000097433               0.000000000               0.000000000               0.000000000               0.000000000               0.000114599               0.000347569              -0.000005819              -0.000000471               0.000116012               0.000115541               0.000000000               0.000000000               0.000000000               0.000000000               0.000126557               0.000402024              -0.000013652              -0.000002794               0.000134938               0.000132144               0.000000000               0.000000000               0.000000000               0.000000000               0.000131201               0.000459505              -0.000022431              -0.000008238               0.000155913               0.000147675               0.000000000               0.000000000               0.000000000               0.000000000               0.000126431               0.000521920              -0.000029354              -0.000017828               0.000179914               0.000162086               0.000000000               0.000000000               0.000000000               0.000000000               0.000113147               0.000588322              -0.000032598              -0.000031110               0.000206476               0.000175365               0.000000000               0.000000000               0.000000000               0.000000000               0.000093607               0.000655705              -0.000031390              -0.000046860               0.000234186               0.000187326               0.000000000               0.000000000               0.000000000               0.000000000               0.000071068               0.000721134              -0.000026298              -0.000063491               0.000261539               0.000198048               0.000000000               0.000000000               0.000000000               0.000000000               0.000047163               0.000781433              -0.000018681              -0.000079993               0.000287139               0.000207146               0.000000000               0.000000000               0.000000000               0.000000000               0.000023566               0.000834308              -0.000009861              -0.000095451               0.000309917               0.000214466               0.000000000               0.000000000               0.000000000               0.000000000               0.000015424               0.000866900              -0.000008063              -0.000102578               0.000323156               0.000220578               0.000000000               0.000000000               0.000000000               0.000000000               0.000002931               0.000010587               0.000008006              -0.000000224               0.000003604               0.000003379               0.000000000               0.000000000               0.000000000               0.000000000               0.000014983               0.000031994               0.000002829               0.000001619               0.000010125               0.000011744               0.000000000               0.000000000               0.000000000               0.000000000               0.000028222               0.000086082              -0.000000206              -0.000000177               0.000028753               0.000028576               0.000000000               0.000000000               0.000000000               0.000000000               0.000051001               0.000152882               0.000001990               0.000000015               0.000050955               0.000050970               0.000000000               0.000000000               0.000000000               0.000000000               0.000077368               0.000223348               0.000003082               0.000001095               0.000074084               0.000075178               0.000000000               0.000000000               0.000000000               0.000000000               0.000098237               0.000291615               0.000002234               0.000000387               0.000097075               0.000097462               0.000000000               0.000000000               0.000000000               0.000000000               0.000117663               0.000356386              -0.000000213              -0.000000425               0.000118936               0.000118511               0.000000000               0.000000000               0.000000000               0.000000000               0.000134400               0.000418730              -0.000005775              -0.000001941               0.000140222               0.000138281               0.000000000               0.000000000               0.000000000               0.000000000               0.000145127               0.000480715              -0.000013014              -0.000005667               0.000162126               0.000156459               0.000000000               0.000000000               0.000000000               0.000000000               0.000147933               0.000547985              -0.000020555              -0.000013023               0.000187001               0.000173978               0.000000000               0.000000000               0.000000000               0.000000000               0.000141476               0.000620354              -0.000026015              -0.000024491               0.000214946               0.000190456               0.000000000               0.000000000               0.000000000               0.000000000               0.000128378               0.000696670              -0.000027840              -0.000038942               0.000245202               0.000206260               0.000000000               0.000000000               0.000000000               0.000000000               0.000110595               0.000772900              -0.000025504              -0.000055139               0.000276011               0.000220871               0.000000000               0.000000000               0.000000000               0.000000000               0.000090700               0.000846401              -0.000019803              -0.000071788               0.000306060               0.000234272               0.000000000               0.000000000               0.000000000               0.000000000               0.000069753               0.000914867              -0.000012275              -0.000088201               0.000334353               0.000246152               0.000000000               0.000000000               0.000000000               0.000000000               0.000049785               0.000977096              -0.000004985              -0.000103467               0.000360184               0.000256717               0.000000000               0.000000000               0.000000000               0.000000000               0.000038258               0.001009175              -0.000001906              -0.000111800               0.000373655               0.000261855               0.000000000               0.000000000               0.000000000               0.000000000               0.000003356               0.000025960               0.000004960              -0.000001987               0.000009316               0.000007329               0.000000000               0.000000000               0.000000000               0.000000000               0.000020760               0.000053470               0.000003763               0.000001101               0.000017456               0.000018557               0.000000000               0.000000000               0.000000000               0.000000000               0.000039210               0.000112541              -0.000000307               0.000000636               0.000037301               0.000037937               0.000000000               0.000000000               0.000000000               0.000000000               0.000058537               0.000179464              -0.000000035              -0.000000482               0.000059981               0.000059500               0.000000000               0.000000000               0.000000000               0.000000000               0.000087687               0.000254510               0.000001703               0.000001069               0.000084480               0.000085549               0.000000000               0.000000000               0.000000000               0.000000000               0.000109540               0.000323928               0.000000747               0.000000586               0.000107779               0.000108366               0.000000000               0.000000000               0.000000000               0.000000000               0.000129799               0.000392189              -0.000001841              -0.000000349               0.000130845               0.000130496               0.000000000               0.000000000               0.000000000               0.000000000               0.000148087               0.000457896              -0.000005767              -0.000001704               0.000153199               0.000151494               0.000000000               0.000000000               0.000000000               0.000000000               0.000162144               0.000522493              -0.000011362              -0.000004508               0.000175665               0.000171158               0.000000000               0.000000000               0.000000000               0.000000000               0.000169942               0.000589405              -0.000017200              -0.000009947               0.000199782               0.000189835               0.000000000               0.000000000               0.000000000               0.000000000               0.000169735               0.000659739              -0.000022273              -0.000018817               0.000226183               0.000207366               0.000000000               0.000000000               0.000000000               0.000000000               0.000162843               0.000733853              -0.000024886              -0.000030665               0.000254837               0.000224172               0.000000000               0.000000000               0.000000000               0.000000000               0.000151154               0.000809945              -0.000024173              -0.000044560               0.000284832               0.000240272               0.000000000               0.000000000               0.000000000               0.000000000               0.000136529               0.000886049              -0.000020027              -0.000059558               0.000315199               0.000255642               0.000000000               0.000000000               0.000000000               0.000000000               0.000120942               0.000961649              -0.000013321              -0.000074853               0.000345498               0.000270645               0.000000000               0.000000000               0.000000000               0.000000000               0.000105686               0.001035931              -0.000005836              -0.000089859               0.000375260               0.000285401               0.000000000               0.000000000               0.000000000               0.000000000               0.000091298               0.001068030               0.000000290              -0.000099267               0.000389095               0.000289828               0.000000000               0.000000000               0.000000000               0.000000000               0.000008866               0.000041178               0.000001646              -0.000001823               0.000014333               0.000012511               0.000000000               0.000000000               0.000000000               0.000000000               0.000025205               0.000073573               0.000003772               0.000000255               0.000024439               0.000024694               0.000000000               0.000000000               0.000000000               0.000000000               0.000048606               0.000133119               0.000001489               0.000001587               0.000043843               0.000045431               0.000000000               0.000000000               0.000000000               0.000000000               0.000063530               0.000196539              -0.000001246              -0.000000744               0.000065760               0.000065017               0.000000000               0.000000000               0.000000000               0.000000000               0.000091151               0.000269492               0.000000846               0.000000495               0.000089665               0.000090160               0.000000000               0.000000000               0.000000000               0.000000000               0.000115745               0.000340049               0.000001742               0.000000898               0.000113049               0.000113947               0.000000000               0.000000000               0.000000000               0.000000000               0.000135791               0.000408263              -0.000000110              -0.000000111               0.000136123               0.000136012               0.000000000               0.000000000               0.000000000               0.000000000               0.000155614               0.000475893              -0.000002139              -0.000001131               0.000159007               0.000157875               0.000000000               0.000000000               0.000000000               0.000000000               0.000173119               0.000541711              -0.000005744              -0.000002794               0.000181500               0.000178706               0.000000000               0.000000000               0.000000000               0.000000000               0.000187031               0.000606877              -0.000009765              -0.000005723               0.000204198               0.000198475               0.000000000               0.000000000               0.000000000               0.000000000               0.000195730               0.000674339              -0.000014119              -0.000010894               0.000228409               0.000217515               0.000000000               0.000000000               0.000000000               0.000000000               0.000198414               0.000744387              -0.000017591              -0.000018643               0.000254341               0.000235698               0.000000000               0.000000000               0.000000000               0.000000000               0.000196277               0.000816779              -0.000019105              -0.000028493               0.000281755               0.000253261               0.000000000               0.000000000               0.000000000               0.000000000               0.000190654               0.000890715              -0.000017783              -0.000039844               0.000310183               0.000270339               0.000000000               0.000000000               0.000000000               0.000000000               0.000182745               0.000964619              -0.000013639              -0.000052048               0.000338886               0.000286838               0.000000000               0.000000000               0.000000000               0.000000000               0.000173592               0.001038340              -0.000007118              -0.000064695               0.000367675               0.000302980               0.000000000               0.000000000               0.000000000               0.000000000               0.000161405               0.001070335              -0.000000499              -0.000073265               0.000381196               0.000307932               0.000000000               0.000000000               0.000000000               0.000000000               0.000015538               0.000056717              -0.000000265              -0.000001263               0.000019326               0.000018063               0.000000000               0.000000000               0.000000000               0.000000000               0.000028245               0.000090353               0.000002615              -0.000000702               0.000030351               0.000029649               0.000000000               0.000000000               0.000000000               0.000000000               0.000055023               0.000152790               0.000003258               0.000001535               0.000050418               0.000051953               0.000000000               0.000000000               0.000000000               0.000000000               0.000070462               0.000213474              -0.000000807              -0.000000261               0.000071244               0.000070983               0.000000000               0.000000000               0.000000000               0.000000000               0.000092856               0.000281654              -0.000000730              -0.000000386               0.000094012               0.000093627               0.000000000               0.000000000               0.000000000               0.000000000               0.000120321               0.000354215               0.000001753               0.000000844               0.000117789               0.000118633               0.000000000               0.000000000               0.000000000               0.000000000               0.000141618               0.000421814               0.000000655               0.000000380               0.000140476               0.000140856               0.000000000               0.000000000               0.000000000               0.000000000               0.000162245               0.000489591              -0.000000329              -0.000000357               0.000163314               0.000162957               0.000000000               0.000000000               0.000000000               0.000000000               0.000182120               0.000556768              -0.000001743              -0.000001301               0.000186021               0.000184720               0.000000000               0.000000000               0.000000000               0.000000000               0.000199994               0.000622199              -0.000004059              -0.000002777               0.000208323               0.000205546               0.000000000               0.000000000               0.000000000               0.000000000               0.000215459               0.000688220              -0.000006634              -0.000005231               0.000231148               0.000225917               0.000000000               0.000000000               0.000000000               0.000000000               0.000226895               0.000755828              -0.000009300              -0.000009393               0.000255071               0.000245678               0.000000000               0.000000000               0.000000000               0.000000000               0.000234142               0.000825082              -0.000011468              -0.000015332               0.000280135               0.000264803               0.000000000               0.000000000               0.000000000               0.000000000               0.000238230               0.000896331              -0.000012127              -0.000022705               0.000306342               0.000283637               0.000000000               0.000000000               0.000000000               0.000000000               0.000239661               0.000968163              -0.000010749              -0.000031147               0.000333100               0.000301953               0.000000000               0.000000000               0.000000000               0.000000000               0.000239273               0.001040524              -0.000006826              -0.000040338               0.000360284               0.000319946               0.000000000               0.000000000               0.000000000               0.000000000               0.000233220               0.001073944              -0.000001972              -0.000046785               0.000373573               0.000326788               0.000000000               0.000000000               0.000000000               0.000000000               0.000019551               0.000065787              -0.000001098              -0.000000892               0.000022226               0.000021334               0.000000000               0.000000000               0.000000000               0.000000000               0.000031356               0.000101426               0.000001881              -0.000000920               0.000034115               0.000033195               0.000000000               0.000000000               0.000000000               0.000000000               0.000058876               0.000169339               0.000004186               0.000000911               0.000056142               0.000057053               0.000000000               0.000000000               0.000000000               0.000000000               0.000077428               0.000229157               0.000000713               0.000000391               0.000076255               0.000076646               0.000000000               0.000000000               0.000000000               0.000000000               0.000095641               0.000291586              -0.000002194              -0.000000583               0.000097389               0.000096806               0.000000000               0.000000000               0.000000000               0.000000000               0.000122856               0.000364249               0.000000308               0.000000540               0.000121235               0.000121775               0.000000000               0.000000000               0.000000000               0.000000000               0.000146579               0.000433435               0.000000908               0.000000788               0.000144214               0.000145002               0.000000000               0.000000000               0.000000000               0.000000000               0.000167132               0.000499746               0.000000034               0.000000206               0.000166512               0.000166718               0.000000000               0.000000000               0.000000000               0.000000000               0.000188445               0.000567971               0.000000098              -0.000000329               0.000189431               0.000189102               0.000000000               0.000000000               0.000000000               0.000000000               0.000208850               0.000634910              -0.000000685              -0.000001045               0.000211983               0.000210938               0.000000000               0.000000000               0.000000000               0.000000000               0.000228031               0.000699894              -0.000001723              -0.000001975               0.000233954               0.000231979               0.000000000               0.000000000               0.000000000               0.000000000               0.000245991               0.000766308              -0.000002905              -0.000003542               0.000256614               0.000253072               0.000000000               0.000000000               0.000000000               0.000000000               0.000261188               0.000833207              -0.000004119              -0.000006205               0.000279801               0.000273596               0.000000000               0.000000000               0.000000000               0.000000000               0.000273920               0.000901831              -0.000005051              -0.000010009               0.000303944               0.000293935               0.000000000               0.000000000               0.000000000               0.000000000               0.000284697               0.000971358              -0.000004963              -0.000014658               0.000328669               0.000314010               0.000000000               0.000000000               0.000000000               0.000000000               0.000294345               0.001041790              -0.000003474              -0.000019844               0.000353875               0.000334030               0.000000000               0.000000000               0.000000000               0.000000000               0.000296322               0.001075821              -0.000001222              -0.000023357               0.000366389               0.000343032               0.000000000               0.000000000               0.000000000               0.000000000               0.000020344               0.000066061              -0.000002716              -0.000000628               0.000022230               0.000021601               0.000000000               0.000000000               0.000000000               0.000000000               0.000033843               0.000108405               0.000000891              -0.000000860               0.000036421               0.000035562               0.000000000               0.000000000               0.000000000               0.000000000               0.000061581               0.000183484               0.000004192               0.000000157               0.000061108               0.000061266               0.000000000               0.000000000               0.000000000               0.000000000               0.000083014               0.000243917               0.000002179               0.000000641               0.000081091               0.000081732               0.000000000               0.000000000               0.000000000               0.000000000               0.000098907               0.000301269              -0.000001547              -0.000000569               0.000100611               0.000100043               0.000000000               0.000000000               0.000000000               0.000000000               0.000122121               0.000369594              -0.000000526              -0.000000404               0.000123331               0.000122928               0.000000000               0.000000000               0.000000000               0.000000000               0.000147900               0.000441514               0.000000989               0.000000273               0.000147079               0.000147352               0.000000000               0.000000000               0.000000000               0.000000000               0.000169762               0.000506963               0.000000180               0.000000290               0.000168889               0.000169180               0.000000000               0.000000000               0.000000000               0.000000000               0.000191623               0.000573542               0.000000266               0.000000166               0.000191124               0.000191289               0.000000000               0.000000000               0.000000000               0.000000000               0.000214154               0.000642441               0.000000504               0.000000003               0.000214144               0.000214147               0.000000000               0.000000000               0.000000000               0.000000000               0.000235408               0.000708124               0.000000360              -0.000000237               0.000236118               0.000235881               0.000000000               0.000000000               0.000000000               0.000000000               0.000256575               0.000774089               0.000000146              -0.000000546               0.000258209               0.000257663               0.000000000               0.000000000               0.000000000               0.000000000               0.000277007               0.000840167              -0.000000025              -0.000001143               0.000280434               0.000279291               0.000000000               0.000000000               0.000000000               0.000000000               0.000296154               0.000906916              -0.000000420              -0.000002307               0.000303071               0.000300765               0.000000000               0.000000000               0.000000000               0.000000000               0.000313990               0.000974404              -0.000000615              -0.000004054               0.000326150               0.000322095               0.000000000               0.000000000               0.000000000               0.000000000               0.000331127               0.001042932              -0.000000576              -0.000006194               0.000349705               0.000343511               0.000000000               0.000000000               0.000000000               0.000000000               0.000338234               0.001076227               0.000000020              -0.000007691               0.000361302               0.000353612               0.000000000               0.000000000               0.000000000               0.000000000               0.000018628               0.000062390              -0.000004174              -0.000000813               0.000021068               0.000020254               0.000000000               0.000000000               0.000000000               0.000000000               0.000034525               0.000112771              -0.000001221              -0.000001150               0.000037973               0.000036823               0.000000000               0.000000000               0.000000000               0.000000000               0.000062821               0.000193947               0.000002343              -0.000000685               0.000064877               0.000064191               0.000000000               0.000000000               0.000000000               0.000000000               0.000086617               0.000254393               0.000002157               0.000000682               0.000084569               0.000085252               0.000000000               0.000000000               0.000000000               0.000000000               0.000103468               0.000309320              -0.000000577               0.000000135               0.000103060               0.000103196               0.000000000               0.000000000               0.000000000               0.000000000               0.000124015               0.000373956              -0.000000830              -0.000000239               0.000124730               0.000124492               0.000000000               0.000000000               0.000000000               0.000000000               0.000149523               0.000447293               0.000000527               0.000000159               0.000149043               0.000149203               0.000000000               0.000000000               0.000000000               0.000000000               0.000172258               0.000512952               0.000000280               0.000000478               0.000170823               0.000171301               0.000000000               0.000000000               0.000000000               0.000000000               0.000193510               0.000576789              -0.000000027               0.000000468               0.000192105               0.000192573               0.000000000               0.000000000               0.000000000               0.000000000               0.000216278               0.000645864               0.000000337               0.000000371               0.000215162               0.000215533               0.000000000               0.000000000               0.000000000               0.000000000               0.000238499               0.000713063               0.000000493               0.000000304               0.000237584               0.000237888               0.000000000               0.000000000               0.000000000               0.000000000               0.000260739               0.000779134               0.000000487               0.000000385               0.000259580               0.000259966               0.000000000               0.000000000               0.000000000               0.000000000               0.000283332               0.000845256               0.000000595               0.000000592               0.000281552               0.000282144               0.000000000               0.000000000               0.000000000               0.000000000               0.000305702               0.000911098               0.000000575               0.000000751               0.000303446               0.000304197               0.000000000               0.000000000               0.000000000               0.000000000               0.000327405               0.000977104               0.000000497               0.000000639               0.000325485               0.000326124               0.000000000               0.000000000               0.000000000               0.000000000               0.000348482               0.001044101               0.000000245               0.000000168               0.000347974               0.000348142               0.000000000               0.000000000               0.000000000               0.000000000               0.000357971               0.001076464               0.000000281              -0.000000319               0.000358924               0.000358605               0.000000000               0.000000000               0.000000000               0.000000000               0.000019376               0.000059497              -0.000001465              -0.000000171               0.000019889               0.000019718               0.000000000               0.000000000               0.000000000               0.000000000               0.000036266               0.000114028              -0.000000150              -0.000000654               0.000038227               0.000037573               0.000000000               0.000000000               0.000000000               0.000000000               0.000063673               0.000198658               0.000001516              -0.000000955               0.000066537               0.000065582               0.000000000               0.000000000               0.000000000               0.000000000               0.000087209               0.000260919               0.000001470               0.000000089               0.000086943               0.000087031               0.000000000               0.000000000               0.000000000               0.000000000               0.000106285               0.000315676              -0.000000353               0.000000397               0.000105092               0.000105489               0.000000000               0.000000000               0.000000000               0.000000000               0.000125490               0.000376109              -0.000000918               0.000000045               0.000125353               0.000125398               0.000000000               0.000000000               0.000000000               0.000000000               0.000149618               0.000449374              -0.000000006              -0.000000065               0.000149811               0.000149746               0.000000000               0.000000000               0.000000000               0.000000000               0.000172493               0.000517195               0.000000086               0.000000035               0.000172385               0.000172420               0.000000000               0.000000000               0.000000000               0.000000000               0.000193314               0.000579454              -0.000000233               0.000000061               0.000193129               0.000193190               0.000000000               0.000000000               0.000000000               0.000000000               0.000215844               0.000647045              -0.000000141               0.000000061               0.000215659               0.000215720               0.000000000               0.000000000               0.000000000               0.000000000               0.000238419               0.000714618              -0.000000039               0.000000080               0.000238177               0.000238257               0.000000000               0.000000000               0.000000000               0.000000000               0.000260469               0.000780387               0.000000041               0.000000127               0.000260084               0.000260211               0.000000000               0.000000000               0.000000000               0.000000000               0.000282905               0.000846818               0.000000238               0.000000237               0.000282191               0.000282428               0.000000000               0.000000000               0.000000000               0.000000000               0.000305504               0.000913101               0.000000348               0.000000426               0.000304222               0.000304648               0.000000000               0.000000000               0.000000000               0.000000000               0.000328058               0.000978968               0.000000352               0.000000651               0.000326102               0.000326753               0.000000000               0.000000000               0.000000000               0.000000000               0.000350540               0.001045187               0.000000200               0.000000804               0.000348124               0.000348928               0.000000000               0.000000000               0.000000000               0.000000000               0.000361211               0.001076978               0.000000104               0.000000832               0.000358712               0.000359544               0.000000000               0.000000000               0.000000000               0.000000000               0.000000000               0.000000000               0.000000000               0.000000000               0.000000000               0.000000000               0.000000000               0.000000000               0.000000000               0.000000000               0.000000000               0.000000000               0.000000000               0.000000000               0.000000000               0.000000000               0.000000000               0.000000000               0.000000000               0.000000000               0.000000000               0.000000000               0.000000000               0.000000000               0.000000000               0.000000000               0.000000000               0.000000000               0.000000000               0.000000000               0.000000000               0.000000000               0.000000000               0.000000000               0.000000000               0.000000000               0.000000000               0.000000000               0.000000000               0.000000000               0.000000000               0.000000000               0.000000000               0.000000000               0.000000000               0.000000000               0.000000000               0.000000000               0.000000000               0.000000000               0.000000000               0.000000000               0.000000000               0.000000000               0.000000000               0.000000000               0.000000000               0.000000000               0.000000000               0.000000000               0.000000000               0.000000000               0.000000000               0.000000000               0.000000000               0.000000000               0.000000000               0.000000000               0.000000000               0.000000000               0.000000000               0.000000000               0.000000000               0.000000000               0.000000000               0.000000000               0.000000000               0.000000000               0.000000000               0.000000000               0.000000000               0.000000000               0.000000000               0.000000000               0.000000000               0.000000000               0.000000000               0.000000000               0.000000000               0.000000000               0.000000000               0.000000000               0.000000000               0.000000000               0.000000000               0.000000000               0.000000000               0.000000000               0.000000000               0.000000000               0.000000000               0.000000000               0.000000000               0.000000000               0.000000000               0.000000000               0.000000000               0.000000000               0.000000000               0.000000000               0.000000000               0.000000000               0.000000000               0.000000000               0.000000000               0.000000000               0.000000000               0.000000000               0.000000000               0.000000000               0.000000000               0.000000000               0.000000000               0.000000000               0.000000000               0.000000000               0.000000000               0.000000000               0.000000000               0.000000000               0.000000000               0.000000000               0.000000000               0.000000000               0.000000000               0.000000000               0.000000000               0.000000000               0.000000000               0.000000000               0.000000000               0.000000000               0.000000000               0.000000000               0.000000000               0.000000000               0.000000000               0.000000000               0.000000000               0.000000000               0.000000000               0.000000000               0.000000000               0.000000000               0.000000000               0.000000000               0.000000000               0.000000000               0.000000000               0.000000000               0.000000000               0.000000000               0.000000000               0.000000000               0.000000000               0.000000000               0.000000000               0.000000000               0.000000000               0.000000000               0.000000000               0.000000000               0.000000000               0.000000000               0.000000000               0.000000000               0.000000000               0.000000000               0.000000000               0.000000000               0.000000000               0.000000000               0.000000000               0.000000000               0.000000000               0.000000000               0.000000000               0.000000000               0.000000000               0.000000000               0.000000000               0.000000000               0.000000000               0.000000000               0.000000000               0.000000000               0.000000000               0.000000000               0.000000000               0.000000000               0.000000000               0.000000000               0.000000000               0.000000000               0.000000000               0.000000000               0.000000000               0.000000000               0.000000000               0.000000000               0.000000000               0.000000000               0.000000000               0.000000000               0.000000000               0.000000000               0.000000000               0.000000000               0.000000000               0.000000000               0.000000000               0.000000000               0.000000000               0.000000000               0.000000000               0.000000000               0.000000000               0.000000000               0.000000000               0.000000000               0.000000000               0.000000000               0.000000000               0.000000000               0.000000000               0.000000000               0.000000000               0.000000000               0.000000000               0.000000000               0.000000000               0.000000000               0.000000000               0.000000000               0.000000000               0.000000000               0.000000000               0.000000000               0.000000000               0.000000000               0.000000000               0.000000000               0.000000000               0.000000000               0.000000000               0.000000000               0.000000000               0.000000000               0.000000000               0.000000000               0.000000000               0.000000000               0.000000000               0.000000000               0.000000000               0.000000000               0.000000000               0.000000000               0.000000000               0.000000000               0.000000000               0.000000000               0.000000000               0.000000000               0.000000000               0.000000000               0.000000000               0.000000000               0.000000000               0.000000000               0.000000000               0.000000000               0.000000000               0.000000000               0.000000000               0.000000000               0.000000000               0.000000000               0.000000000               0.000000000               0.000000000               0.000000000               0.000000000               0.000000000               0.000000000               0.000000000               0.000000000               0.000000000               0.000000000               0.000000000               0.000000000               0.000000000               0.000000000               0.000000000               0.000000000               0.000000000               0.000000000               0.000000000               0.000000000               0.000000000               0.000000000               0.000000000               0.000000000               0.000000000               0.000000000               0.000000000               0.000000000               0.000000000               0.000000000               0.000000000               0.000000000               0.000000000               0.000000000               0.000000000               0.000000000               0.000000000               0.000000000               0.000000000               0.000000000               0.000000000               0.000000000               0.000000000               0.000000000               0.000000000               0.000000000               0.000000000               0.000000000               0.000000000               0.000000000               0.000000000               0.000003040               0.000002072               0.000000230               0.000000881               0.000000397               0.000001278               0.000000000               0.000000000               0.000000000               0.000000000               0.000003198               0.000002284              -0.000001099               0.000000914               0.000000457               0.000001370               0.000000000               0.000000000               0.000000000               0.000000000               0.000003028               0.000004588              -0.000002653               0.000000562               0.000001342               0.000001904               0.000000000               0.000000000               0.000000000               0.000000000               0.000001706               0.000003800              -0.000003302               0.000000165               0.000001212               0.000001376               0.000000000               0.000000000               0.000000000               0.000000000               0.000000789               0.000001833              -0.000002851               0.000000067               0.000000589               0.000000655               0.000000000               0.000000000               0.000000000               0.000000000              -0.000000661              -0.000001003              -0.000001238              -0.000000123              -0.000000293              -0.000000416               0.000000000               0.000000000               0.000000000               0.000000000              -0.000002393              -0.000004450               0.000000838              -0.000000341              -0.000001370              -0.000001711               0.000000000               0.000000000               0.000000000               0.000000000              -0.000003480              -0.000007861               0.000003344              -0.000000322              -0.000002513              -0.000002835               0.000000000               0.000000000               0.000000000               0.000000000              -0.000004255              -0.000010291               0.000005434              -0.000000309              -0.000003327              -0.000003637               0.000000000               0.000000000               0.000000000               0.000000000              -0.000005166              -0.000011214               0.000006491              -0.000000536              -0.000003559              -0.000004095               0.000000000               0.000000000               0.000000000               0.000000000              -0.000005812              -0.000011142               0.000006514              -0.000000787              -0.000003452              -0.000004238               0.000000000               0.000000000               0.000000000               0.000000000              -0.000005521              -0.000010945               0.000005943              -0.000000702              -0.000003414              -0.000004116               0.000000000               0.000000000               0.000000000               0.000000000              -0.000003995              -0.000011358               0.000005188              -0.000000079              -0.000003760              -0.000003838               0.000000000               0.000000000               0.000000000               0.000000000              -0.000001629              -0.000012580               0.000004486               0.000000962              -0.000004514              -0.000003552               0.000000000               0.000000000               0.000000000               0.000000000               0.000000519              -0.000014029               0.000003697               0.000001948              -0.000005326              -0.000003377               0.000000000               0.000000000               0.000000000               0.000000000               0.000001102              -0.000014706               0.000002211               0.000002251              -0.000005652              -0.000003401               0.000000000               0.000000000               0.000000000               0.000000000               0.000001203              -0.000014125               0.000001575               0.000002217              -0.000005447              -0.000003231               0.000000000               0.000000000               0.000000000               0.000000000               0.000003228               0.000011927              -0.000000443              -0.000000280               0.000004069               0.000003789               0.000000000               0.000000000               0.000000000               0.000000000               0.000002838               0.000005489              -0.000000459               0.000000378               0.000001704               0.000002082               0.000000000               0.000000000               0.000000000               0.000000000               0.000002161               0.000002091               0.000001220               0.000000549               0.000000514               0.000001063               0.000000000               0.000000000               0.000000000               0.000000000              -0.000000933              -0.000005353               0.000001982               0.000000319              -0.000001891              -0.000001571               0.000000000               0.000000000               0.000000000               0.000000000              -0.000003480              -0.000013171               0.000001923               0.000000342              -0.000004504              -0.000004163               0.000000000               0.000000000               0.000000000               0.000000000              -0.000006149              -0.000018103               0.000002425              -0.000000043              -0.000006020              -0.000006063               0.000000000               0.000000000               0.000000000               0.000000000              -0.000008400              -0.000020098               0.000002550              -0.000000638              -0.000006487              -0.000007124               0.000000000               0.000000000               0.000000000               0.000000000              -0.000009360              -0.000017772               0.000002220              -0.000001289              -0.000005494              -0.000006783               0.000000000               0.000000000               0.000000000               0.000000000              -0.000008831              -0.000011320               0.000001150              -0.000001897              -0.000003141              -0.000005038               0.000000000               0.000000000               0.000000000               0.000000000              -0.000006438              -0.000002807              -0.000000283              -0.000002063              -0.000000248              -0.000002311               0.000000000               0.000000000               0.000000000               0.000000000              -0.000001826               0.000005112              -0.000001500              -0.000001324               0.000002145               0.000000821               0.000000000               0.000000000               0.000000000               0.000000000               0.000004856               0.000011329              -0.000002182               0.000000405               0.000003641               0.000004046               0.000000000               0.000000000               0.000000000               0.000000000               0.000011991               0.000016475              -0.000002177               0.000002437               0.000004679               0.000007116               0.000000000               0.000000000               0.000000000               0.000000000               0.000016908               0.000022717              -0.000001755               0.000003501               0.000006405               0.000009906               0.000000000               0.000000000               0.000000000               0.000000000               0.000016939               0.000032488              -0.000001405               0.000002291               0.000010066               0.000012357               0.000000000               0.000000000               0.000000000               0.000000000               0.000010538               0.000047360              -0.000001246              -0.000001968               0.000016443               0.000014474               0.000000000               0.000000000               0.000000000               0.000000000               0.000008655               0.000061746               0.000000631              -0.000004473               0.000022073               0.000017600               0.000000000               0.000000000               0.000000000               0.000000000              -0.000001671               0.000004727               0.000004242              -0.000001218               0.000001981               0.000000764               0.000000000               0.000000000               0.000000000               0.000000000              -0.000003125              -0.000001382               0.000001360              -0.000000999              -0.000000128              -0.000001127               0.000000000               0.000000000               0.000000000               0.000000000              -0.000003566              -0.000009260              -0.000000064              -0.000000180              -0.000003027              -0.000003207               0.000000000               0.000000000               0.000000000               0.000000000              -0.000004896              -0.000014387               0.000001000              -0.000000038              -0.000004783              -0.000004821               0.000000000               0.000000000               0.000000000               0.000000000              -0.000006319              -0.000015054               0.000001300              -0.000000488              -0.000004855              -0.000005343               0.000000000               0.000000000               0.000000000               0.000000000              -0.000004294              -0.000009748               0.000001413              -0.000000392              -0.000003119              -0.000003511               0.000000000               0.000000000               0.000000000               0.000000000              -0.000000275               0.000001494               0.000000645              -0.000000290               0.000000594               0.000000305               0.000000000               0.000000000               0.000000000               0.000000000               0.000004651               0.000017468              -0.000001166              -0.000000439               0.000005969               0.000005530               0.000000000               0.000000000               0.000000000               0.000000000               0.000010726               0.000035594              -0.000003056              -0.000000427               0.000012007               0.000011580               0.000000000               0.000000000               0.000000000               0.000000000               0.000018087               0.000052608              -0.000004122               0.000000207               0.000017467               0.000017674               0.000000000               0.000000000               0.000000000               0.000000000               0.000026771               0.000067630              -0.000003752               0.000001586               0.000022015               0.000023600               0.000000000               0.000000000               0.000000000               0.000000000               0.000035103               0.000081745              -0.000001893               0.000002945               0.000026266               0.000029212               0.000000000               0.000000000               0.000000000               0.000000000               0.000040257               0.000097561               0.000000707               0.000002901               0.000031553               0.000034454               0.000000000               0.000000000               0.000000000               0.000000000               0.000039777               0.000118061               0.000002883               0.000000159               0.000039300               0.000039459               0.000000000               0.000000000               0.000000000               0.000000000               0.000032392               0.000145124               0.000003665              -0.000005993               0.000050372               0.000044379               0.000000000               0.000000000               0.000000000               0.000000000               0.000018041               0.000179590               0.000002443              -0.000015683               0.000065090               0.000049407               0.000000000               0.000000000               0.000000000               0.000000000               0.000015333               0.000209578               0.000004810              -0.000020447               0.000076674               0.000056227               0.000000000               0.000000000               0.000000000               0.000000000              -0.000000653              -0.000011243               0.000004593               0.000001160              -0.000004135              -0.000002974               0.000000000               0.000000000               0.000000000               0.000000000              -0.000004849              -0.000014321               0.000001040              -0.000000028              -0.000004764              -0.000004792               0.000000000               0.000000000               0.000000000               0.000000000              -0.000006787              -0.000018300              -0.000000712              -0.000000258              -0.000006014              -0.000006272               0.000000000               0.000000000               0.000000000               0.000000000              -0.000004154              -0.000011061               0.000000546              -0.000000175              -0.000003629              -0.000003804               0.000000000               0.000000000               0.000000000               0.000000000              -0.000000395               0.000003936               0.000000134              -0.000000640               0.000001525               0.000000885               0.000000000               0.000000000               0.000000000               0.000000000               0.000007411               0.000027199              -0.000000723              -0.000000621               0.000009273               0.000008652               0.000000000               0.000000000               0.000000000               0.000000000               0.000017839               0.000055686              -0.000001888              -0.000000271               0.000018652               0.000018381               0.000000000               0.000000000               0.000000000               0.000000000               0.000028622               0.000085558              -0.000002947               0.000000038               0.000028506               0.000028545               0.000000000               0.000000000               0.000000000               0.000000000               0.000039943               0.000113689              -0.000002663               0.000000767               0.000037640               0.000038408               0.000000000               0.000000000               0.000000000               0.000000000               0.000051910               0.000138885              -0.000000235               0.000002105               0.000045593               0.000047698               0.000000000               0.000000000               0.000000000               0.000000000               0.000062219               0.000162670               0.000004245               0.000002998               0.000053223               0.000056222               0.000000000               0.000000000               0.000000000               0.000000000               0.000067904               0.000188064               0.000009653               0.000001956               0.000062035               0.000063991               0.000000000               0.000000000               0.000000000               0.000000000               0.000066870               0.000218468               0.000014238              -0.000002232               0.000073566               0.000071334               0.000000000               0.000000000               0.000000000               0.000000000               0.000058305               0.000254911               0.000016443              -0.000010000               0.000088303               0.000078303               0.000000000               0.000000000               0.000000000               0.000000000               0.000043049               0.000296760               0.000015219              -0.000020951               0.000105903               0.000084951               0.000000000               0.000000000               0.000000000               0.000000000               0.000022686               0.000342305               0.000009594              -0.000034281               0.000125527               0.000091247               0.000000000               0.000000000               0.000000000               0.000000000               0.000018453               0.000377106               0.000009570              -0.000040218               0.000139107               0.000098889               0.000000000               0.000000000               0.000000000               0.000000000              -0.000002727              -0.000021529              -0.000001042               0.000001669              -0.000007732              -0.000006064               0.000000000               0.000000000               0.000000000               0.000000000              -0.000005823              -0.000017264               0.000000234              -0.000000026              -0.000005746              -0.000005772               0.000000000               0.000000000               0.000000000               0.000000000              -0.000004666              -0.000008887              -0.000000002              -0.000000639              -0.000002750              -0.000003388               0.000000000               0.000000000               0.000000000               0.000000000               0.000005710               0.000015101              -0.000000304               0.000000254               0.000004949               0.000005203               0.000000000               0.000000000               0.000000000               0.000000000               0.000016993               0.000047588              -0.000000813               0.000000424               0.000015721               0.000016145               0.000000000               0.000000000               0.000000000               0.000000000               0.000029694               0.000086482              -0.000002131               0.000000325               0.000028719               0.000029044               0.000000000               0.000000000               0.000000000               0.000000000               0.000043765               0.000127475              -0.000002804               0.000000478               0.000042332               0.000042810               0.000000000               0.000000000               0.000000000               0.000000000               0.000057410               0.000167538              -0.000002081               0.000000586               0.000055650               0.000056236               0.000000000               0.000000000               0.000000000               0.000000000               0.000070932               0.000203804               0.000001257               0.000001124               0.000067559               0.000068683               0.000000000               0.000000000               0.000000000               0.000000000               0.000082627               0.000237834               0.000007300               0.000001256               0.000078859               0.000080114               0.000000000               0.000000000               0.000000000               0.000000000               0.000089587               0.000272796               0.000014789              -0.000000504               0.000091099               0.000090595               0.000000000               0.000000000               0.000000000               0.000000000               0.000089348               0.000312231               0.000021517              -0.000005523               0.000105917               0.000100394               0.000000000               0.000000000               0.000000000               0.000000000               0.000081083               0.000356977               0.000025515              -0.000014216               0.000123730               0.000109514               0.000000000               0.000000000               0.000000000               0.000000000               0.000065798               0.000405529               0.000025700              -0.000026017               0.000143847               0.000117830               0.000000000               0.000000000               0.000000000               0.000000000               0.000045668               0.000455464               0.000021430              -0.000039807               0.000165089               0.000125282               0.000000000               0.000000000               0.000000000               0.000000000               0.000023096               0.000503732               0.000012526              -0.000054305               0.000186011               0.000131705               0.000000000               0.000000000               0.000000000               0.000000000               0.000017961               0.000537075               0.000010683              -0.000060399               0.000199156               0.000138757               0.000000000               0.000000000               0.000000000               0.000000000              -0.000002671              -0.000020313              -0.000005417               0.000001538              -0.000007284              -0.000005746               0.000000000               0.000000000               0.000000000               0.000000000              -0.000000918              -0.000006644               0.000000130               0.000000486              -0.000002377              -0.000001891               0.000000000               0.000000000               0.000000000               0.000000000               0.000003121               0.000015784               0.000000196              -0.000000803               0.000005529               0.000004726               0.000000000               0.000000000               0.000000000               0.000000000               0.000019166               0.000057745              -0.000000769              -0.000000031               0.000019258               0.000019228               0.000000000               0.000000000               0.000000000               0.000000000               0.000037499               0.000107457              -0.000000903               0.000000630               0.000035608               0.000036239               0.000000000               0.000000000               0.000000000               0.000000000               0.000054851               0.000158677              -0.000001835               0.000000735               0.000052647               0.000053382               0.000000000               0.000000000               0.000000000               0.000000000               0.000072301               0.000209879              -0.000001118               0.000000878               0.000069666               0.000070544               0.000000000               0.000000000               0.000000000               0.000000000               0.000087970               0.000257102               0.000001659               0.000000851               0.000085416               0.000086267               0.000000000               0.000000000               0.000000000               0.000000000               0.000101321               0.000301313               0.000007900               0.000000331               0.000100326               0.000100658               0.000000000               0.000000000               0.000000000               0.000000000               0.000110053               0.000345776               0.000016221              -0.000001952               0.000115908               0.000113956               0.000000000               0.000000000               0.000000000               0.000000000               0.000111139               0.000394052               0.000024448              -0.000007579               0.000133876               0.000126297               0.000000000               0.000000000               0.000000000               0.000000000               0.000103554               0.000447464               0.000030068              -0.000017100               0.000154853               0.000137753               0.000000000               0.000000000               0.000000000               0.000000000               0.000088484               0.000504349               0.000031906              -0.000029862               0.000178069               0.000148207               0.000000000               0.000000000               0.000000000               0.000000000               0.000068269               0.000561951               0.000029373              -0.000044643               0.000202196               0.000157553               0.000000000               0.000000000               0.000000000               0.000000000               0.000045703               0.000616955               0.000022813              -0.000059980               0.000225643               0.000165663               0.000000000               0.000000000               0.000000000               0.000000000               0.000022768               0.000666195               0.000012857              -0.000074736               0.000246975               0.000172239               0.000000000               0.000000000               0.000000000               0.000000000               0.000016872               0.000697971               0.000010474              -0.000080919               0.000259628               0.000178708               0.000000000               0.000000000               0.000000000               0.000000000               0.000001805              -0.000006873              -0.000007968               0.000001536              -0.000002803              -0.000001267               0.000000000               0.000000000               0.000000000               0.000000000               0.000007584               0.000011162              -0.000000817               0.000001449               0.000003238               0.000004687               0.000000000               0.000000000               0.000000000               0.000000000               0.000015453               0.000049997               0.000000658              -0.000000455               0.000016817               0.000016362               0.000000000               0.000000000               0.000000000               0.000000000               0.000037239               0.000109059              -0.000001318               0.000000332               0.000036242               0.000036574               0.000000000               0.000000000               0.000000000               0.000000000               0.000059856               0.000170967              -0.000001837               0.000001075               0.000056630               0.000057705               0.000000000               0.000000000               0.000000000               0.000000000               0.000079155               0.000232463              -0.000001568               0.000000625               0.000077279               0.000077904               0.000000000               0.000000000               0.000000000               0.000000000               0.000097890               0.000291845               0.000000598               0.000000228               0.000097205               0.000097433               0.000000000               0.000000000               0.000000000               0.000000000               0.000114599               0.000347569               0.000005819              -0.000000471               0.000116012               0.000115541               0.000000000               0.000000000               0.000000000               0.000000000               0.000126557               0.000402024               0.000013652              -0.000002794               0.000134938               0.000132144               0.000000000               0.000000000               0.000000000               0.000000000               0.000131201               0.000459505               0.000022431              -0.000008238               0.000155913               0.000147675               0.000000000               0.000000000               0.000000000               0.000000000               0.000126431               0.000521920               0.000029354              -0.000017828               0.000179914               0.000162086               0.000000000               0.000000000               0.000000000               0.000000000               0.000113147               0.000588322               0.000032598              -0.000031110               0.000206476               0.000175365               0.000000000               0.000000000               0.000000000               0.000000000               0.000093607               0.000655705               0.000031390              -0.000046860               0.000234186               0.000187326               0.000000000               0.000000000               0.000000000               0.000000000               0.000071068               0.000721134               0.000026298              -0.000063491               0.000261539               0.000198048               0.000000000               0.000000000               0.000000000               0.000000000               0.000047163               0.000781433               0.000018681              -0.000079993               0.000287139               0.000207146               0.000000000               0.000000000               0.000000000               0.000000000               0.000023566               0.000834308               0.000009861              -0.000095451               0.000309917               0.000214466               0.000000000               0.000000000               0.000000000               0.000000000               0.000015424               0.000866900               0.000008063              -0.000102578               0.000323156               0.000220578               0.000000000               0.000000000               0.000000000               0.000000000               0.000002931               0.000010587              -0.000008006              -0.000000224               0.000003604               0.000003379               0.000000000               0.000000000               0.000000000               0.000000000               0.000014983               0.000031994              -0.000002829               0.000001619               0.000010125               0.000011744               0.000000000               0.000000000               0.000000000               0.000000000               0.000028222               0.000086082               0.000000206              -0.000000177               0.000028753               0.000028576               0.000000000               0.000000000               0.000000000               0.000000000               0.000051001               0.000152882              -0.000001990               0.000000015               0.000050955               0.000050970               0.000000000               0.000000000               0.000000000               0.000000000               0.000077368               0.000223348              -0.000003082               0.000001095               0.000074084               0.000075178               0.000000000               0.000000000               0.000000000               0.000000000               0.000098237               0.000291615              -0.000002234               0.000000387               0.000097075               0.000097462               0.000000000               0.000000000               0.000000000               0.000000000               0.000117663               0.000356386               0.000000213              -0.000000425               0.000118936               0.000118511               0.000000000               0.000000000               0.000000000               0.000000000               0.000134400               0.000418730               0.000005775              -0.000001941               0.000140222               0.000138281               0.000000000               0.000000000               0.000000000               0.000000000               0.000145127               0.000480715               0.000013014              -0.000005667               0.000162126               0.000156459               0.000000000               0.000000000               0.000000000               0.000000000               0.000147933               0.000547985               0.000020555              -0.000013023               0.000187001               0.000173978               0.000000000               0.000000000               0.000000000               0.000000000               0.000141476               0.000620354               0.000026015              -0.000024491               0.000214946               0.000190456               0.000000000               0.000000000               0.000000000               0.000000000               0.000128378               0.000696670               0.000027840              -0.000038942               0.000245202               0.000206260               0.000000000               0.000000000               0.000000000               0.000000000               0.000110595               0.000772900               0.000025504              -0.000055139               0.000276011               0.000220871               0.000000000               0.000000000               0.000000000               0.000000000               0.000090700               0.000846401               0.000019803              -0.000071788               0.000306060               0.000234272               0.000000000               0.000000000               0.000000000               0.000000000               0.000069753               0.000914867               0.000012275              -0.000088201               0.000334353               0.000246152               0.000000000               0.000000000               0.000000000               0.000000000               0.000049785               0.000977096               0.000004985              -0.000103467               0.000360184               0.000256717               0.000000000               0.000000000               0.000000000               0.000000000               0.000038258               0.001009175               0.000001906              -0.000111800               0.000373655               0.000261855               0.000000000               0.000000000               0.000000000               0.000000000               0.000003356               0.000025960              -0.000004960              -0.000001987               0.000009316               0.000007329               0.000000000               0.000000000               0.000000000               0.000000000               0.000020760               0.000053470              -0.000003763               0.000001101               0.000017456               0.000018557               0.000000000               0.000000000               0.000000000               0.000000000               0.000039210               0.000112541               0.000000307               0.000000636               0.000037301               0.000037937               0.000000000               0.000000000               0.000000000               0.000000000               0.000058537               0.000179464               0.000000035              -0.000000482               0.000059981               0.000059500               0.000000000               0.000000000               0.000000000               0.000000000               0.000087687               0.000254510              -0.000001703               0.000001069               0.000084480               0.000085549               0.000000000               0.000000000               0.000000000               0.000000000               0.000109540               0.000323928              -0.000000747               0.000000586               0.000107779               0.000108366               0.000000000               0.000000000               0.000000000               0.000000000               0.000129799               0.000392189               0.000001841              -0.000000349               0.000130845               0.000130496               0.000000000               0.000000000               0.000000000               0.000000000               0.000148087               0.000457896               0.000005767              -0.000001704               0.000153199               0.000151494               0.000000000               0.000000000               0.000000000               0.000000000               0.000162144               0.000522493               0.000011362              -0.000004508               0.000175665               0.000171158               0.000000000               0.000000000               0.000000000               0.000000000               0.000169942               0.000589405               0.000017200              -0.000009947               0.000199782               0.000189835               0.000000000               0.000000000               0.000000000               0.000000000               0.000169735               0.000659739               0.000022273              -0.000018817               0.000226183               0.000207366               0.000000000               0.000000000               0.000000000               0.000000000               0.000162843               0.000733853               0.000024886              -0.000030665               0.000254837               0.000224172               0.000000000               0.000000000               0.000000000               0.000000000               0.000151154               0.000809945               0.000024173              -0.000044560               0.000284832               0.000240272               0.000000000               0.000000000               0.000000000               0.000000000               0.000136529               0.000886049               0.000020027              -0.000059558               0.000315199               0.000255642               0.000000000               0.000000000               0.000000000               0.000000000               0.000120942               0.000961649               0.000013321              -0.000074853               0.000345498               0.000270645               0.000000000               0.000000000               0.000000000               0.000000000               0.000105686               0.001035931               0.000005836              -0.000089859               0.000375260               0.000285401               0.000000000               0.000000000               0.000000000               0.000000000               0.000091298               0.001068030              -0.000000290              -0.000099267               0.000389095               0.000289828               0.000000000               0.000000000               0.000000000               0.000000000               0.000008866               0.000041178              -0.000001646              -0.000001823               0.000014333               0.000012511               0.000000000               0.000000000               0.000000000               0.000000000               0.000025205               0.000073573              -0.000003772               0.000000255               0.000024439               0.000024694               0.000000000               0.000000000               0.000000000               0.000000000               0.000048606               0.000133119              -0.000001489               0.000001587               0.000043843               0.000045431               0.000000000               0.000000000               0.000000000               0.000000000               0.000063530               0.000196539               0.000001246              -0.000000744               0.000065760               0.000065017               0.000000000               0.000000000               0.000000000               0.000000000               0.000091151               0.000269492              -0.000000846               0.000000495               0.000089665               0.000090160               0.000000000               0.000000000               0.000000000               0.000000000               0.000115745               0.000340049              -0.000001742               0.000000898               0.000113049               0.000113947               0.000000000               0.000000000               0.000000000               0.000000000               0.000135791               0.000408263               0.000000110              -0.000000111               0.000136123               0.000136012               0.000000000               0.000000000               0.000000000               0.000000000               0.000155614               0.000475893               0.000002139              -0.000001131               0.000159007               0.000157875               0.000000000               0.000000000               0.000000000               0.000000000               0.000173119               0.000541711               0.000005744              -0.000002794               0.000181500               0.000178706               0.000000000               0.000000000               0.000000000               0.000000000               0.000187031               0.000606877               0.000009765              -0.000005723               0.000204198               0.000198475               0.000000000               0.000000000               0.000000000               0.000000000               0.000195730               0.000674339               0.000014119              -0.000010894               0.000228409               0.000217515               0.000000000               0.000000000               0.000000000               0.000000000               0.000198414               0.000744387               0.000017591              -0.000018643               0.000254341               0.000235698               0.000000000               0.000000000               0.000000000               0.000000000               0.000196277               0.000816779               0.000019105              -0.000028493               0.000281755               0.000253261               0.000000000               0.000000000               0.000000000               0.000000000               0.000190654               0.000890715               0.000017783              -0.000039844               0.000310183               0.000270339               0.000000000               0.000000000               0.000000000               0.000000000               0.000182745               0.000964619               0.000013639              -0.000052048               0.000338886               0.000286838               0.000000000               0.000000000               0.000000000               0.000000000               0.000173592               0.001038340               0.000007118              -0.000064695               0.000367675               0.000302980               0.000000000               0.000000000               0.000000000               0.000000000               0.000161405               0.001070335               0.000000499              -0.000073265               0.000381196               0.000307932               0.000000000               0.000000000               0.000000000               0.000000000               0.000015538               0.000056717               0.000000265              -0.000001263               0.000019326               0.000018063               0.000000000               0.000000000               0.000000000               0.000000000               0.000028245               0.000090353              -0.000002615              -0.000000702               0.000030351               0.000029649               0.000000000               0.000000000               0.000000000               0.000000000               0.000055023               0.000152790              -0.000003258               0.000001535               0.000050418               0.000051953               0.000000000               0.000000000               0.000000000               0.000000000               0.000070462               0.000213474               0.000000807              -0.000000261               0.000071244               0.000070983               0.000000000               0.000000000               0.000000000               0.000000000               0.000092856               0.000281654               0.000000730              -0.000000386               0.000094012               0.000093627               0.000000000               0.000000000               0.000000000               0.000000000               0.000120321               0.000354215              -0.000001753               0.000000844               0.000117789               0.000118633               0.000000000               0.000000000               0.000000000               0.000000000               0.000141618               0.000421814              -0.000000655               0.000000380               0.000140476               0.000140856               0.000000000               0.000000000               0.000000000               0.000000000               0.000162245               0.000489591               0.000000329              -0.000000357               0.000163314               0.000162957               0.000000000               0.000000000               0.000000000               0.000000000               0.000182120               0.000556768               0.000001743              -0.000001301               0.000186021               0.000184720               0.000000000               0.000000000               0.000000000               0.000000000               0.000199994               0.000622199               0.000004059              -0.000002777               0.000208323               0.000205546               0.000000000               0.000000000               0.000000000               0.000000000               0.000215459               0.000688220               0.000006634              -0.000005231               0.000231148               0.000225917               0.000000000               0.000000000               0.000000000               0.000000000               0.000226895               0.000755828               0.000009300              -0.000009393               0.000255071               0.000245678               0.000000000               0.000000000               0.000000000               0.000000000               0.000234142               0.000825082               0.000011468              -0.000015332               0.000280135               0.000264803               0.000000000               0.000000000               0.000000000               0.000000000               0.000238230               0.000896331               0.000012127              -0.000022705               0.000306342               0.000283637               0.000000000               0.000000000               0.000000000               0.000000000               0.000239661               0.000968163               0.000010749              -0.000031147               0.000333100               0.000301953               0.000000000               0.000000000               0.000000000               0.000000000               0.000239273               0.001040524               0.000006826              -0.000040338               0.000360284               0.000319946               0.000000000               0.000000000               0.000000000               0.000000000               0.000233220               0.001073944               0.000001972              -0.000046785               0.000373573               0.000326788               0.000000000               0.000000000               0.000000000               0.000000000               0.000019551               0.000065787               0.000001098              -0.000000892               0.000022226               0.000021334               0.000000000               0.000000000               0.000000000               0.000000000               0.000031356               0.000101426              -0.000001881              -0.000000920               0.000034115               0.000033195               0.000000000               0.000000000               0.000000000               0.000000000               0.000058876               0.000169339              -0.000004186               0.000000911               0.000056142               0.000057053               0.000000000               0.000000000               0.000000000               0.000000000               0.000077428               0.000229157              -0.000000713               0.000000391               0.000076255               0.000076646               0.000000000               0.000000000               0.000000000               0.000000000               0.000095641               0.000291586               0.000002194              -0.000000583               0.000097389               0.000096806               0.000000000               0.000000000               0.000000000               0.000000000               0.000122856               0.000364249              -0.000000308               0.000000540               0.000121235               0.000121775               0.000000000               0.000000000               0.000000000               0.000000000               0.000146579               0.000433435              -0.000000908               0.000000788               0.000144214               0.000145002               0.000000000               0.000000000               0.000000000               0.000000000               0.000167132               0.000499746              -0.000000034               0.000000206               0.000166512               0.000166718               0.000000000               0.000000000               0.000000000               0.000000000               0.000188445               0.000567971              -0.000000098              -0.000000329               0.000189431               0.000189102               0.000000000               0.000000000               0.000000000               0.000000000               0.000208850               0.000634910               0.000000685              -0.000001045               0.000211983               0.000210938               0.000000000               0.000000000               0.000000000               0.000000000               0.000228031               0.000699894               0.000001723              -0.000001975               0.000233954               0.000231979               0.000000000               0.000000000               0.000000000               0.000000000               0.000245991               0.000766308               0.000002905              -0.000003542               0.000256614               0.000253072               0.000000000               0.000000000               0.000000000               0.000000000               0.000261188               0.000833207               0.000004119              -0.000006205               0.000279801               0.000273596               0.000000000               0.000000000               0.000000000               0.000000000               0.000273920               0.000901831               0.000005051              -0.000010009               0.000303944               0.000293935               0.000000000               0.000000000               0.000000000               0.000000000               0.000284697               0.000971358               0.000004963              -0.000014658               0.000328669               0.000314010               0.000000000               0.000000000               0.000000000               0.000000000               0.000294345               0.001041790               0.000003474              -0.000019844               0.000353875               0.000334030               0.000000000               0.000000000               0.000000000               0.000000000               0.000296322               0.001075821               0.000001222              -0.000023357               0.000366389               0.000343032               0.000000000               0.000000000               0.000000000               0.000000000               0.000020344               0.000066061               0.000002716              -0.000000628               0.000022230               0.000021601               0.000000000               0.000000000               0.000000000               0.000000000               0.000033843               0.000108405              -0.000000891              -0.000000860               0.000036421               0.000035562               0.000000000               0.000000000               0.000000000               0.000000000               0.000061581               0.000183484              -0.000004192               0.000000157               0.000061108               0.000061266               0.000000000               0.000000000               0.000000000               0.000000000               0.000083014               0.000243917              -0.000002179               0.000000641               0.000081091               0.000081732               0.000000000               0.000000000               0.000000000               0.000000000               0.000098907               0.000301269               0.000001547              -0.000000569               0.000100611               0.000100043               0.000000000               0.000000000               0.000000000               0.000000000               0.000122121               0.000369594               0.000000526              -0.000000404               0.000123331               0.000122928               0.000000000               0.000000000               0.000000000               0.000000000               0.000147900               0.000441514              -0.000000989               0.000000273               0.000147079               0.000147352               0.000000000               0.000000000               0.000000000               0.000000000               0.000169762               0.000506963              -0.000000180               0.000000290               0.000168889               0.000169180               0.000000000               0.000000000               0.000000000               0.000000000               0.000191623               0.000573542              -0.000000266               0.000000166               0.000191124               0.000191289               0.000000000               0.000000000               0.000000000               0.000000000               0.000214154               0.000642441              -0.000000504               0.000000003               0.000214144               0.000214147               0.000000000               0.000000000               0.000000000               0.000000000               0.000235408               0.000708124              -0.000000360              -0.000000237               0.000236118               0.000235881               0.000000000               0.000000000               0.000000000               0.000000000               0.000256575               0.000774089              -0.000000146              -0.000000546               0.000258209               0.000257663               0.000000000               0.000000000               0.000000000               0.000000000               0.000277007               0.000840167               0.000000025              -0.000001143               0.000280434               0.000279291               0.000000000               0.000000000               0.000000000               0.000000000               0.000296154               0.000906916               0.000000420              -0.000002307               0.000303071               0.000300765               0.000000000               0.000000000               0.000000000               0.000000000               0.000313990               0.000974404               0.000000615              -0.000004054               0.000326150               0.000322095               0.000000000               0.000000000               0.000000000               0.000000000               0.000331127               0.001042932               0.000000576              -0.000006194               0.000349705               0.000343511               0.000000000               0.000000000               0.000000000               0.000000000               0.000338234               0.001076227              -0.000000020              -0.000007691               0.000361302               0.000353612               0.000000000               0.000000000               0.000000000               0.000000000               0.000018628               0.000062390               0.000004174              -0.000000813               0.000021068               0.000020254               0.000000000               0.000000000               0.000000000               0.000000000               0.000034525               0.000112771               0.000001221              -0.000001150               0.000037973               0.000036823               0.000000000               0.000000000               0.000000000               0.000000000               0.000062821               0.000193947              -0.000002343              -0.000000685               0.000064877               0.000064191               0.000000000               0.000000000               0.000000000               0.000000000               0.000086617               0.000254393              -0.000002157               0.000000682               0.000084569               0.000085252               0.000000000               0.000000000               0.000000000               0.000000000               0.000103468               0.000309320               0.000000577               0.000000135               0.000103060               0.000103196               0.000000000               0.000000000               0.000000000               0.000000000               0.000124015               0.000373956               0.000000830              -0.000000239               0.000124730               0.000124492               0.000000000               0.000000000               0.000000000               0.000000000               0.000149523               0.000447293              -0.000000527               0.000000159               0.000149043               0.000149203               0.000000000               0.000000000               0.000000000               0.000000000               0.000172258               0.000512952              -0.000000280               0.000000478               0.000170823               0.000171301               0.000000000               0.000000000               0.000000000               0.000000000               0.000193510               0.000576789               0.000000027               0.000000468               0.000192105               0.000192573               0.000000000               0.000000000               0.000000000               0.000000000               0.000216278               0.000645864              -0.000000337               0.000000371               0.000215162               0.000215533               0.000000000               0.000000000               0.000000000               0.000000000               0.000238499               0.000713063              -0.000000493               0.000000304               0.000237584               0.000237888               0.000000000               0.000000000               0.000000000               0.000000000               0.000260739               0.000779134              -0.000000487               0.000000385               0.000259580               0.000259966               0.000000000               0.000000000               0.000000000               0.000000000               0.000283332               0.000845256              -0.000000595               0.000000592               0.000281552               0.000282144               0.000000000               0.000000000               0.000000000               0.000000000               0.000305702               0.000911098              -0.000000575               0.000000751               0.000303446               0.000304197               0.000000000               0.000000000               0.000000000               0.000000000               0.000327405               0.000977104              -0.000000497               0.000000639               0.000325485               0.000326124               0.000000000               0.000000000               0.000000000               0.000000000               0.000348482               0.001044101              -0.000000245               0.000000168               0.000347974               0.000348142               0.000000000               0.000000000               0.000000000               0.000000000               0.000357971               0.001076464              -0.000000281              -0.000000319               0.000358924               0.000358605               0.000000000               0.000000000               0.000000000               0.000000000               0.000019376               0.000059497               0.000001465              -0.000000171               0.000019889               0.000019718               0.000000000               0.000000000               0.000000000               0.000000000               0.000036266               0.000114028               0.000000150              -0.000000654               0.000038227               0.000037573               0.000000000               0.000000000               0.000000000               0.000000000               0.000063673               0.000198658              -0.000001516              -0.000000955               0.000066537               0.000065582               0.000000000               0.000000000               0.000000000               0.000000000               0.000087209               0.000260919              -0.000001470               0.000000089               0.000086943               0.000087031               0.000000000               0.000000000               0.000000000               0.000000000               0.000106285               0.000315676               0.000000353               0.000000397               0.000105092               0.000105489               0.000000000               0.000000000               0.000000000               0.000000000               0.000125490               0.000376109               0.000000918               0.000000045               0.000125353               0.000125398               0.000000000               0.000000000               0.000000000               0.000000000               0.000149618               0.000449374               0.000000006              -0.000000065               0.000149811               0.000149746               0.000000000               0.000000000               0.000000000               0.000000000               0.000172493               0.000517195              -0.000000086               0.000000035               0.000172385               0.000172420               0.000000000               0.000000000               0.000000000               0.000000000               0.000193314               0.000579454               0.000000233               0.000000061               0.000193129               0.000193190               0.000000000               0.000000000               0.000000000               0.000000000               0.000215844               0.000647045               0.000000141               0.000000061               0.000215659               0.000215720               0.000000000               0.000000000               0.000000000               0.000000000               0.000238419               0.000714618               0.000000039               0.000000080               0.000238177               0.000238257               0.000000000               0.000000000               0.000000000               0.000000000               0.000260469               0.000780387              -0.000000041               0.000000127               0.000260084               0.000260211               0.000000000               0.000000000               0.000000000               0.000000000               0.000282905               0.000846818              -0.000000238               0.000000237               0.000282191               0.000282428               0.000000000               0.000000000               0.000000000               0.000000000               0.000305504               0.000913101              -0.000000348               0.000000426               0.000304222               0.000304648               0.000000000               0.000000000               0.000000000               0.000000000               0.000328058               0.000978968              -0.000000352               0.000000651               0.000326102               0.000326753               0.000000000               0.000000000               0.000000000               0.000000000               0.000350540               0.001045187              -0.000000200               0.000000804               0.000348124               0.000348928               0.000000000               0.000000000               0.000000000               0.000000000               0.000361211               0.001076978              -0.000000104               0.000000832               0.000358712               0.000359544               0.000000000               0.000000000               0.000000000               0.000000000               0.000000000               0.000000000               0.000000000               0.000000000               0.000000000               0.000000000               0.000000000               0.000000000               0.000000000               0.000000000               0.000000000               0.000000000               0.000000000               0.000000000               0.000000000               0.000000000               0.000000000               0.000000000               0.000000000               0.000000000               0.000000000               0.000000000               0.000000000               0.000000000               0.000000000               0.000000000               0.000000000               0.000000000               0.000000000               0.000000000               0.000000000               0.000000000               0.000000000               0.000000000               0.000000000               0.000000000               0.000000000               0.000000000               0.000000000               0.000000000               0.000000000               0.000000000               0.000000000               0.000000000               0.000000000               0.000000000               0.000000000               0.000000000               0.000000000               0.000000000               0.000000000               0.000000000               0.000000000               0.000000000               0.000000000               0.000000000               0.000000000               0.000000000               0.000000000               0.000000000               0.000000000               0.000000000               0.000000000               0.000000000               0.000000000               0.000000000               0.000000000               0.000000000               0.000000000               0.000000000               0.000000000               0.000000000               0.000000000               0.000000000               0.000000000               0.000000000               0.000000000               0.000000000               0.000000000               0.000000000               0.000000000               0.000000000               0.000000000               0.000000000               0.000000000               0.000000000               0.000000000               0.000000000               0.000000000               0.000000000               0.000000000               0.000000000               0.000000000               0.000000000               0.000000000               0.000000000               0.000000000               0.000000000               0.000000000               0.000000000               0.000000000               0.000000000               0.000000000               0.000000000               0.000000000               0.000000000               0.000000000               0.000000000               0.000000000               0.000000000               0.000000000               0.000000000               0.000000000               0.000000000               0.000000000               0.000000000               0.000000000               0.000000000               0.000000000               0.000000000               0.000000000               0.000000000               0.000000000               0.000000000               0.000000000               0.000000000               0.000000000               0.000000000               0.000000000               0.000000000               0.000000000               0.000000000               0.000000000               0.000000000               0.000000000               0.000000000               0.000000000               0.000000000               0.000000000               0.000000000               0.000000000               0.000000000               0.000000000               0.000000000               0.000000000               0.000000000               0.000000000               0.000000000               0.000000000               0.000000000               0.000000000               0.000000000               0.000000000               0.000000000               0.000000000               0.000000000               0.000000000               0.000000000               0.000000000               0.000000000               0.000000000               0.000000000               0.000000000               0.000000000               0.000000000               0.000000000               0.000000000               0.000000000               0.000000000               0.000000000 </DataArray>
</PointData>
</Piece>
</UnstructuredGrid> </VTKFile>
