<?xml version="1.0"?>
<VTKFile type="UnstructuredGrid" version="0.1">
<UnstructuredGrid>
<Piece NumberOfPoints="      1156" NumberOfCells="      1024">
<Points>
<DataArray type="Float64"                                    Name="coordinates"                                                      NumberOfComponents=" 3" format="ascii">
              0.133000000               0.000000000               0.000000000               0.155937500               0.000000000               0.000000000               0.178875000               0.000000000               0.000000000               0.201812500               0.000000000               0.000000000               0.224750000               0.000000000               0.000000000               0.247687500               0.000000000               0.000000000               0.270625000               0.000000000               0.000000000               0.293562500               0.000000000               0.000000000               0.316500000               0.000000000               0.000000000               0.339437500               0.000000000               0.000000000               0.362375000               0.000000000               0.000000000               0.385312500               0.000000000               0.000000000               0.408250000               0.000000000               0.000000000               0.431187500               0.000000000               0.000000000               0.454125000               0.000000000               0.000000000               0.477062500               0.000000000               0.000000000               0.500000000               0.000000000               0.000000000               0.132359569               0.013036280               0.000000000               0.155337096               0.016127762               0.000000000               0.178314623               0.019219245               0.000000000               0.201292150               0.022310727               0.000000000               0.224269676               0.025402210               0.000000000               0.247247203               0.028493692               0.000000000               0.270224730               0.031585175               0.000000000               0.293202257               0.034676657               0.000000000               0.316179784               0.037768140               0.000000000               0.339157311               0.040859622               0.000000000               0.362134838               0.043951105               0.000000000               0.385112365               0.047042587               0.000000000               0.408089892               0.050134070               0.000000000               0.431067419               0.053225552               0.000000000               0.454044946               0.056317035               0.000000000               0.477022473               0.059408517               0.000000000               0.500000000               0.062500000               0.000000000               0.130444442               0.025947013               0.000000000               0.153541665               0.032137825               0.000000000               0.176638887               0.038328636               0.000000000               0.199736109               0.044519448               0.000000000               0.222833332               0.050710260               0.000000000               0.245930554               0.056901071               0.000000000               0.269027776               0.063091883               0.000000000               0.292124999               0.069282695               0.000000000               0.315222221               0.075473506               0.000000000               0.338319444               0.081664318               0.000000000               0.361416666               0.087855130               0.000000000               0.384513888               0.094045942               0.000000000               0.407611111               0.100236753               0.000000000               0.430708333               0.106427565               0.000000000               0.453805555               0.112618377               0.000000000               0.476902778               0.118809188               0.000000000               0.500000000               0.125000000               0.000000000               0.127273065               0.038607862               0.000000000               0.150568498               0.047913621               0.000000000               0.173863932               0.057219379               0.000000000               0.197159365               0.066525138               0.000000000               0.220454798               0.075830897               0.000000000               0.243750232               0.085136655               0.000000000               0.267045665               0.094442414               0.000000000               0.290341099               0.103748172               0.000000000               0.313636532               0.113053931               0.000000000               0.336931966               0.122359690               0.000000000               0.360227399               0.131665448               0.000000000               0.383522833               0.140971207               0.000000000               0.406818266               0.150276966               0.000000000               0.430113700               0.159582724               0.000000000               0.453409133               0.168888483               0.000000000               0.476704567               0.178194241               0.000000000               0.500000000               0.187500000               0.000000000               0.122875978               0.050896897               0.000000000               0.146446229               0.063340840               0.000000000               0.170016481               0.075784784               0.000000000               0.193586732               0.088228728               0.000000000               0.217156983               0.100672672               0.000000000               0.240727235               0.113116616               0.000000000               0.264297486               0.125560560               0.000000000               0.287867738               0.138004504               0.000000000               0.311437989               0.150448448               0.000000000               0.335008240               0.162892392               0.000000000               0.358578492               0.175336336               0.000000000               0.382148743               0.187780280               0.000000000               0.405718994               0.200224224               0.000000000               0.429289246               0.212668168               0.000000000               0.452859497               0.225112112               0.000000000               0.476429749               0.237556056               0.000000000               0.500000000               0.250000000               0.000000000               0.117295528               0.062695766               0.000000000               0.141214558               0.078308531               0.000000000               0.165133587               0.093921295               0.000000000               0.189052617               0.109534060               0.000000000               0.212971646               0.125146824               0.000000000               0.236890676               0.140759589               0.000000000               0.260809705               0.156372354               0.000000000               0.284728735               0.171985118               0.000000000               0.308647764               0.187597883               0.000000000               0.332566794               0.203210648               0.000000000               0.356485823               0.218823412               0.000000000               0.380404853               0.234436177               0.000000000               0.404323882               0.250048941               0.000000000               0.428242912               0.265661706               0.000000000               0.452161941               0.281274471               0.000000000               0.476080971               0.296887235               0.000000000               0.500000000               0.312500000               0.000000000               0.110585458               0.073890841               0.000000000               0.134923867               0.092710163               0.000000000               0.159262276               0.111529486               0.000000000               0.183600685               0.130348808               0.000000000               0.207939094               0.149168131               0.000000000               0.232277503               0.167987453               0.000000000               0.256615912               0.186806776               0.000000000               0.280954320               0.205626098               0.000000000               0.305292729               0.224445420               0.000000000               0.329631138               0.243264743               0.000000000               0.353969547               0.262084065               0.000000000               0.378307956               0.280903388               0.000000000               0.402646365               0.299722710               0.000000000               0.426984773               0.318542033               0.000000000               0.451323182               0.337361355               0.000000000               0.475661591               0.356180678               0.000000000               0.500000000               0.375000000               0.000000000               0.102810390               0.084374307               0.000000000               0.127634741               0.106444663               0.000000000               0.152459092               0.128515018               0.000000000               0.177283442               0.150585374               0.000000000               0.202107793               0.172655730               0.000000000               0.226932143               0.194726086               0.000000000               0.251756494               0.216796442               0.000000000               0.276580845               0.238866798               0.000000000               0.301405195               0.260937153               0.000000000               0.326229546               0.283007509               0.000000000               0.351053896               0.305077865               0.000000000               0.375878247               0.327148221               0.000000000               0.400702598               0.349218577               0.000000000               0.425526948               0.371288933               0.000000000               0.450351299               0.393359288               0.000000000               0.475175649               0.415429644               0.000000000               0.500000000               0.437500000               0.000000000               0.094045202               0.094045202               0.000000000               0.119417377               0.119417377               0.000000000               0.144789552               0.144789552               0.000000000               0.170161727               0.170161727               0.000000000               0.195533901               0.195533901               0.000000000               0.220906076               0.220906076               0.000000000               0.246278251               0.246278251               0.000000000               0.271650426               0.271650426               0.000000000               0.297022601               0.297022601               0.000000000               0.322394776               0.322394776               0.000000000               0.347766951               0.347766951               0.000000000               0.373139126               0.373139126               0.000000000               0.398511300               0.398511300               0.000000000               0.423883475               0.423883475               0.000000000               0.449255650               0.449255650               0.000000000               0.474627825               0.474627825               0.000000000               0.500000000               0.500000000               0.000000000               0.084374307               0.102810390               0.000000000               0.106444663               0.127634741               0.000000000               0.128515018               0.152459092               0.000000000               0.150585374               0.177283442               0.000000000               0.172655730               0.202107793               0.000000000               0.194726086               0.226932143               0.000000000               0.216796442               0.251756494               0.000000000               0.238866798               0.276580845               0.000000000               0.260937153               0.301405195               0.000000000               0.283007509               0.326229546               0.000000000               0.305077865               0.351053896               0.000000000               0.327148221               0.375878247               0.000000000               0.349218577               0.400702598               0.000000000               0.371288933               0.425526948               0.000000000               0.393359288               0.450351299               0.000000000               0.415429644               0.475175649               0.000000000               0.437500000               0.500000000               0.000000000               0.073890841               0.110585458               0.000000000               0.092710163               0.134923867               0.000000000               0.111529486               0.159262276               0.000000000               0.130348808               0.183600685               0.000000000               0.149168131               0.207939094               0.000000000               0.167987453               0.232277503               0.000000000               0.186806776               0.256615912               0.000000000               0.205626098               0.280954320               0.000000000               0.224445420               0.305292729               0.000000000               0.243264743               0.329631138               0.000000000               0.262084065               0.353969547               0.000000000               0.280903388               0.378307956               0.000000000               0.299722710               0.402646365               0.000000000               0.318542033               0.426984773               0.000000000               0.337361355               0.451323182               0.000000000               0.356180678               0.475661591               0.000000000               0.375000000               0.500000000               0.000000000               0.062695766               0.117295528               0.000000000               0.078308531               0.141214558               0.000000000               0.093921295               0.165133587               0.000000000               0.109534060               0.189052617               0.000000000               0.125146824               0.212971646               0.000000000               0.140759589               0.236890676               0.000000000               0.156372354               0.260809705               0.000000000               0.171985118               0.284728735               0.000000000               0.187597883               0.308647764               0.000000000               0.203210648               0.332566794               0.000000000               0.218823412               0.356485823               0.000000000               0.234436177               0.380404853               0.000000000               0.250048941               0.404323882               0.000000000               0.265661706               0.428242912               0.000000000               0.281274471               0.452161941               0.000000000               0.296887235               0.476080971               0.000000000               0.312500000               0.500000000               0.000000000               0.050896897               0.122875978               0.000000000               0.063340840               0.146446229               0.000000000               0.075784784               0.170016481               0.000000000               0.088228728               0.193586732               0.000000000               0.100672672               0.217156983               0.000000000               0.113116616               0.240727235               0.000000000               0.125560560               0.264297486               0.000000000               0.138004504               0.287867738               0.000000000               0.150448448               0.311437989               0.000000000               0.162892392               0.335008240               0.000000000               0.175336336               0.358578492               0.000000000               0.187780280               0.382148743               0.000000000               0.200224224               0.405718994               0.000000000               0.212668168               0.429289246               0.000000000               0.225112112               0.452859497               0.000000000               0.237556056               0.476429749               0.000000000               0.250000000               0.500000000               0.000000000               0.038607862               0.127273065               0.000000000               0.047913621               0.150568498               0.000000000               0.057219379               0.173863932               0.000000000               0.066525138               0.197159365               0.000000000               0.075830897               0.220454798               0.000000000               0.085136655               0.243750232               0.000000000               0.094442414               0.267045665               0.000000000               0.103748172               0.290341099               0.000000000               0.113053931               0.313636532               0.000000000               0.122359690               0.336931966               0.000000000               0.131665448               0.360227399               0.000000000               0.140971207               0.383522833               0.000000000               0.150276966               0.406818266               0.000000000               0.159582724               0.430113700               0.000000000               0.168888483               0.453409133               0.000000000               0.178194241               0.476704567               0.000000000               0.187500000               0.500000000               0.000000000               0.025947013               0.130444442               0.000000000               0.032137825               0.153541665               0.000000000               0.038328636               0.176638887               0.000000000               0.044519448               0.199736109               0.000000000               0.050710260               0.222833332               0.000000000               0.056901071               0.245930554               0.000000000               0.063091883               0.269027776               0.000000000               0.069282695               0.292124999               0.000000000               0.075473506               0.315222221               0.000000000               0.081664318               0.338319444               0.000000000               0.087855130               0.361416666               0.000000000               0.094045942               0.384513888               0.000000000               0.100236753               0.407611111               0.000000000               0.106427565               0.430708333               0.000000000               0.112618377               0.453805555               0.000000000               0.118809188               0.476902778               0.000000000               0.125000000               0.500000000               0.000000000               0.013036280               0.132359569               0.000000000               0.016127762               0.155337096               0.000000000               0.019219245               0.178314623               0.000000000               0.022310727               0.201292150               0.000000000               0.025402210               0.224269676               0.000000000               0.028493692               0.247247203               0.000000000               0.031585175               0.270224730               0.000000000               0.034676657               0.293202257               0.000000000               0.037768140               0.316179784               0.000000000               0.040859622               0.339157311               0.000000000               0.043951105               0.362134838               0.000000000               0.047042587               0.385112365               0.000000000               0.050134070               0.408089892               0.000000000               0.053225552               0.431067419               0.000000000               0.056317035               0.454044946               0.000000000               0.059408517               0.477022473               0.000000000               0.062500000               0.500000000               0.000000000               0.000000000               0.133000000               0.000000000               0.000000000               0.155937500               0.000000000               0.000000000               0.178875000               0.000000000               0.000000000               0.201812500               0.000000000               0.000000000               0.224750000               0.000000000               0.000000000               0.247687500               0.000000000               0.000000000               0.270625000               0.000000000               0.000000000               0.293562500               0.000000000               0.000000000               0.316500000               0.000000000               0.000000000               0.339437500               0.000000000               0.000000000               0.362375000               0.000000000               0.000000000               0.385312500               0.000000000               0.000000000               0.408250000               0.000000000               0.000000000               0.431187500               0.000000000               0.000000000               0.454125000               0.000000000               0.000000000               0.477062500               0.000000000               0.000000000               0.500000000               0.000000000               0.133000000               0.000000000               0.000000000               0.155937500               0.000000000               0.000000000               0.178875000               0.000000000               0.000000000               0.201812500               0.000000000               0.000000000               0.224750000               0.000000000               0.000000000               0.247687500               0.000000000               0.000000000               0.270625000               0.000000000               0.000000000               0.293562500               0.000000000               0.000000000               0.316500000               0.000000000               0.000000000               0.339437500               0.000000000               0.000000000               0.362375000               0.000000000               0.000000000               0.385312500               0.000000000               0.000000000               0.408250000               0.000000000               0.000000000               0.431187500               0.000000000               0.000000000               0.454125000               0.000000000               0.000000000               0.477062500               0.000000000               0.000000000               0.500000000               0.000000000               0.000000000               0.132359569              -0.013036280               0.000000000               0.155337096              -0.016127762               0.000000000               0.178314623              -0.019219245               0.000000000               0.201292150              -0.022310727               0.000000000               0.224269676              -0.025402210               0.000000000               0.247247203              -0.028493692               0.000000000               0.270224730              -0.031585175               0.000000000               0.293202257              -0.034676657               0.000000000               0.316179784              -0.037768140               0.000000000               0.339157311              -0.040859622               0.000000000               0.362134838              -0.043951105               0.000000000               0.385112365              -0.047042587               0.000000000               0.408089892              -0.050134070               0.000000000               0.431067419              -0.053225552               0.000000000               0.454044946              -0.056317035               0.000000000               0.477022473              -0.059408517               0.000000000               0.500000000              -0.062500000               0.000000000               0.130444442              -0.025947013               0.000000000               0.153541665              -0.032137825               0.000000000               0.176638887              -0.038328636               0.000000000               0.199736109              -0.044519448               0.000000000               0.222833332              -0.050710260               0.000000000               0.245930554              -0.056901071               0.000000000               0.269027776              -0.063091883               0.000000000               0.292124999              -0.069282695               0.000000000               0.315222221              -0.075473506               0.000000000               0.338319444              -0.081664318               0.000000000               0.361416666              -0.087855130               0.000000000               0.384513888              -0.094045942               0.000000000               0.407611111              -0.100236753               0.000000000               0.430708333              -0.106427565               0.000000000               0.453805555              -0.112618377               0.000000000               0.476902778              -0.118809188               0.000000000               0.500000000              -0.125000000               0.000000000               0.127273065              -0.038607862               0.000000000               0.150568498              -0.047913621               0.000000000               0.173863932              -0.057219379               0.000000000               0.197159365              -0.066525138               0.000000000               0.220454798              -0.075830897               0.000000000               0.243750232              -0.085136655               0.000000000               0.267045665              -0.094442414               0.000000000               0.290341099              -0.103748172               0.000000000               0.313636532              -0.113053931               0.000000000               0.336931966              -0.122359690               0.000000000               0.360227399              -0.131665448               0.000000000               0.383522833              -0.140971207               0.000000000               0.406818266              -0.150276966               0.000000000               0.430113700              -0.159582724               0.000000000               0.453409133              -0.168888483               0.000000000               0.476704567              -0.178194241               0.000000000               0.500000000              -0.187500000               0.000000000               0.122875978              -0.050896897               0.000000000               0.146446229              -0.063340840               0.000000000               0.170016481              -0.075784784               0.000000000               0.193586732              -0.088228728               0.000000000               0.217156983              -0.100672672               0.000000000               0.240727235              -0.113116616               0.000000000               0.264297486              -0.125560560               0.000000000               0.287867738              -0.138004504               0.000000000               0.311437989              -0.150448448               0.000000000               0.335008240              -0.162892392               0.000000000               0.358578492              -0.175336336               0.000000000               0.382148743              -0.187780280               0.000000000               0.405718994              -0.200224224               0.000000000               0.429289246              -0.212668168               0.000000000               0.452859497              -0.225112112               0.000000000               0.476429749              -0.237556056               0.000000000               0.500000000              -0.250000000               0.000000000               0.117295528              -0.062695766               0.000000000               0.141214558              -0.078308531               0.000000000               0.165133587              -0.093921295               0.000000000               0.189052617              -0.109534060               0.000000000               0.212971646              -0.125146824               0.000000000               0.236890676              -0.140759589               0.000000000               0.260809705              -0.156372354               0.000000000               0.284728735              -0.171985118               0.000000000               0.308647764              -0.187597883               0.000000000               0.332566794              -0.203210648               0.000000000               0.356485823              -0.218823412               0.000000000               0.380404853              -0.234436177               0.000000000               0.404323882              -0.250048941               0.000000000               0.428242912              -0.265661706               0.000000000               0.452161941              -0.281274471               0.000000000               0.476080971              -0.296887235               0.000000000               0.500000000              -0.312500000               0.000000000               0.110585458              -0.073890841               0.000000000               0.134923867              -0.092710163               0.000000000               0.159262276              -0.111529486               0.000000000               0.183600685              -0.130348808               0.000000000               0.207939094              -0.149168131               0.000000000               0.232277503              -0.167987453               0.000000000               0.256615912              -0.186806776               0.000000000               0.280954320              -0.205626098               0.000000000               0.305292729              -0.224445420               0.000000000               0.329631138              -0.243264743               0.000000000               0.353969547              -0.262084065               0.000000000               0.378307956              -0.280903388               0.000000000               0.402646365              -0.299722710               0.000000000               0.426984773              -0.318542033               0.000000000               0.451323182              -0.337361355               0.000000000               0.475661591              -0.356180678               0.000000000               0.500000000              -0.375000000               0.000000000               0.102810390              -0.084374307               0.000000000               0.127634741              -0.106444663               0.000000000               0.152459092              -0.128515018               0.000000000               0.177283442              -0.150585374               0.000000000               0.202107793              -0.172655730               0.000000000               0.226932143              -0.194726086               0.000000000               0.251756494              -0.216796442               0.000000000               0.276580845              -0.238866798               0.000000000               0.301405195              -0.260937153               0.000000000               0.326229546              -0.283007509               0.000000000               0.351053896              -0.305077865               0.000000000               0.375878247              -0.327148221               0.000000000               0.400702598              -0.349218577               0.000000000               0.425526948              -0.371288933               0.000000000               0.450351299              -0.393359288               0.000000000               0.475175649              -0.415429644               0.000000000               0.500000000              -0.437500000               0.000000000               0.094045202              -0.094045202               0.000000000               0.119417377              -0.119417377               0.000000000               0.144789552              -0.144789552               0.000000000               0.170161727              -0.170161727               0.000000000               0.195533901              -0.195533901               0.000000000               0.220906076              -0.220906076               0.000000000               0.246278251              -0.246278251               0.000000000               0.271650426              -0.271650426               0.000000000               0.297022601              -0.297022601               0.000000000               0.322394776              -0.322394776               0.000000000               0.347766951              -0.347766951               0.000000000               0.373139126              -0.373139126               0.000000000               0.398511300              -0.398511300               0.000000000               0.423883475              -0.423883475               0.000000000               0.449255650              -0.449255650               0.000000000               0.474627825              -0.474627825               0.000000000               0.500000000              -0.500000000               0.000000000               0.084374307              -0.102810390               0.000000000               0.106444663              -0.127634741               0.000000000               0.128515018              -0.152459092               0.000000000               0.150585374              -0.177283442               0.000000000               0.172655730              -0.202107793               0.000000000               0.194726086              -0.226932143               0.000000000               0.216796442              -0.251756494               0.000000000               0.238866798              -0.276580845               0.000000000               0.260937153              -0.301405195               0.000000000               0.283007509              -0.326229546               0.000000000               0.305077865              -0.351053896               0.000000000               0.327148221              -0.375878247               0.000000000               0.349218577              -0.400702598               0.000000000               0.371288933              -0.425526948               0.000000000               0.393359288              -0.450351299               0.000000000               0.415429644              -0.475175649               0.000000000               0.437500000              -0.500000000               0.000000000               0.073890841              -0.110585458               0.000000000               0.092710163              -0.134923867               0.000000000               0.111529486              -0.159262276               0.000000000               0.130348808              -0.183600685               0.000000000               0.149168131              -0.207939094               0.000000000               0.167987453              -0.232277503               0.000000000               0.186806776              -0.256615912               0.000000000               0.205626098              -0.280954320               0.000000000               0.224445420              -0.305292729               0.000000000               0.243264743              -0.329631138               0.000000000               0.262084065              -0.353969547               0.000000000               0.280903388              -0.378307956               0.000000000               0.299722710              -0.402646365               0.000000000               0.318542033              -0.426984773               0.000000000               0.337361355              -0.451323182               0.000000000               0.356180678              -0.475661591               0.000000000               0.375000000              -0.500000000               0.000000000               0.062695766              -0.117295528               0.000000000               0.078308531              -0.141214558               0.000000000               0.093921295              -0.165133587               0.000000000               0.109534060              -0.189052617               0.000000000               0.125146824              -0.212971646               0.000000000               0.140759589              -0.236890676               0.000000000               0.156372354              -0.260809705               0.000000000               0.171985118              -0.284728735               0.000000000               0.187597883              -0.308647764               0.000000000               0.203210648              -0.332566794               0.000000000               0.218823412              -0.356485823               0.000000000               0.234436177              -0.380404853               0.000000000               0.250048941              -0.404323882               0.000000000               0.265661706              -0.428242912               0.000000000               0.281274471              -0.452161941               0.000000000               0.296887235              -0.476080971               0.000000000               0.312500000              -0.500000000               0.000000000               0.050896897              -0.122875978               0.000000000               0.063340840              -0.146446229               0.000000000               0.075784784              -0.170016481               0.000000000               0.088228728              -0.193586732               0.000000000               0.100672672              -0.217156983               0.000000000               0.113116616              -0.240727235               0.000000000               0.125560560              -0.264297486               0.000000000               0.138004504              -0.287867738               0.000000000               0.150448448              -0.311437989               0.000000000               0.162892392              -0.335008240               0.000000000               0.175336336              -0.358578492               0.000000000               0.187780280              -0.382148743               0.000000000               0.200224224              -0.405718994               0.000000000               0.212668168              -0.429289246               0.000000000               0.225112112              -0.452859497               0.000000000               0.237556056              -0.476429749               0.000000000               0.250000000              -0.500000000               0.000000000               0.038607862              -0.127273065               0.000000000               0.047913621              -0.150568498               0.000000000               0.057219379              -0.173863932               0.000000000               0.066525138              -0.197159365               0.000000000               0.075830897              -0.220454798               0.000000000               0.085136655              -0.243750232               0.000000000               0.094442414              -0.267045665               0.000000000               0.103748172              -0.290341099               0.000000000               0.113053931              -0.313636532               0.000000000               0.122359690              -0.336931966               0.000000000               0.131665448              -0.360227399               0.000000000               0.140971207              -0.383522833               0.000000000               0.150276966              -0.406818266               0.000000000               0.159582724              -0.430113700               0.000000000               0.168888483              -0.453409133               0.000000000               0.178194241              -0.476704567               0.000000000               0.187500000              -0.500000000               0.000000000               0.025947013              -0.130444442               0.000000000               0.032137825              -0.153541665               0.000000000               0.038328636              -0.176638887               0.000000000               0.044519448              -0.199736109               0.000000000               0.050710260              -0.222833332               0.000000000               0.056901071              -0.245930554               0.000000000               0.063091883              -0.269027776               0.000000000               0.069282695              -0.292124999               0.000000000               0.075473506              -0.315222221               0.000000000               0.081664318              -0.338319444               0.000000000               0.087855130              -0.361416666               0.000000000               0.094045942              -0.384513888               0.000000000               0.100236753              -0.407611111               0.000000000               0.106427565              -0.430708333               0.000000000               0.112618377              -0.453805555               0.000000000               0.118809188              -0.476902778               0.000000000               0.125000000              -0.500000000               0.000000000               0.013036280              -0.132359569               0.000000000               0.016127762              -0.155337096               0.000000000               0.019219245              -0.178314623               0.000000000               0.022310727              -0.201292150               0.000000000               0.025402210              -0.224269676               0.000000000               0.028493692              -0.247247203               0.000000000               0.031585175              -0.270224730               0.000000000               0.034676657              -0.293202257               0.000000000               0.037768140              -0.316179784               0.000000000               0.040859622              -0.339157311               0.000000000               0.043951105              -0.362134838               0.000000000               0.047042587              -0.385112365               0.000000000               0.050134070              -0.408089892               0.000000000               0.053225552              -0.431067419               0.000000000               0.056317035              -0.454044946               0.000000000               0.059408517              -0.477022473               0.000000000               0.062500000              -0.500000000               0.000000000               0.000000000              -0.133000000               0.000000000               0.000000000              -0.155937500               0.000000000               0.000000000              -0.178875000               0.000000000               0.000000000              -0.201812500               0.000000000               0.000000000              -0.224750000               0.000000000               0.000000000              -0.247687500               0.000000000               0.000000000              -0.270625000               0.000000000               0.000000000              -0.293562500               0.000000000               0.000000000              -0.316500000               0.000000000               0.000000000              -0.339437500               0.000000000               0.000000000              -0.362375000               0.000000000               0.000000000              -0.385312500               0.000000000               0.000000000              -0.408250000               0.000000000               0.000000000              -0.431187500               0.000000000               0.000000000              -0.454125000               0.000000000               0.000000000              -0.477062500               0.000000000               0.000000000              -0.500000000               0.000000000              -0.133000000               0.000000000               0.000000000              -0.155937500               0.000000000               0.000000000              -0.178875000               0.000000000               0.000000000              -0.201812500               0.000000000               0.000000000              -0.224750000               0.000000000               0.000000000              -0.247687500               0.000000000               0.000000000              -0.270625000               0.000000000               0.000000000              -0.293562500               0.000000000               0.000000000              -0.316500000               0.000000000               0.000000000              -0.339437500               0.000000000               0.000000000              -0.362375000               0.000000000               0.000000000              -0.385312500               0.000000000               0.000000000              -0.408250000               0.000000000               0.000000000              -0.431187500               0.000000000               0.000000000              -0.454125000               0.000000000               0.000000000              -0.477062500               0.000000000               0.000000000              -0.500000000               0.000000000               0.000000000              -0.132359569              -0.013036280               0.000000000              -0.155337096              -0.016127762               0.000000000              -0.178314623              -0.019219245               0.000000000              -0.201292150              -0.022310727               0.000000000              -0.224269676              -0.025402210               0.000000000              -0.247247203              -0.028493692               0.000000000              -0.270224730              -0.031585175               0.000000000              -0.293202257              -0.034676657               0.000000000              -0.316179784              -0.037768140               0.000000000              -0.339157311              -0.040859622               0.000000000              -0.362134838              -0.043951105               0.000000000              -0.385112365              -0.047042587               0.000000000              -0.408089892              -0.050134070               0.000000000              -0.431067419              -0.053225552               0.000000000              -0.454044946              -0.056317035               0.000000000              -0.477022473              -0.059408517               0.000000000              -0.500000000              -0.062500000               0.000000000              -0.130444442              -0.025947013               0.000000000              -0.153541665              -0.032137825               0.000000000              -0.176638887              -0.038328636               0.000000000              -0.199736109              -0.044519448               0.000000000              -0.222833332              -0.050710260               0.000000000              -0.245930554              -0.056901071               0.000000000              -0.269027776              -0.063091883               0.000000000              -0.292124999              -0.069282695               0.000000000              -0.315222221              -0.075473506               0.000000000              -0.338319444              -0.081664318               0.000000000              -0.361416666              -0.087855130               0.000000000              -0.384513888              -0.094045942               0.000000000              -0.407611111              -0.100236753               0.000000000              -0.430708333              -0.106427565               0.000000000              -0.453805555              -0.112618377               0.000000000              -0.476902778              -0.118809188               0.000000000              -0.500000000              -0.125000000               0.000000000              -0.127273065              -0.038607862               0.000000000              -0.150568498              -0.047913621               0.000000000              -0.173863932              -0.057219379               0.000000000              -0.197159365              -0.066525138               0.000000000              -0.220454798              -0.075830897               0.000000000              -0.243750232              -0.085136655               0.000000000              -0.267045665              -0.094442414               0.000000000              -0.290341099              -0.103748172               0.000000000              -0.313636532              -0.113053931               0.000000000              -0.336931966              -0.122359690               0.000000000              -0.360227399              -0.131665448               0.000000000              -0.383522833              -0.140971207               0.000000000              -0.406818266              -0.150276966               0.000000000              -0.430113700              -0.159582724               0.000000000              -0.453409133              -0.168888483               0.000000000              -0.476704567              -0.178194241               0.000000000              -0.500000000              -0.187500000               0.000000000              -0.122875978              -0.050896897               0.000000000              -0.146446229              -0.063340840               0.000000000              -0.170016481              -0.075784784               0.000000000              -0.193586732              -0.088228728               0.000000000              -0.217156983              -0.100672672               0.000000000              -0.240727235              -0.113116616               0.000000000              -0.264297486              -0.125560560               0.000000000              -0.287867738              -0.138004504               0.000000000              -0.311437989              -0.150448448               0.000000000              -0.335008240              -0.162892392               0.000000000              -0.358578492              -0.175336336               0.000000000              -0.382148743              -0.187780280               0.000000000              -0.405718994              -0.200224224               0.000000000              -0.429289246              -0.212668168               0.000000000              -0.452859497              -0.225112112               0.000000000              -0.476429749              -0.237556056               0.000000000              -0.500000000              -0.250000000               0.000000000              -0.117295528              -0.062695766               0.000000000              -0.141214558              -0.078308531               0.000000000              -0.165133587              -0.093921295               0.000000000              -0.189052617              -0.109534060               0.000000000              -0.212971646              -0.125146824               0.000000000              -0.236890676              -0.140759589               0.000000000              -0.260809705              -0.156372354               0.000000000              -0.284728735              -0.171985118               0.000000000              -0.308647764              -0.187597883               0.000000000              -0.332566794              -0.203210648               0.000000000              -0.356485823              -0.218823412               0.000000000              -0.380404853              -0.234436177               0.000000000              -0.404323882              -0.250048941               0.000000000              -0.428242912              -0.265661706               0.000000000              -0.452161941              -0.281274471               0.000000000              -0.476080971              -0.296887235               0.000000000              -0.500000000              -0.312500000               0.000000000              -0.110585458              -0.073890841               0.000000000              -0.134923867              -0.092710163               0.000000000              -0.159262276              -0.111529486               0.000000000              -0.183600685              -0.130348808               0.000000000              -0.207939094              -0.149168131               0.000000000              -0.232277503              -0.167987453               0.000000000              -0.256615912              -0.186806776               0.000000000              -0.280954320              -0.205626098               0.000000000              -0.305292729              -0.224445420               0.000000000              -0.329631138              -0.243264743               0.000000000              -0.353969547              -0.262084065               0.000000000              -0.378307956              -0.280903388               0.000000000              -0.402646365              -0.299722710               0.000000000              -0.426984773              -0.318542033               0.000000000              -0.451323182              -0.337361355               0.000000000              -0.475661591              -0.356180678               0.000000000              -0.500000000              -0.375000000               0.000000000              -0.102810390              -0.084374307               0.000000000              -0.127634741              -0.106444663               0.000000000              -0.152459092              -0.128515018               0.000000000              -0.177283442              -0.150585374               0.000000000              -0.202107793              -0.172655730               0.000000000              -0.226932143              -0.194726086               0.000000000              -0.251756494              -0.216796442               0.000000000              -0.276580845              -0.238866798               0.000000000              -0.301405195              -0.260937153               0.000000000              -0.326229546              -0.283007509               0.000000000              -0.351053896              -0.305077865               0.000000000              -0.375878247              -0.327148221               0.000000000              -0.400702598              -0.349218577               0.000000000              -0.425526948              -0.371288933               0.000000000              -0.450351299              -0.393359288               0.000000000              -0.475175649              -0.415429644               0.000000000              -0.500000000              -0.437500000               0.000000000              -0.094045202              -0.094045202               0.000000000              -0.119417377              -0.119417377               0.000000000              -0.144789552              -0.144789552               0.000000000              -0.170161727              -0.170161727               0.000000000              -0.195533901              -0.195533901               0.000000000              -0.220906076              -0.220906076               0.000000000              -0.246278251              -0.246278251               0.000000000              -0.271650426              -0.271650426               0.000000000              -0.297022601              -0.297022601               0.000000000              -0.322394776              -0.322394776               0.000000000              -0.347766951              -0.347766951               0.000000000              -0.373139126              -0.373139126               0.000000000              -0.398511300              -0.398511300               0.000000000              -0.423883475              -0.423883475               0.000000000              -0.449255650              -0.449255650               0.000000000              -0.474627825              -0.474627825               0.000000000              -0.500000000              -0.500000000               0.000000000              -0.084374307              -0.102810390               0.000000000              -0.106444663              -0.127634741               0.000000000              -0.128515018              -0.152459092               0.000000000              -0.150585374              -0.177283442               0.000000000              -0.172655730              -0.202107793               0.000000000              -0.194726086              -0.226932143               0.000000000              -0.216796442              -0.251756494               0.000000000              -0.238866798              -0.276580845               0.000000000              -0.260937153              -0.301405195               0.000000000              -0.283007509              -0.326229546               0.000000000              -0.305077865              -0.351053896               0.000000000              -0.327148221              -0.375878247               0.000000000              -0.349218577              -0.400702598               0.000000000              -0.371288933              -0.425526948               0.000000000              -0.393359288              -0.450351299               0.000000000              -0.415429644              -0.475175649               0.000000000              -0.437500000              -0.500000000               0.000000000              -0.073890841              -0.110585458               0.000000000              -0.092710163              -0.134923867               0.000000000              -0.111529486              -0.159262276               0.000000000              -0.130348808              -0.183600685               0.000000000              -0.149168131              -0.207939094               0.000000000              -0.167987453              -0.232277503               0.000000000              -0.186806776              -0.256615912               0.000000000              -0.205626098              -0.280954320               0.000000000              -0.224445420              -0.305292729               0.000000000              -0.243264743              -0.329631138               0.000000000              -0.262084065              -0.353969547               0.000000000              -0.280903388              -0.378307956               0.000000000              -0.299722710              -0.402646365               0.000000000              -0.318542033              -0.426984773               0.000000000              -0.337361355              -0.451323182               0.000000000              -0.356180678              -0.475661591               0.000000000              -0.375000000              -0.500000000               0.000000000              -0.062695766              -0.117295528               0.000000000              -0.078308531              -0.141214558               0.000000000              -0.093921295              -0.165133587               0.000000000              -0.109534060              -0.189052617               0.000000000              -0.125146824              -0.212971646               0.000000000              -0.140759589              -0.236890676               0.000000000              -0.156372354              -0.260809705               0.000000000              -0.171985118              -0.284728735               0.000000000              -0.187597883              -0.308647764               0.000000000              -0.203210648              -0.332566794               0.000000000              -0.218823412              -0.356485823               0.000000000              -0.234436177              -0.380404853               0.000000000              -0.250048941              -0.404323882               0.000000000              -0.265661706              -0.428242912               0.000000000              -0.281274471              -0.452161941               0.000000000              -0.296887235              -0.476080971               0.000000000              -0.312500000              -0.500000000               0.000000000              -0.050896897              -0.122875978               0.000000000              -0.063340840              -0.146446229               0.000000000              -0.075784784              -0.170016481               0.000000000              -0.088228728              -0.193586732               0.000000000              -0.100672672              -0.217156983               0.000000000              -0.113116616              -0.240727235               0.000000000              -0.125560560              -0.264297486               0.000000000              -0.138004504              -0.287867738               0.000000000              -0.150448448              -0.311437989               0.000000000              -0.162892392              -0.335008240               0.000000000              -0.175336336              -0.358578492               0.000000000              -0.187780280              -0.382148743               0.000000000              -0.200224224              -0.405718994               0.000000000              -0.212668168              -0.429289246               0.000000000              -0.225112112              -0.452859497               0.000000000              -0.237556056              -0.476429749               0.000000000              -0.250000000              -0.500000000               0.000000000              -0.038607862              -0.127273065               0.000000000              -0.047913621              -0.150568498               0.000000000              -0.057219379              -0.173863932               0.000000000              -0.066525138              -0.197159365               0.000000000              -0.075830897              -0.220454798               0.000000000              -0.085136655              -0.243750232               0.000000000              -0.094442414              -0.267045665               0.000000000              -0.103748172              -0.290341099               0.000000000              -0.113053931              -0.313636532               0.000000000              -0.122359690              -0.336931966               0.000000000              -0.131665448              -0.360227399               0.000000000              -0.140971207              -0.383522833               0.000000000              -0.150276966              -0.406818266               0.000000000              -0.159582724              -0.430113700               0.000000000              -0.168888483              -0.453409133               0.000000000              -0.178194241              -0.476704567               0.000000000              -0.187500000              -0.500000000               0.000000000              -0.025947013              -0.130444442               0.000000000              -0.032137825              -0.153541665               0.000000000              -0.038328636              -0.176638887               0.000000000              -0.044519448              -0.199736109               0.000000000              -0.050710260              -0.222833332               0.000000000              -0.056901071              -0.245930554               0.000000000              -0.063091883              -0.269027776               0.000000000              -0.069282695              -0.292124999               0.000000000              -0.075473506              -0.315222221               0.000000000              -0.081664318              -0.338319444               0.000000000              -0.087855130              -0.361416666               0.000000000              -0.094045942              -0.384513888               0.000000000              -0.100236753              -0.407611111               0.000000000              -0.106427565              -0.430708333               0.000000000              -0.112618377              -0.453805555               0.000000000              -0.118809188              -0.476902778               0.000000000              -0.125000000              -0.500000000               0.000000000              -0.013036280              -0.132359569               0.000000000              -0.016127762              -0.155337096               0.000000000              -0.019219245              -0.178314623               0.000000000              -0.022310727              -0.201292150               0.000000000              -0.025402210              -0.224269676               0.000000000              -0.028493692              -0.247247203               0.000000000              -0.031585175              -0.270224730               0.000000000              -0.034676657              -0.293202257               0.000000000              -0.037768140              -0.316179784               0.000000000              -0.040859622              -0.339157311               0.000000000              -0.043951105              -0.362134838               0.000000000              -0.047042587              -0.385112365               0.000000000              -0.050134070              -0.408089892               0.000000000              -0.053225552              -0.431067419               0.000000000              -0.056317035              -0.454044946               0.000000000              -0.059408517              -0.477022473               0.000000000              -0.062500000              -0.500000000               0.000000000               0.000000000              -0.133000000               0.000000000               0.000000000              -0.155937500               0.000000000               0.000000000              -0.178875000               0.000000000               0.000000000              -0.201812500               0.000000000               0.000000000              -0.224750000               0.000000000               0.000000000              -0.247687500               0.000000000               0.000000000              -0.270625000               0.000000000               0.000000000              -0.293562500               0.000000000               0.000000000              -0.316500000               0.000000000               0.000000000              -0.339437500               0.000000000               0.000000000              -0.362375000               0.000000000               0.000000000              -0.385312500               0.000000000               0.000000000              -0.408250000               0.000000000               0.000000000              -0.431187500               0.000000000               0.000000000              -0.454125000               0.000000000               0.000000000              -0.477062500               0.000000000               0.000000000              -0.500000000               0.000000000              -0.133000000               0.000000000               0.000000000              -0.155937500               0.000000000               0.000000000              -0.178875000               0.000000000               0.000000000              -0.201812500               0.000000000               0.000000000              -0.224750000               0.000000000               0.000000000              -0.247687500               0.000000000               0.000000000              -0.270625000               0.000000000               0.000000000              -0.293562500               0.000000000               0.000000000              -0.316500000               0.000000000               0.000000000              -0.339437500               0.000000000               0.000000000              -0.362375000               0.000000000               0.000000000              -0.385312500               0.000000000               0.000000000              -0.408250000               0.000000000               0.000000000              -0.431187500               0.000000000               0.000000000              -0.454125000               0.000000000               0.000000000              -0.477062500               0.000000000               0.000000000              -0.500000000               0.000000000               0.000000000              -0.132359569               0.013036280               0.000000000              -0.155337096               0.016127762               0.000000000              -0.178314623               0.019219245               0.000000000              -0.201292150               0.022310727               0.000000000              -0.224269676               0.025402210               0.000000000              -0.247247203               0.028493692               0.000000000              -0.270224730               0.031585175               0.000000000              -0.293202257               0.034676657               0.000000000              -0.316179784               0.037768140               0.000000000              -0.339157311               0.040859622               0.000000000              -0.362134838               0.043951105               0.000000000              -0.385112365               0.047042587               0.000000000              -0.408089892               0.050134070               0.000000000              -0.431067419               0.053225552               0.000000000              -0.454044946               0.056317035               0.000000000              -0.477022473               0.059408517               0.000000000              -0.500000000               0.062500000               0.000000000              -0.130444442               0.025947013               0.000000000              -0.153541665               0.032137825               0.000000000              -0.176638887               0.038328636               0.000000000              -0.199736109               0.044519448               0.000000000              -0.222833332               0.050710260               0.000000000              -0.245930554               0.056901071               0.000000000              -0.269027776               0.063091883               0.000000000              -0.292124999               0.069282695               0.000000000              -0.315222221               0.075473506               0.000000000              -0.338319444               0.081664318               0.000000000              -0.361416666               0.087855130               0.000000000              -0.384513888               0.094045942               0.000000000              -0.407611111               0.100236753               0.000000000              -0.430708333               0.106427565               0.000000000              -0.453805555               0.112618377               0.000000000              -0.476902778               0.118809188               0.000000000              -0.500000000               0.125000000               0.000000000              -0.127273065               0.038607862               0.000000000              -0.150568498               0.047913621               0.000000000              -0.173863932               0.057219379               0.000000000              -0.197159365               0.066525138               0.000000000              -0.220454798               0.075830897               0.000000000              -0.243750232               0.085136655               0.000000000              -0.267045665               0.094442414               0.000000000              -0.290341099               0.103748172               0.000000000              -0.313636532               0.113053931               0.000000000              -0.336931966               0.122359690               0.000000000              -0.360227399               0.131665448               0.000000000              -0.383522833               0.140971207               0.000000000              -0.406818266               0.150276966               0.000000000              -0.430113700               0.159582724               0.000000000              -0.453409133               0.168888483               0.000000000              -0.476704567               0.178194241               0.000000000              -0.500000000               0.187500000               0.000000000              -0.122875978               0.050896897               0.000000000              -0.146446229               0.063340840               0.000000000              -0.170016481               0.075784784               0.000000000              -0.193586732               0.088228728               0.000000000              -0.217156983               0.100672672               0.000000000              -0.240727235               0.113116616               0.000000000              -0.264297486               0.125560560               0.000000000              -0.287867738               0.138004504               0.000000000              -0.311437989               0.150448448               0.000000000              -0.335008240               0.162892392               0.000000000              -0.358578492               0.175336336               0.000000000              -0.382148743               0.187780280               0.000000000              -0.405718994               0.200224224               0.000000000              -0.429289246               0.212668168               0.000000000              -0.452859497               0.225112112               0.000000000              -0.476429749               0.237556056               0.000000000              -0.500000000               0.250000000               0.000000000              -0.117295528               0.062695766               0.000000000              -0.141214558               0.078308531               0.000000000              -0.165133587               0.093921295               0.000000000              -0.189052617               0.109534060               0.000000000              -0.212971646               0.125146824               0.000000000              -0.236890676               0.140759589               0.000000000              -0.260809705               0.156372354               0.000000000              -0.284728735               0.171985118               0.000000000              -0.308647764               0.187597883               0.000000000              -0.332566794               0.203210648               0.000000000              -0.356485823               0.218823412               0.000000000              -0.380404853               0.234436177               0.000000000              -0.404323882               0.250048941               0.000000000              -0.428242912               0.265661706               0.000000000              -0.452161941               0.281274471               0.000000000              -0.476080971               0.296887235               0.000000000              -0.500000000               0.312500000               0.000000000              -0.110585458               0.073890841               0.000000000              -0.134923867               0.092710163               0.000000000              -0.159262276               0.111529486               0.000000000              -0.183600685               0.130348808               0.000000000              -0.207939094               0.149168131               0.000000000              -0.232277503               0.167987453               0.000000000              -0.256615912               0.186806776               0.000000000              -0.280954320               0.205626098               0.000000000              -0.305292729               0.224445420               0.000000000              -0.329631138               0.243264743               0.000000000              -0.353969547               0.262084065               0.000000000              -0.378307956               0.280903388               0.000000000              -0.402646365               0.299722710               0.000000000              -0.426984773               0.318542033               0.000000000              -0.451323182               0.337361355               0.000000000              -0.475661591               0.356180678               0.000000000              -0.500000000               0.375000000               0.000000000              -0.102810390               0.084374307               0.000000000              -0.127634741               0.106444663               0.000000000              -0.152459092               0.128515018               0.000000000              -0.177283442               0.150585374               0.000000000              -0.202107793               0.172655730               0.000000000              -0.226932143               0.194726086               0.000000000              -0.251756494               0.216796442               0.000000000              -0.276580845               0.238866798               0.000000000              -0.301405195               0.260937153               0.000000000              -0.326229546               0.283007509               0.000000000              -0.351053896               0.305077865               0.000000000              -0.375878247               0.327148221               0.000000000              -0.400702598               0.349218577               0.000000000              -0.425526948               0.371288933               0.000000000              -0.450351299               0.393359288               0.000000000              -0.475175649               0.415429644               0.000000000              -0.500000000               0.437500000               0.000000000              -0.094045202               0.094045202               0.000000000              -0.119417377               0.119417377               0.000000000              -0.144789552               0.144789552               0.000000000              -0.170161727               0.170161727               0.000000000              -0.195533901               0.195533901               0.000000000              -0.220906076               0.220906076               0.000000000              -0.246278251               0.246278251               0.000000000              -0.271650426               0.271650426               0.000000000              -0.297022601               0.297022601               0.000000000              -0.322394776               0.322394776               0.000000000              -0.347766951               0.347766951               0.000000000              -0.373139126               0.373139126               0.000000000              -0.398511300               0.398511300               0.000000000              -0.423883475               0.423883475               0.000000000              -0.449255650               0.449255650               0.000000000              -0.474627825               0.474627825               0.000000000              -0.500000000               0.500000000               0.000000000              -0.084374307               0.102810390               0.000000000              -0.106444663               0.127634741               0.000000000              -0.128515018               0.152459092               0.000000000              -0.150585374               0.177283442               0.000000000              -0.172655730               0.202107793               0.000000000              -0.194726086               0.226932143               0.000000000              -0.216796442               0.251756494               0.000000000              -0.238866798               0.276580845               0.000000000              -0.260937153               0.301405195               0.000000000              -0.283007509               0.326229546               0.000000000              -0.305077865               0.351053896               0.000000000              -0.327148221               0.375878247               0.000000000              -0.349218577               0.400702598               0.000000000              -0.371288933               0.425526948               0.000000000              -0.393359288               0.450351299               0.000000000              -0.415429644               0.475175649               0.000000000              -0.437500000               0.500000000               0.000000000              -0.073890841               0.110585458               0.000000000              -0.092710163               0.134923867               0.000000000              -0.111529486               0.159262276               0.000000000              -0.130348808               0.183600685               0.000000000              -0.149168131               0.207939094               0.000000000              -0.167987453               0.232277503               0.000000000              -0.186806776               0.256615912               0.000000000              -0.205626098               0.280954320               0.000000000              -0.224445420               0.305292729               0.000000000              -0.243264743               0.329631138               0.000000000              -0.262084065               0.353969547               0.000000000              -0.280903388               0.378307956               0.000000000              -0.299722710               0.402646365               0.000000000              -0.318542033               0.426984773               0.000000000              -0.337361355               0.451323182               0.000000000              -0.356180678               0.475661591               0.000000000              -0.375000000               0.500000000               0.000000000              -0.062695766               0.117295528               0.000000000              -0.078308531               0.141214558               0.000000000              -0.093921295               0.165133587               0.000000000              -0.109534060               0.189052617               0.000000000              -0.125146824               0.212971646               0.000000000              -0.140759589               0.236890676               0.000000000              -0.156372354               0.260809705               0.000000000              -0.171985118               0.284728735               0.000000000              -0.187597883               0.308647764               0.000000000              -0.203210648               0.332566794               0.000000000              -0.218823412               0.356485823               0.000000000              -0.234436177               0.380404853               0.000000000              -0.250048941               0.404323882               0.000000000              -0.265661706               0.428242912               0.000000000              -0.281274471               0.452161941               0.000000000              -0.296887235               0.476080971               0.000000000              -0.312500000               0.500000000               0.000000000              -0.050896897               0.122875978               0.000000000              -0.063340840               0.146446229               0.000000000              -0.075784784               0.170016481               0.000000000              -0.088228728               0.193586732               0.000000000              -0.100672672               0.217156983               0.000000000              -0.113116616               0.240727235               0.000000000              -0.125560560               0.264297486               0.000000000              -0.138004504               0.287867738               0.000000000              -0.150448448               0.311437989               0.000000000              -0.162892392               0.335008240               0.000000000              -0.175336336               0.358578492               0.000000000              -0.187780280               0.382148743               0.000000000              -0.200224224               0.405718994               0.000000000              -0.212668168               0.429289246               0.000000000              -0.225112112               0.452859497               0.000000000              -0.237556056               0.476429749               0.000000000              -0.250000000               0.500000000               0.000000000              -0.038607862               0.127273065               0.000000000              -0.047913621               0.150568498               0.000000000              -0.057219379               0.173863932               0.000000000              -0.066525138               0.197159365               0.000000000              -0.075830897               0.220454798               0.000000000              -0.085136655               0.243750232               0.000000000              -0.094442414               0.267045665               0.000000000              -0.103748172               0.290341099               0.000000000              -0.113053931               0.313636532               0.000000000              -0.122359690               0.336931966               0.000000000              -0.131665448               0.360227399               0.000000000              -0.140971207               0.383522833               0.000000000              -0.150276966               0.406818266               0.000000000              -0.159582724               0.430113700               0.000000000              -0.168888483               0.453409133               0.000000000              -0.178194241               0.476704567               0.000000000              -0.187500000               0.500000000               0.000000000              -0.025947013               0.130444442               0.000000000              -0.032137825               0.153541665               0.000000000              -0.038328636               0.176638887               0.000000000              -0.044519448               0.199736109               0.000000000              -0.050710260               0.222833332               0.000000000              -0.056901071               0.245930554               0.000000000              -0.063091883               0.269027776               0.000000000              -0.069282695               0.292124999               0.000000000              -0.075473506               0.315222221               0.000000000              -0.081664318               0.338319444               0.000000000              -0.087855130               0.361416666               0.000000000              -0.094045942               0.384513888               0.000000000              -0.100236753               0.407611111               0.000000000              -0.106427565               0.430708333               0.000000000              -0.112618377               0.453805555               0.000000000              -0.118809188               0.476902778               0.000000000              -0.125000000               0.500000000               0.000000000              -0.013036280               0.132359569               0.000000000              -0.016127762               0.155337096               0.000000000              -0.019219245               0.178314623               0.000000000              -0.022310727               0.201292150               0.000000000              -0.025402210               0.224269676               0.000000000              -0.028493692               0.247247203               0.000000000              -0.031585175               0.270224730               0.000000000              -0.034676657               0.293202257               0.000000000              -0.037768140               0.316179784               0.000000000              -0.040859622               0.339157311               0.000000000              -0.043951105               0.362134838               0.000000000              -0.047042587               0.385112365               0.000000000              -0.050134070               0.408089892               0.000000000              -0.053225552               0.431067419               0.000000000              -0.056317035               0.454044946               0.000000000              -0.059408517               0.477022473               0.000000000              -0.062500000               0.500000000               0.000000000               0.000000000               0.133000000               0.000000000               0.000000000               0.155937500               0.000000000               0.000000000               0.178875000               0.000000000               0.000000000               0.201812500               0.000000000               0.000000000               0.224750000               0.000000000               0.000000000               0.247687500               0.000000000               0.000000000               0.270625000               0.000000000               0.000000000               0.293562500               0.000000000               0.000000000               0.316500000               0.000000000               0.000000000               0.339437500               0.000000000               0.000000000               0.362375000               0.000000000               0.000000000               0.385312500               0.000000000               0.000000000               0.408250000               0.000000000               0.000000000               0.431187500               0.000000000               0.000000000               0.454125000               0.000000000               0.000000000               0.477062500               0.000000000               0.000000000               0.500000000               0.000000000 </DataArray>
</Points>
<Cells>
<DataArray type="Int32"                                    Name="connectivity"                                                      NumberOfComponents=" 1" format="ascii">
         0          1         18         17          1          2         19         18          2          3         20         19          3          4         21         20          4          5         22         21          5          6         23         22          6          7         24         23          7          8         25         24          8          9         26         25          9         10         27         26         10         11         28         27         11         12         29         28         12         13         30         29         13         14         31         30         14         15         32         31         15         16         33         32         17         18         35         34         18         19         36         35         19         20         37         36         20         21         38         37         21         22         39         38         22         23         40         39         23         24         41         40         24         25         42         41         25         26         43         42         26         27         44         43         27         28         45         44         28         29         46         45         29         30         47         46         30         31         48         47         31         32         49         48         32         33         50         49         34         35         52         51         35         36         53         52         36         37         54         53         37         38         55         54         38         39         56         55         39         40         57         56         40         41         58         57         41         42         59         58         42         43         60         59         43         44         61         60         44         45         62         61         45         46         63         62         46         47         64         63         47         48         65         64         48         49         66         65         49         50         67         66         51         52         69         68         52         53         70         69         53         54         71         70         54         55         72         71         55         56         73         72         56         57         74         73         57         58         75         74         58         59         76         75         59         60         77         76         60         61         78         77         61         62         79         78         62         63         80         79         63         64         81         80         64         65         82         81         65         66         83         82         66         67         84         83         68         69         86         85         69         70         87         86         70         71         88         87         71         72         89         88         72         73         90         89         73         74         91         90         74         75         92         91         75         76         93         92         76         77         94         93         77         78         95         94         78         79         96         95         79         80         97         96         80         81         98         97         81         82         99         98         82         83        100         99         83         84        101        100         85         86        103        102         86         87        104        103         87         88        105        104         88         89        106        105         89         90        107        106         90         91        108        107         91         92        109        108         92         93        110        109         93         94        111        110         94         95        112        111         95         96        113        112         96         97        114        113         97         98        115        114         98         99        116        115         99        100        117        116        100        101        118        117        102        103        120        119        103        104        121        120        104        105        122        121        105        106        123        122        106        107        124        123        107        108        125        124        108        109        126        125        109        110        127        126        110        111        128        127        111        112        129        128        112        113        130        129        113        114        131        130        114        115        132        131        115        116        133        132        116        117        134        133        117        118        135        134        119        120        137        136        120        121        138        137        121        122        139        138        122        123        140        139        123        124        141        140        124        125        142        141        125        126        143        142        126        127        144        143        127        128        145        144        128        129        146        145        129        130        147        146        130        131        148        147        131        132        149        148        132        133        150        149        133        134        151        150        134        135        152        151        136        137        154        153        137        138        155        154        138        139        156        155        139        140        157        156        140        141        158        157        141        142        159        158        142        143        160        159        143        144        161        160        144        145        162        161        145        146        163        162        146        147        164        163        147        148        165        164        148        149        166        165        149        150        167        166        150        151        168        167        151        152        169        168        153        154        171        170        154        155        172        171        155        156        173        172        156        157        174        173        157        158        175        174        158        159        176        175        159        160        177        176        160        161        178        177        161        162        179        178        162        163        180        179        163        164        181        180        164        165        182        181        165        166        183        182        166        167        184        183        167        168        185        184        168        169        186        185        170        171        188        187        171        172        189        188        172        173        190        189        173        174        191        190        174        175        192        191        175        176        193        192        176        177        194        193        177        178        195        194        178        179        196        195        179        180        197        196        180        181        198        197        181        182        199        198        182        183        200        199        183        184        201        200        184        185        202        201        185        186        203        202        187        188        205        204        188        189        206        205        189        190        207        206        190        191        208        207        191        192        209        208        192        193        210        209        193        194        211        210        194        195        212        211        195        196        213        212        196        197        214        213        197        198        215        214        198        199        216        215        199        200        217        216        200        201        218        217        201        202        219        218        202        203        220        219        204        205        222        221        205        206        223        222        206        207        224        223        207        208        225        224        208        209        226        225        209        210        227        226        210        211        228        227        211        212        229        228        212        213        230        229        213        214        231        230        214        215        232        231        215        216        233        232        216        217        234        233        217        218        235        234        218        219        236        235        219        220        237        236        221        222        239        238        222        223        240        239        223        224        241        240        224        225        242        241        225        226        243        242        226        227        244        243        227        228        245        244        228        229        246        245        229        230        247        246        230        231        248        247        231        232        249        248        232        233        250        249        233        234        251        250        234        235        252        251        235        236        253        252        236        237        254        253        238        239        256        255        239        240        257        256        240        241        258        257        241        242        259        258        242        243        260        259        243        244        261        260        244        245        262        261        245        246        263        262        246        247        264        263        247        248        265        264        248        249        266        265        249        250        267        266        250        251        268        267        251        252        269        268        252        253        270        269        253        254        271        270        255        256        273        272        256        257        274        273        257        258        275        274        258        259        276        275        259        260        277        276        260        261        278        277        261        262        279        278        262        263        280        279        263        264        281        280        264        265        282        281        265        266        283        282        266        267        284        283        267        268        285        284        268        269        286        285        269        270        287        286        270        271        288        287        306        307          1          0        307        308          2          1        308        309          3          2        309        310          4          3        310        311          5          4        311        312          6          5        312        313          7          6        313        314          8          7        314        315          9          8        315        316         10          9        316        317         11         10        317        318         12         11        318        319         13         12        319        320         14         13        320        321         15         14        321        322         16         15        323        324        307        306        324        325        308        307        325        326        309        308        326        327        310        309        327        328        311        310        328        329        312        311        329        330        313        312        330        331        314        313        331        332        315        314        332        333        316        315        333        334        317        316        334        335        318        317        335        336        319        318        336        337        320        319        337        338        321        320        338        339        322        321        340        341        324        323        341        342        325        324        342        343        326        325        343        344        327        326        344        345        328        327        345        346        329        328        346        347        330        329        347        348        331        330        348        349        332        331        349        350        333        332        350        351        334        333        351        352        335        334        352        353        336        335        353        354        337        336        354        355        338        337        355        356        339        338        357        358        341        340        358        359        342        341        359        360        343        342        360        361        344        343        361        362        345        344        362        363        346        345        363        364        347        346        364        365        348        347        365        366        349        348        366        367        350        349        367        368        351        350        368        369        352        351        369        370        353        352        370        371        354        353        371        372        355        354        372        373        356        355        374        375        358        357        375        376        359        358        376        377        360        359        377        378        361        360        378        379        362        361        379        380        363        362        380        381        364        363        381        382        365        364        382        383        366        365        383        384        367        366        384        385        368        367        385        386        369        368        386        387        370        369        387        388        371        370        388        389        372        371        389        390        373        372        391        392        375        374        392        393        376        375        393        394        377        376        394        395        378        377        395        396        379        378        396        397        380        379        397        398        381        380        398        399        382        381        399        400        383        382        400        401        384        383        401        402        385        384        402        403        386        385        403        404        387        386        404        405        388        387        405        406        389        388        406        407        390        389        408        409        392        391        409        410        393        392        410        411        394        393        411        412        395        394        412        413        396        395        413        414        397        396        414        415        398        397        415        416        399        398        416        417        400        399        417        418        401        400        418        419        402        401        419        420        403        402        420        421        404        403        421        422        405        404        422        423        406        405        423        424        407        406        425        426        409        408        426        427        410        409        427        428        411        410        428        429        412        411        429        430        413        412        430        431        414        413        431        432        415        414        432        433        416        415        433        434        417        416        434        435        418        417        435        436        419        418        436        437        420        419        437        438        421        420        438        439        422        421        439        440        423        422        440        441        424        423        442        443        426        425        443        444        427        426        444        445        428        427        445        446        429        428        446        447        430        429        447        448        431        430        448        449        432        431        449        450        433        432        450        451        434        433        451        452        435        434        452        453        436        435        453        454        437        436        454        455        438        437        455        456        439        438        456        457        440        439        457        458        441        440        459        460        443        442        460        461        444        443        461        462        445        444        462        463        446        445        463        464        447        446        464        465        448        447        465        466        449        448        466        467        450        449        467        468        451        450        468        469        452        451        469        470        453        452        470        471        454        453        471        472        455        454        472        473        456        455        473        474        457        456        474        475        458        457        476        477        460        459        477        478        461        460        478        479        462        461        479        480        463        462        480        481        464        463        481        482        465        464        482        483        466        465        483        484        467        466        484        485        468        467        485        486        469        468        486        487        470        469        487        488        471        470        488        489        472        471        489        490        473        472        490        491        474        473        491        492        475        474        493        494        477        476        494        495        478        477        495        496        479        478        496        497        480        479        497        498        481        480        498        499        482        481        499        500        483        482        500        501        484        483        501        502        485        484        502        503        486        485        503        504        487        486        504        505        488        487        505        506        489        488        506        507        490        489        507        508        491        490        508        509        492        491        510        511        494        493        511        512        495        494        512        513        496        495        513        514        497        496        514        515        498        497        515        516        499        498        516        517        500        499        517        518        501        500        518        519        502        501        519        520        503        502        520        521        504        503        521        522        505        504        522        523        506        505        523        524        507        506        524        525        508        507        525        526        509        508        527        528        511        510        528        529        512        511        529        530        513        512        530        531        514        513        531        532        515        514        532        533        516        515        533        534        517        516        534        535        518        517        535        536        519        518        536        537        520        519        537        538        521        520        538        539        522        521        539        540        523        522        540        541        524        523        541        542        525        524        542        543        526        525        544        545        528        527        545        546        529        528        546        547        530        529        547        548        531        530        548        549        532        531        549        550        533        532        550        551        534        533        551        552        535        534        552        553        536        535        553        554        537        536        554        555        538        537        555        556        539        538        556        557        540        539        557        558        541        540        558        559        542        541        559        560        543        542        561        562        545        544        562        563        546        545        563        564        547        546        564        565        548        547        565        566        549        548        566        567        550        549        567        568        551        550        568        569        552        551        569        570        553        552        570        571        554        553        571        572        555        554        572        573        556        555        573        574        557        556        574        575        558        557        575        576        559        558        576        577        560        559        578        579        596        595        579        580        597        596        580        581        598        597        581        582        599        598        582        583        600        599        583        584        601        600        584        585        602        601        585        586        603        602        586        587        604        603        587        588        605        604        588        589        606        605        589        590        607        606        590        591        608        607        591        592        609        608        592        593        610        609        593        594        611        610        595        596        613        612        596        597        614        613        597        598        615        614        598        599        616        615        599        600        617        616        600        601        618        617        601        602        619        618        602        603        620        619        603        604        621        620        604        605        622        621        605        606        623        622        606        607        624        623        607        608        625        624        608        609        626        625        609        610        627        626        610        611        628        627        612        613        630        629        613        614        631        630        614        615        632        631        615        616        633        632        616        617        634        633        617        618        635        634        618        619        636        635        619        620        637        636        620        621        638        637        621        622        639        638        622        623        640        639        623        624        641        640        624        625        642        641        625        626        643        642        626        627        644        643        627        628        645        644        629        630        647        646        630        631        648        647        631        632        649        648        632        633        650        649        633        634        651        650        634        635        652        651        635        636        653        652        636        637        654        653        637        638        655        654        638        639        656        655        639        640        657        656        640        641        658        657        641        642        659        658        642        643        660        659        643        644        661        660        644        645        662        661        646        647        664        663        647        648        665        664        648        649        666        665        649        650        667        666        650        651        668        667        651        652        669        668        652        653        670        669        653        654        671        670        654        655        672        671        655        656        673        672        656        657        674        673        657        658        675        674        658        659        676        675        659        660        677        676        660        661        678        677        661        662        679        678        663        664        681        680        664        665        682        681        665        666        683        682        666        667        684        683        667        668        685        684        668        669        686        685        669        670        687        686        670        671        688        687        671        672        689        688        672        673        690        689        673        674        691        690        674        675        692        691        675        676        693        692        676        677        694        693        677        678        695        694        678        679        696        695        680        681        698        697        681        682        699        698        682        683        700        699        683        684        701        700        684        685        702        701        685        686        703        702        686        687        704        703        687        688        705        704        688        689        706        705        689        690        707        706        690        691        708        707        691        692        709        708        692        693        710        709        693        694        711        710        694        695        712        711        695        696        713        712        697        698        715        714        698        699        716        715        699        700        717        716        700        701        718        717        701        702        719        718        702        703        720        719        703        704        721        720        704        705        722        721        705        706        723        722        706        707        724        723        707        708        725        724        708        709        726        725        709        710        727        726        710        711        728        727        711        712        729        728        712        713        730        729        714        715        732        731        715        716        733        732        716        717        734        733        717        718        735        734        718        719        736        735        719        720        737        736        720        721        738        737        721        722        739        738        722        723        740        739        723        724        741        740        724        725        742        741        725        726        743        742        726        727        744        743        727        728        745        744        728        729        746        745        729        730        747        746        731        732        749        748        732        733        750        749        733        734        751        750        734        735        752        751        735        736        753        752        736        737        754        753        737        738        755        754        738        739        756        755        739        740        757        756        740        741        758        757        741        742        759        758        742        743        760        759        743        744        761        760        744        745        762        761        745        746        763        762        746        747        764        763        748        749        766        765        749        750        767        766        750        751        768        767        751        752        769        768        752        753        770        769        753        754        771        770        754        755        772        771        755        756        773        772        756        757        774        773        757        758        775        774        758        759        776        775        759        760        777        776        760        761        778        777        761        762        779        778        762        763        780        779        763        764        781        780        765        766        783        782        766        767        784        783        767        768        785        784        768        769        786        785        769        770        787        786        770        771        788        787        771        772        789        788        772        773        790        789        773        774        791        790        774        775        792        791        775        776        793        792        776        777        794        793        777        778        795        794        778        779        796        795        779        780        797        796        780        781        798        797        782        783        800        799        783        784        801        800        784        785        802        801        785        786        803        802        786        787        804        803        787        788        805        804        788        789        806        805        789        790        807        806        790        791        808        807        791        792        809        808        792        793        810        809        793        794        811        810        794        795        812        811        795        796        813        812        796        797        814        813        797        798        815        814        799        800        817        816        800        801        818        817        801        802        819        818        802        803        820        819        803        804        821        820        804        805        822        821        805        806        823        822        806        807        824        823        807        808        825        824        808        809        826        825        809        810        827        826        810        811        828        827        811        812        829        828        812        813        830        829        813        814        831        830        814        815        832        831        816        817        834        833        817        818        835        834        818        819        836        835        819        820        837        836        820        821        838        837        821        822        839        838        822        823        840        839        823        824        841        840        824        825        842        841        825        826        843        842        826        827        844        843        827        828        845        844        828        829        846        845        829        830        847        846        830        831        848        847        831        832        849        848        833        834        562        561        834        835        563        562        835        836        564        563        836        837        565        564        837        838        566        565        838        839        567        566        839        840        568        567        840        841        569        568        841        842        570        569        842        843        571        570        843        844        572        571        844        845        573        572        845        846        574        573        846        847        575        574        847        848        576        575        848        849        577        576        884        885        579        578        885        886        580        579        886        887        581        580        887        888        582        581        888        889        583        582        889        890        584        583        890        891        585        584        891        892        586        585        892        893        587        586        893        894        588        587        894        895        589        588        895        896        590        589        896        897        591        590        897        898        592        591        898        899        593        592        899        900        594        593        901        902        885        884        902        903        886        885        903        904        887        886        904        905        888        887        905        906        889        888        906        907        890        889        907        908        891        890        908        909        892        891        909        910        893        892        910        911        894        893        911        912        895        894        912        913        896        895        913        914        897        896        914        915        898        897        915        916        899        898        916        917        900        899        918        919        902        901        919        920        903        902        920        921        904        903        921        922        905        904        922        923        906        905        923        924        907        906        924        925        908        907        925        926        909        908        926        927        910        909        927        928        911        910        928        929        912        911        929        930        913        912        930        931        914        913        931        932        915        914        932        933        916        915        933        934        917        916        935        936        919        918        936        937        920        919        937        938        921        920        938        939        922        921        939        940        923        922        940        941        924        923        941        942        925        924        942        943        926        925        943        944        927        926        944        945        928        927        945        946        929        928        946        947        930        929        947        948        931        930        948        949        932        931        949        950        933        932        950        951        934        933        952        953        936        935        953        954        937        936        954        955        938        937        955        956        939        938        956        957        940        939        957        958        941        940        958        959        942        941        959        960        943        942        960        961        944        943        961        962        945        944        962        963        946        945        963        964        947        946        964        965        948        947        965        966        949        948        966        967        950        949        967        968        951        950        969        970        953        952        970        971        954        953        971        972        955        954        972        973        956        955        973        974        957        956        974        975        958        957        975        976        959        958        976        977        960        959        977        978        961        960        978        979        962        961        979        980        963        962        980        981        964        963        981        982        965        964        982        983        966        965        983        984        967        966        984        985        968        967        986        987        970        969        987        988        971        970        988        989        972        971        989        990        973        972        990        991        974        973        991        992        975        974        992        993        976        975        993        994        977        976        994        995        978        977        995        996        979        978        996        997        980        979        997        998        981        980        998        999        982        981        999       1000        983        982       1000       1001        984        983       1001       1002        985        984       1003       1004        987        986       1004       1005        988        987       1005       1006        989        988       1006       1007        990        989       1007       1008        991        990       1008       1009        992        991       1009       1010        993        992       1010       1011        994        993       1011       1012        995        994       1012       1013        996        995       1013       1014        997        996       1014       1015        998        997       1015       1016        999        998       1016       1017       1000        999       1017       1018       1001       1000       1018       1019       1002       1001       1020       1021       1004       1003       1021       1022       1005       1004       1022       1023       1006       1005       1023       1024       1007       1006       1024       1025       1008       1007       1025       1026       1009       1008       1026       1027       1010       1009       1027       1028       1011       1010       1028       1029       1012       1011       1029       1030       1013       1012       1030       1031       1014       1013       1031       1032       1015       1014       1032       1033       1016       1015       1033       1034       1017       1016       1034       1035       1018       1017       1035       1036       1019       1018       1037       1038       1021       1020       1038       1039       1022       1021       1039       1040       1023       1022       1040       1041       1024       1023       1041       1042       1025       1024       1042       1043       1026       1025       1043       1044       1027       1026       1044       1045       1028       1027       1045       1046       1029       1028       1046       1047       1030       1029       1047       1048       1031       1030       1048       1049       1032       1031       1049       1050       1033       1032       1050       1051       1034       1033       1051       1052       1035       1034       1052       1053       1036       1035       1054       1055       1038       1037       1055       1056       1039       1038       1056       1057       1040       1039       1057       1058       1041       1040       1058       1059       1042       1041       1059       1060       1043       1042       1060       1061       1044       1043       1061       1062       1045       1044       1062       1063       1046       1045       1063       1064       1047       1046       1064       1065       1048       1047       1065       1066       1049       1048       1066       1067       1050       1049       1067       1068       1051       1050       1068       1069       1052       1051       1069       1070       1053       1052       1071       1072       1055       1054       1072       1073       1056       1055       1073       1074       1057       1056       1074       1075       1058       1057       1075       1076       1059       1058       1076       1077       1060       1059       1077       1078       1061       1060       1078       1079       1062       1061       1079       1080       1063       1062       1080       1081       1064       1063       1081       1082       1065       1064       1082       1083       1066       1065       1083       1084       1067       1066       1084       1085       1068       1067       1085       1086       1069       1068       1086       1087       1070       1069       1088       1089       1072       1071       1089       1090       1073       1072       1090       1091       1074       1073       1091       1092       1075       1074       1092       1093       1076       1075       1093       1094       1077       1076       1094       1095       1078       1077       1095       1096       1079       1078       1096       1097       1080       1079       1097       1098       1081       1080       1098       1099       1082       1081       1099       1100       1083       1082       1100       1101       1084       1083       1101       1102       1085       1084       1102       1103       1086       1085       1103       1104       1087       1086       1105       1106       1089       1088       1106       1107       1090       1089       1107       1108       1091       1090       1108       1109       1092       1091       1109       1110       1093       1092       1110       1111       1094       1093       1111       1112       1095       1094       1112       1113       1096       1095       1113       1114       1097       1096       1114       1115       1098       1097       1115       1116       1099       1098       1116       1117       1100       1099       1117       1118       1101       1100       1118       1119       1102       1101       1119       1120       1103       1102       1120       1121       1104       1103       1122       1123       1106       1105       1123       1124       1107       1106       1124       1125       1108       1107       1125       1126       1109       1108       1126       1127       1110       1109       1127       1128       1111       1110       1128       1129       1112       1111       1129       1130       1113       1112       1130       1131       1114       1113       1131       1132       1115       1114       1132       1133       1116       1115       1133       1134       1117       1116       1134       1135       1118       1117       1135       1136       1119       1118       1136       1137       1120       1119       1137       1138       1121       1120        272        273       1123       1122        273        274       1124       1123        274        275       1125       1124        275        276       1126       1125        276        277       1127       1126        277        278       1128       1127        278        279       1129       1128        279        280       1130       1129        280        281       1131       1130        281        282       1132       1131        282        283       1133       1132        283        284       1134       1133        284        285       1135       1134        285        286       1136       1135        286        287       1137       1136        287        288       1138       1137 </DataArray>
<DataArray type="Int32"                                    Name="offsets"                                                      NumberOfComponents=" 1" format="ascii">
         4          8         12         16         20         24         28         32         36         40         44         48         52         56         60         64         68         72         76         80         84         88         92         96        100        104        108        112        116        120        124        128        132        136        140        144        148        152        156        160        164        168        172        176        180        184        188        192        196        200        204        208        212        216        220        224        228        232        236        240        244        248        252        256        260        264        268        272        276        280        284        288        292        296        300        304        308        312        316        320        324        328        332        336        340        344        348        352        356        360        364        368        372        376        380        384        388        392        396        400        404        408        412        416        420        424        428        432        436        440        444        448        452        456        460        464        468        472        476        480        484        488        492        496        500        504        508        512        516        520        524        528        532        536        540        544        548        552        556        560        564        568        572        576        580        584        588        592        596        600        604        608        612        616        620        624        628        632        636        640        644        648        652        656        660        664        668        672        676        680        684        688        692        696        700        704        708        712        716        720        724        728        732        736        740        744        748        752        756        760        764        768        772        776        780        784        788        792        796        800        804        808        812        816        820        824        828        832        836        840        844        848        852        856        860        864        868        872        876        880        884        888        892        896        900        904        908        912        916        920        924        928        932        936        940        944        948        952        956        960        964        968        972        976        980        984        988        992        996       1000       1004       1008       1012       1016       1020       1024       1028       1032       1036       1040       1044       1048       1052       1056       1060       1064       1068       1072       1076       1080       1084       1088       1092       1096       1100       1104       1108       1112       1116       1120       1124       1128       1132       1136       1140       1144       1148       1152       1156       1160       1164       1168       1172       1176       1180       1184       1188       1192       1196       1200       1204       1208       1212       1216       1220       1224       1228       1232       1236       1240       1244       1248       1252       1256       1260       1264       1268       1272       1276       1280       1284       1288       1292       1296       1300       1304       1308       1312       1316       1320       1324       1328       1332       1336       1340       1344       1348       1352       1356       1360       1364       1368       1372       1376       1380       1384       1388       1392       1396       1400       1404       1408       1412       1416       1420       1424       1428       1432       1436       1440       1444       1448       1452       1456       1460       1464       1468       1472       1476       1480       1484       1488       1492       1496       1500       1504       1508       1512       1516       1520       1524       1528       1532       1536       1540       1544       1548       1552       1556       1560       1564       1568       1572       1576       1580       1584       1588       1592       1596       1600       1604       1608       1612       1616       1620       1624       1628       1632       1636       1640       1644       1648       1652       1656       1660       1664       1668       1672       1676       1680       1684       1688       1692       1696       1700       1704       1708       1712       1716       1720       1724       1728       1732       1736       1740       1744       1748       1752       1756       1760       1764       1768       1772       1776       1780       1784       1788       1792       1796       1800       1804       1808       1812       1816       1820       1824       1828       1832       1836       1840       1844       1848       1852       1856       1860       1864       1868       1872       1876       1880       1884       1888       1892       1896       1900       1904       1908       1912       1916       1920       1924       1928       1932       1936       1940       1944       1948       1952       1956       1960       1964       1968       1972       1976       1980       1984       1988       1992       1996       2000       2004       2008       2012       2016       2020       2024       2028       2032       2036       2040       2044       2048       2052       2056       2060       2064       2068       2072       2076       2080       2084       2088       2092       2096       2100       2104       2108       2112       2116       2120       2124       2128       2132       2136       2140       2144       2148       2152       2156       2160       2164       2168       2172       2176       2180       2184       2188       2192       2196       2200       2204       2208       2212       2216       2220       2224       2228       2232       2236       2240       2244       2248       2252       2256       2260       2264       2268       2272       2276       2280       2284       2288       2292       2296       2300       2304       2308       2312       2316       2320       2324       2328       2332       2336       2340       2344       2348       2352       2356       2360       2364       2368       2372       2376       2380       2384       2388       2392       2396       2400       2404       2408       2412       2416       2420       2424       2428       2432       2436       2440       2444       2448       2452       2456       2460       2464       2468       2472       2476       2480       2484       2488       2492       2496       2500       2504       2508       2512       2516       2520       2524       2528       2532       2536       2540       2544       2548       2552       2556       2560       2564       2568       2572       2576       2580       2584       2588       2592       2596       2600       2604       2608       2612       2616       2620       2624       2628       2632       2636       2640       2644       2648       2652       2656       2660       2664       2668       2672       2676       2680       2684       2688       2692       2696       2700       2704       2708       2712       2716       2720       2724       2728       2732       2736       2740       2744       2748       2752       2756       2760       2764       2768       2772       2776       2780       2784       2788       2792       2796       2800       2804       2808       2812       2816       2820       2824       2828       2832       2836       2840       2844       2848       2852       2856       2860       2864       2868       2872       2876       2880       2884       2888       2892       2896       2900       2904       2908       2912       2916       2920       2924       2928       2932       2936       2940       2944       2948       2952       2956       2960       2964       2968       2972       2976       2980       2984       2988       2992       2996       3000       3004       3008       3012       3016       3020       3024       3028       3032       3036       3040       3044       3048       3052       3056       3060       3064       3068       3072       3076       3080       3084       3088       3092       3096       3100       3104       3108       3112       3116       3120       3124       3128       3132       3136       3140       3144       3148       3152       3156       3160       3164       3168       3172       3176       3180       3184       3188       3192       3196       3200       3204       3208       3212       3216       3220       3224       3228       3232       3236       3240       3244       3248       3252       3256       3260       3264       3268       3272       3276       3280       3284       3288       3292       3296       3300       3304       3308       3312       3316       3320       3324       3328       3332       3336       3340       3344       3348       3352       3356       3360       3364       3368       3372       3376       3380       3384       3388       3392       3396       3400       3404       3408       3412       3416       3420       3424       3428       3432       3436       3440       3444       3448       3452       3456       3460       3464       3468       3472       3476       3480       3484       3488       3492       3496       3500       3504       3508       3512       3516       3520       3524       3528       3532       3536       3540       3544       3548       3552       3556       3560       3564       3568       3572       3576       3580       3584       3588       3592       3596       3600       3604       3608       3612       3616       3620       3624       3628       3632       3636       3640       3644       3648       3652       3656       3660       3664       3668       3672       3676       3680       3684       3688       3692       3696       3700       3704       3708       3712       3716       3720       3724       3728       3732       3736       3740       3744       3748       3752       3756       3760       3764       3768       3772       3776       3780       3784       3788       3792       3796       3800       3804       3808       3812       3816       3820       3824       3828       3832       3836       3840       3844       3848       3852       3856       3860       3864       3868       3872       3876       3880       3884       3888       3892       3896       3900       3904       3908       3912       3916       3920       3924       3928       3932       3936       3940       3944       3948       3952       3956       3960       3964       3968       3972       3976       3980       3984       3988       3992       3996       4000       4004       4008       4012       4016       4020       4024       4028       4032       4036       4040       4044       4048       4052       4056       4060       4064       4068       4072       4076       4080       4084       4088       4092       4096 </DataArray>
<DataArray type="UInt8"                                    Name="types"                                                      NumberOfComponents=" 1" format="ascii">
         9          9          9          9          9          9          9          9          9          9          9          9          9          9          9          9          9          9          9          9          9          9          9          9          9          9          9          9          9          9          9          9          9          9          9          9          9          9          9          9          9          9          9          9          9          9          9          9          9          9          9          9          9          9          9          9          9          9          9          9          9          9          9          9          9          9          9          9          9          9          9          9          9          9          9          9          9          9          9          9          9          9          9          9          9          9          9          9          9          9          9          9          9          9          9          9          9          9          9          9          9          9          9          9          9          9          9          9          9          9          9          9          9          9          9          9          9          9          9          9          9          9          9          9          9          9          9          9          9          9          9          9          9          9          9          9          9          9          9          9          9          9          9          9          9          9          9          9          9          9          9          9          9          9          9          9          9          9          9          9          9          9          9          9          9          9          9          9          9          9          9          9          9          9          9          9          9          9          9          9          9          9          9          9          9          9          9          9          9          9          9          9          9          9          9          9          9          9          9          9          9          9          9          9          9          9          9          9          9          9          9          9          9          9          9          9          9          9          9          9          9          9          9          9          9          9          9          9          9          9          9          9          9          9          9          9          9          9          9          9          9          9          9          9          9          9          9          9          9          9          9          9          9          9          9          9          9          9          9          9          9          9          9          9          9          9          9          9          9          9          9          9          9          9          9          9          9          9          9          9          9          9          9          9          9          9          9          9          9          9          9          9          9          9          9          9          9          9          9          9          9          9          9          9          9          9          9          9          9          9          9          9          9          9          9          9          9          9          9          9          9          9          9          9          9          9          9          9          9          9          9          9          9          9          9          9          9          9          9          9          9          9          9          9          9          9          9          9          9          9          9          9          9          9          9          9          9          9          9          9          9          9          9          9          9          9          9          9          9          9          9          9          9          9          9          9          9          9          9          9          9          9          9          9          9          9          9          9          9          9          9          9          9          9          9          9          9          9          9          9          9          9          9          9          9          9          9          9          9          9          9          9          9          9          9          9          9          9          9          9          9          9          9          9          9          9          9          9          9          9          9          9          9          9          9          9          9          9          9          9          9          9          9          9          9          9          9          9          9          9          9          9          9          9          9          9          9          9          9          9          9          9          9          9          9          9          9          9          9          9          9          9          9          9          9          9          9          9          9          9          9          9          9          9          9          9          9          9          9          9          9          9          9          9          9          9          9          9          9          9          9          9          9          9          9          9          9          9          9          9          9          9          9          9          9          9          9          9          9          9          9          9          9          9          9          9          9          9          9          9          9          9          9          9          9          9          9          9          9          9          9          9          9          9          9          9          9          9          9          9          9          9          9          9          9          9          9          9          9          9          9          9          9          9          9          9          9          9          9          9          9          9          9          9          9          9          9          9          9          9          9          9          9          9          9          9          9          9          9          9          9          9          9          9          9          9          9          9          9          9          9          9          9          9          9          9          9          9          9          9          9          9          9          9          9          9          9          9          9          9          9          9          9          9          9          9          9          9          9          9          9          9          9          9          9          9          9          9          9          9          9          9          9          9          9          9          9          9          9          9          9          9          9          9          9          9          9          9          9          9          9          9          9          9          9          9          9          9          9          9          9          9          9          9          9          9          9          9          9          9          9          9          9          9          9          9          9          9          9          9          9          9          9          9          9          9          9          9          9          9          9          9          9          9          9          9          9          9          9          9          9          9          9          9          9          9          9          9          9          9          9          9          9          9          9          9          9          9          9          9          9          9          9          9          9          9          9          9          9          9          9          9          9          9          9          9          9          9          9          9          9          9          9          9          9          9          9          9          9          9          9          9          9          9          9          9          9          9          9          9          9          9          9          9          9          9          9          9          9          9          9          9          9          9          9          9          9          9          9          9          9          9          9          9          9          9          9          9          9          9          9          9          9          9          9          9          9          9          9          9          9          9          9          9          9          9          9          9          9          9          9          9          9          9          9          9          9          9          9          9          9          9          9          9          9          9          9          9          9          9          9          9          9          9          9          9          9          9          9          9          9          9          9          9          9          9          9          9          9          9          9          9          9          9          9          9          9          9          9          9          9          9          9          9          9          9          9          9          9          9          9          9          9          9          9          9          9          9          9          9          9          9          9          9          9          9          9          9          9          9          9          9          9          9          9          9          9          9          9          9          9          9          9          9          9          9          9          9          9          9          9          9          9          9          9          9          9          9          9          9          9          9          9          9          9          9          9          9          9          9          9          9          9          9          9          9          9          9          9          9          9          9          9          9          9          9          9          9          9          9          9          9          9          9          9          9          9          9          9          9          9          9          9          9          9          9          9          9          9          9          9          9          9          9          9          9          9          9          9          9          9          9          9          9          9          9          9          9          9          9          9          9          9          9          9          9          9          9          9          9          9          9          9          9          9          9          9          9          9          9          9          9          9          9 </DataArray>
</Cells>
<CellData>
<DataArray type="Int32"                                    Name="material"                                                      NumberOfComponents=" 1" format="ascii">
         1          1          1          1          1          1          1          1          1          1          1          1          1          1          1          1          1          1          1          1          1          1          1          1          1          1          1          1          1          1          1          1          1          1          1          1          1          1          1          1          1          1          1          1          1          1          1          1          1          1          1          1          1          1          1          1          1          1          1          1          1          1          1          1          1          1          1          1          1          1          1          1          1          1          1          1          1          1          1          1          1          1          1          1          1          1          1          1          1          1          1          1          1          1          1          1          1          1          1          1          1          1          1          1          1          1          1          1          1          1          1          1          1          1          1          1          1          1          1          1          1          1          1          1          1          1          1          1          1          1          1          1          1          1          1          1          1          1          1          1          1          1          1          1          1          1          1          1          1          1          1          1          1          1          1          1          1          1          1          1          1          1          1          1          1          1          1          1          1          1          1          1          1          1          1          1          1          1          1          1          1          1          1          1          1          1          1          1          1          1          1          1          1          1          1          1          1          1          1          1          1          1          1          1          1          1          1          1          1          1          1          1          1          1          1          1          1          1          1          1          1          1          1          1          1          1          1          1          1          1          1          1          1          1          1          1          1          1          1          1          1          1          1          1          1          1          1          1          1          1          1          1          1          1          1          1          1          1          1          1          1          1          1          1          1          1          1          1          1          1          1          1          1          1          1          1          1          1          1          1          1          1          1          1          1          1          1          1          1          1          1          1          1          1          1          1          1          1          1          1          1          1          1          1          1          1          1          1          1          1          1          1          1          1          1          1          1          1          1          1          1          1          1          1          1          1          1          1          1          1          1          1          1          1          1          1          1          1          1          1          1          1          1          1          1          1          1          1          1          1          1          1          1          1          1          1          1          1          1          1          1          1          1          1          1          1          1          1          1          1          1          1          1          1          1          1          1          1          1          1          1          1          1          1          1          1          1          1          1          1          1          1          1          1          1          1          1          1          1          1          1          1          1          1          1          1          1          1          1          1          1          1          1          1          1          1          1          1          1          1          1          1          1          1          1          1          1          1          1          1          1          1          1          1          1          1          1          1          1          1          1          1          1          1          1          1          1          1          1          1          1          1          1          1          1          1          1          1          1          1          1          1          1          1          1          1          1          1          1          1          1          1          1          1          1          1          1          1          1          1          1          1          1          1          1          1          1          1          1          1          1          1          1          1          1          1          1          1          1          1          1          1          1          1          1          1          1          1          1          1          1          1          1          1          1          1          1          1          1          1          1          1          1          1          1          1          1          1          1          1          1          1          1          1          1          1          1          1          1          1          1          1          1          1          1          1          1          1          1          1          1          1          1          1          1          1          1          1          1          1          1          1          1          1          1          1          1          1          1          1          1          1          1          1          1          1          1          1          1          1          1          1          1          1          1          1          1          1          1          1          1          1          1          1          1          1          1          1          1          1          1          1          1          1          1          1          1          1          1          1          1          1          1          1          1          1          1          1          1          1          1          1          1          1          1          1          1          1          1          1          1          1          1          1          1          1          1          1          1          1          1          1          1          1          1          1          1          1          1          1          1          1          1          1          1          1          1          1          1          1          1          1          1          1          1          1          1          1          1          1          1          1          1          1          1          1          1          1          1          1          1          1          1          1          1          1          1          1          1          1          1          1          1          1          1          1          1          1          1          1          1          1          1          1          1          1          1          1          1          1          1          1          1          1          1          1          1          1          1          1          1          1          1          1          1          1          1          1          1          1          1          1          1          1          1          1          1          1          1          1          1          1          1          1          1          1          1          1          1          1          1          1          1          1          1          1          1          1          1          1          1          1          1          1          1          1          1          1          1          1          1          1          1          1          1          1          1          1          1          1          1          1          1          1          1          1          1          1          1          1          1          1          1          1          1          1          1          1          1          1          1          1          1          1          1          1          1          1          1          1          1          1          1          1          1          1          1          1          1          1          1          1          1          1          1          1          1          1          1          1          1          1          1          1          1          1          1          1          1          1          1          1          1          1          1          1          1          1          1          1          1          1          1          1          1          1          1          1          1          1          1          1          1          1          1          1          1          1          1          1          1          1          1          1          1          1          1          1          1          1          1          1          1          1          1          1          1          1          1          1          1          1          1          1          1          1          1          1          1          1          1          1          1          1          1          1          1          1          1          1          1          1          1          1          1          1          1          1          1          1          1          1          1          1          1          1          1          1          1          1          1          1          1          1          1          1          1          1          1          1          1          1          1          1          1          1          1          1          1          1          1          1          1          1          1          1          1          1          1          1          1          1          1          1          1          1          1          1          1          1          1          1          1          1          1          1          1          1          1          1          1          1          1          1          1          1          1          1          1          1          1          1          1          1          1          1          1          1          1          1          1          1          1          1          1          1          1          1          1          1          1          1          1          1          1          1          1          1          1          1          1          1          1          1 </DataArray>
</CellData>
<PointData>
<DataArray type="Float64"                                    Name="u"                                                      NumberOfComponents=" 3" format="ascii">
             -0.000457373               0.000000000               0.999999985              -0.000499782               0.000000000               0.999999985              -0.000519130               0.000000000               0.999999985              -0.000530654               0.000000000               0.999999985              -0.000539980               0.000000000               0.999999985              -0.000549173               0.000000000               0.999999985              -0.000559177              -0.000000000               0.999999985              -0.000570164               0.000000000               0.999999985              -0.000582195               0.000000000               0.999999985              -0.000595166               0.000000000               0.999999985              -0.000608860               0.000000000               0.999999985              -0.000623229               0.000000000               0.999999985              -0.000638064               0.000000000               0.999999985              -0.000653142               0.000000000               0.999999985              -0.000668144               0.000000000               0.999999985              -0.000682676               0.000000000               0.999999985              -0.000696290              -0.000000000               0.999999985              -0.000454723               0.000108151               0.999999985              -0.000494289               0.000090055               0.999999985              -0.000511904               0.000082936               0.999999985              -0.000522378               0.000081529               0.999999985              -0.000531061               0.000082963               0.999999985              -0.000539857               0.000086024               0.999999985              -0.000549519               0.000089948               0.999999985              -0.000560233               0.000094279               0.999999985              -0.000571910               0.000098710               0.999999985              -0.000584369               0.000102852               0.999999985              -0.000597518               0.000106664               0.999999985              -0.000611213               0.000110015               0.999999985              -0.000625241               0.000112579               0.999999985              -0.000639395               0.000113901               0.999999985              -0.000653383               0.000113542               0.999999985              -0.000666878               0.000111102               0.999999985              -0.000679421               0.000105876               0.999999985              -0.000446826               0.000215079               0.999999985              -0.000478119               0.000179364               0.999999985              -0.000490912               0.000166010               0.999999985              -0.000498551               0.000163881               0.999999985              -0.000505510               0.000167327               0.999999985              -0.000513308               0.000173840               0.999999985              -0.000522207               0.000181968               0.999999985              -0.000532151               0.000190761               0.999999985              -0.000542908               0.000199488               0.999999985              -0.000554238               0.000207839               0.999999985              -0.000565981               0.000215582               0.999999985              -0.000577838               0.000222344               0.999999985              -0.000589647               0.000227541               0.999999985              -0.000601140               0.000230530               0.999999985              -0.000612122               0.000230858               0.999999985              -0.000622476               0.000227849               0.999999985              -0.000632055               0.000220505               0.999999985              -0.000433854               0.000319671               0.999999985              -0.000452205               0.000267386               0.999999985              -0.000458031               0.000249398               0.999999985              -0.000462040               0.000247671               0.999999985              -0.000467062               0.000254050               0.999999985              -0.000473696               0.000264582               0.999999985              -0.000481748               0.000277197               0.999999985              -0.000490792               0.000290469               0.999999985              -0.000500389               0.000303640               0.999999985              -0.000510183               0.000316151               0.999999985              -0.000519850               0.000327697               0.999999985              -0.000529175               0.000337753               0.999999985              -0.000537879               0.000345780               0.999999985              -0.000545851               0.000351165               0.999999985              -0.000552976               0.000353608               0.999999985              -0.000559375               0.000352706               0.999999985              -0.000565371               0.000347840               0.999999985              -0.000416131               0.000420860               0.999999985              -0.000418076               0.000353834               0.999999985              -0.000416289               0.000333102               0.999999985              -0.000416914               0.000333105               0.999999985              -0.000420489               0.000343189               0.999999985              -0.000426369               0.000358159               0.999999985              -0.000433709               0.000375450               0.999999985              -0.000441884               0.000393227               0.999999985              -0.000450194               0.000410687               0.999999985              -0.000458102               0.000427270               0.999999985              -0.000465414               0.000442556               0.999999985              -0.000471842               0.000455905               0.999999985              -0.000477193               0.000466931               0.999999985              -0.000481483               0.000475416               0.999999985              -0.000484965               0.000481275               0.999999985              -0.000487968               0.000484792               0.999999985              -0.000490826               0.000485897               0.999999985              -0.000394251               0.000517543               0.999999985              -0.000377748               0.000438489               0.999999985              -0.000369053               0.000416942               0.999999985              -0.000367430               0.000419816               0.999999985              -0.000370500               0.000433986               0.999999985              -0.000376222               0.000453464               0.999999985              -0.000383207               0.000475336               0.999999985              -0.000390567               0.000497630               0.999999985              -0.000397633               0.000519223               0.999999985              -0.000403852               0.000539553               0.999999985              -0.000408877               0.000558151               0.999999985              -0.000412449               0.000574642               0.999999985              -0.000414749               0.000588882               0.999999985              -0.000416061               0.000601152               0.999999985              -0.000416709               0.000611656               0.999999985              -0.000416952               0.000620619               0.999999985              -0.000416821               0.000628359               0.999999985              -0.000368599               0.000608871               0.999999985              -0.000333365               0.000521167               0.999999985              -0.000319533               0.000500461               0.999999985              -0.000317277               0.000506798               0.999999985              -0.000320839               0.000525158               0.999999985              -0.000326981               0.000549034               0.999999985              -0.000334056               0.000575218               0.999999985              -0.000340942               0.000601689               0.999999985              -0.000346876               0.000627080               0.999999985              -0.000351282               0.000650914               0.999999985              -0.000353965               0.000672684               0.999999985              -0.000354946               0.000692342               0.999999985              -0.000354419               0.000710327               0.999999985              -0.000352672               0.000726842               0.999999985              -0.000350001               0.000742002               0.999999985              -0.000346396               0.000755983               0.999999985              -0.000341733               0.000768413               0.999999985              -0.000339707               0.000694009               0.999999985              -0.000287136               0.000601622               0.999999985              -0.000270563               0.000582873               0.999999985              -0.000269381               0.000592681               0.999999985              -0.000274328               0.000615070               0.999999985              -0.000281456               0.000643057               0.999999985              -0.000288787               0.000673249               0.999999985              -0.000295186               0.000703558               0.999999985              -0.000299761               0.000732550               0.999999985              -0.000302003               0.000759694               0.999999985              -0.000301839               0.000784852               0.999999985              -0.000299382               0.000808212               0.999999985              -0.000295075               0.000829877               0.999999985              -0.000289288               0.000850144               0.999999985              -0.000282110               0.000869087               0.999999985              -0.000273613               0.000886486               0.999999985              -0.000263713               0.000902240               0.999999985              -0.000308771               0.000771462               0.999999985              -0.000240574               0.000679820               0.999999985              -0.000224716               0.000663155               0.999999985              -0.000225846               0.000676002               0.999999985              -0.000232825               0.000702074               0.999999985              -0.000241034               0.000733941               0.999999985              -0.000248563               0.000767968               0.999999985              -0.000254107               0.000801912               0.999999985              -0.000256630               0.000834341               0.999999985              -0.000255724               0.000864952               0.999999985              -0.000251618               0.000893491               0.999999985              -0.000244881               0.000919753               0.999999985              -0.000235980               0.000944222               0.999999985              -0.000225294               0.000967160               0.999999985              -0.000213274               0.000988582               0.999999985              -0.000200134               0.001008531               0.999999985              -0.000186248               0.001027025               0.999999985              -0.000277309               0.000844227               0.999999985              -0.000202390               0.000764644               0.999999985              -0.000183518               0.000743264               0.999999985              -0.000183161               0.000750217               0.999999985              -0.000189352               0.000771299               0.999999985              -0.000197130               0.000799600               0.999999985              -0.000204625               0.000831404               0.999999985              -0.000210579               0.000864439               0.999999985              -0.000213843               0.000897179               0.999999985              -0.000213912               0.000928876               0.999999985              -0.000210562               0.000958778               0.999999985              -0.000204081               0.000986807               0.999999985              -0.000194899               0.001013027               0.999999985              -0.000183352               0.001037502               0.999999985              -0.000170340               0.001060696               0.999999985              -0.000156436               0.001082607               0.999999985              -0.000142081               0.001103296               0.999999985              -0.000242750               0.000910080               0.999999985              -0.000166989               0.000846046               0.999999985              -0.000145176               0.000824664               0.999999985              -0.000142735               0.000827577               0.999999985              -0.000147491               0.000844525               0.999999985              -0.000154388               0.000869579               0.999999985              -0.000161326               0.000899254               0.999999985              -0.000167195               0.000931228               0.999999985              -0.000170945               0.000963995               0.999999985              -0.000171812               0.000996566               0.999999985              -0.000169348               0.001027853               0.999999985              -0.000163444               0.001057392               0.999999985              -0.000154367               0.001085270               0.999999985              -0.000142188               0.001111414               0.999999985              -0.000127591               0.001136107               0.999999985              -0.000111526               0.001159675               0.999999985              -0.000094588               0.001182508               0.999999985              -0.000205935               0.000967482               0.999999985              -0.000134305               0.000921703               0.999999985              -0.000110835               0.000903845               0.999999985              -0.000106157               0.000905370               0.999999985              -0.000108997               0.000919635               0.999999985              -0.000114511               0.000942158               0.999999985              -0.000120451               0.000970017               0.999999985              -0.000125699               0.001001105               0.999999985              -0.000129452               0.001033884               0.999999985              -0.000130789               0.001067336               0.999999985              -0.000129176               0.001100154               0.999999985              -0.000124093               0.001131656               0.999999985              -0.000115462               0.001161383               0.999999985              -0.000103207               0.001189480               0.999999985              -0.000087516               0.001215987               0.999999985              -0.000068890               0.001241104               0.999999985              -0.000048057               0.001265453               0.999999985              -0.000167172               0.001015611               0.999999985              -0.000104218               0.000988658               0.999999985              -0.000081069               0.000976991               0.999999985              -0.000074708               0.000979547               0.999999985              -0.000075568               0.000992906               0.999999985              -0.000079330               0.001014076               0.999999985              -0.000083949               0.001040709               0.999999985              -0.000088349               0.001071133               0.999999985              -0.000091559               0.001104058               0.999999985              -0.000092880               0.001138445               0.999999985              -0.000091992               0.001172928               0.999999985              -0.000087993               0.001206708               0.999999985              -0.000080239               0.001239145               0.999999985              -0.000068527               0.001269959               0.999999985              -0.000052757               0.001299103               0.999999985              -0.000032638               0.001326662               0.999999985              -0.000008076               0.001353021               0.999999985              -0.000126869               0.001053701               0.999999985              -0.000076325               0.001044049               0.999999985              -0.000055883               0.001039853               0.999999985              -0.000049005               0.001045167               0.999999985              -0.000048390               0.001059165               0.999999985              -0.000050519               0.001080069               0.999999985              -0.000053639               0.001106298               0.999999985              -0.000056829               0.001136592               0.999999985              -0.000059267               0.001169934               0.999999985              -0.000060458               0.001205245               0.999999985              -0.000059975               0.001241369               0.999999985              -0.000056964               0.001277550               0.999999985              -0.000050662               0.001313022               0.999999985              -0.000040573               0.001347229               0.999999985              -0.000026170               0.001379833               0.999999985              -0.000006764               0.001410793               0.999999985               0.000018648               0.001440193               0.999999985              -0.000085355               0.001081286               0.999999985              -0.000050034               0.001085471               0.999999985              -0.000034724               0.001088298               0.999999985              -0.000028876               0.001096910               0.999999985              -0.000027661               0.001112347               0.999999985              -0.000028609               0.001133883               0.999999985              -0.000030404               0.001160387               0.999999985              -0.000032267               0.001190956               0.999999985              -0.000033869               0.001224880               0.999999985              -0.000034755               0.001261177               0.999999985              -0.000034469               0.001298861               0.999999985              -0.000032366               0.001337213               0.999999985              -0.000027895               0.001375457               0.999999985              -0.000020476               0.001413076               0.999999985              -0.000009373               0.001449448               0.999999985               0.000006195               0.001484242               0.999999985               0.000027747               0.001517186               0.999999985              -0.000042913               0.001098079               0.999999985              -0.000024762               0.001111173               0.999999985              -0.000016556               0.001118909               0.999999985              -0.000013197               0.001130146               0.999999985              -0.000012321               0.001146894               0.999999985              -0.000012595               0.001169114               0.999999985              -0.000013343               0.001196152               0.999999985              -0.000014171               0.001227143               0.999999985              -0.000014984               0.001261571               0.999999985              -0.000015443               0.001298697               0.999999985              -0.000015273               0.001337525               0.999999985              -0.000014191               0.001377398               0.999999985              -0.000011827               0.001417639               0.999999985              -0.000007788               0.001457762               0.999999985              -0.000001875               0.001497072               0.999999985               0.000006856               0.001535042               0.999999985               0.000019362               0.001570986               0.999999985              -0.000000000               0.001103654               0.999999985              -0.000000000               0.001119841               0.999999985              -0.000000000               0.001129347               0.999999985              -0.000000000               0.001141487               0.999999985               0.000000000               0.001158838               0.999999985               0.000000000               0.001181469               0.999999985              -0.000000000               0.001208685               0.999999985               0.000000000               0.001239857               0.999999985               0.000000000               0.001274478               0.999999985               0.000000000               0.001311966               0.999999985              -0.000000000               0.001351251               0.999999985              -0.000000000               0.001391666               0.999999985              -0.000000000               0.001432610               0.999999985               0.000000000               0.001473549               0.999999985               0.000000000               0.001513935               0.999999985              -0.000000000               0.001553119               0.999999985              -0.000000000               0.001590239               0.999999985              -0.000457373               0.000000000               0.999999985              -0.000499782               0.000000000               0.999999985              -0.000519130               0.000000000               0.999999985              -0.000530654               0.000000000               0.999999985              -0.000539980               0.000000000               0.999999985              -0.000549173               0.000000000               0.999999985              -0.000559177              -0.000000000               0.999999985              -0.000570164               0.000000000               0.999999985              -0.000582195               0.000000000               0.999999985              -0.000595166               0.000000000               0.999999985              -0.000608860               0.000000000               0.999999985              -0.000623229               0.000000000               0.999999985              -0.000638064               0.000000000               0.999999985              -0.000653142               0.000000000               0.999999985              -0.000668144               0.000000000               0.999999985              -0.000682676               0.000000000               0.999999985              -0.000696290              -0.000000000               0.999999985              -0.000454723              -0.000108151               0.999999985              -0.000494289              -0.000090055               0.999999985              -0.000511904              -0.000082936               0.999999985              -0.000522378              -0.000081529               0.999999985              -0.000531061              -0.000082963               0.999999985              -0.000539857              -0.000086024               0.999999985              -0.000549519              -0.000089948               0.999999985              -0.000560233              -0.000094279               0.999999985              -0.000571910              -0.000098710               0.999999985              -0.000584369              -0.000102852               0.999999985              -0.000597518              -0.000106664               0.999999985              -0.000611213              -0.000110015               0.999999985              -0.000625241              -0.000112579               0.999999985              -0.000639395              -0.000113901               0.999999985              -0.000653383              -0.000113542               0.999999985              -0.000666878              -0.000111102               0.999999985              -0.000679421              -0.000105876               0.999999985              -0.000446826              -0.000215079               0.999999985              -0.000478119              -0.000179364               0.999999985              -0.000490912              -0.000166010               0.999999985              -0.000498551              -0.000163881               0.999999985              -0.000505510              -0.000167327               0.999999985              -0.000513308              -0.000173840               0.999999985              -0.000522207              -0.000181968               0.999999985              -0.000532151              -0.000190761               0.999999985              -0.000542908              -0.000199488               0.999999985              -0.000554238              -0.000207839               0.999999985              -0.000565981              -0.000215582               0.999999985              -0.000577838              -0.000222344               0.999999985              -0.000589647              -0.000227541               0.999999985              -0.000601140              -0.000230530               0.999999985              -0.000612122              -0.000230858               0.999999985              -0.000622476              -0.000227849               0.999999985              -0.000632055              -0.000220505               0.999999985              -0.000433854              -0.000319671               0.999999985              -0.000452205              -0.000267386               0.999999985              -0.000458031              -0.000249398               0.999999985              -0.000462040              -0.000247671               0.999999985              -0.000467062              -0.000254050               0.999999985              -0.000473696              -0.000264582               0.999999985              -0.000481748              -0.000277197               0.999999985              -0.000490792              -0.000290469               0.999999985              -0.000500389              -0.000303640               0.999999985              -0.000510183              -0.000316151               0.999999985              -0.000519850              -0.000327697               0.999999985              -0.000529175              -0.000337753               0.999999985              -0.000537879              -0.000345780               0.999999985              -0.000545851              -0.000351165               0.999999985              -0.000552976              -0.000353608               0.999999985              -0.000559375              -0.000352706               0.999999985              -0.000565371              -0.000347840               0.999999985              -0.000416131              -0.000420860               0.999999985              -0.000418076              -0.000353834               0.999999985              -0.000416289              -0.000333102               0.999999985              -0.000416914              -0.000333105               0.999999985              -0.000420489              -0.000343189               0.999999985              -0.000426369              -0.000358159               0.999999985              -0.000433709              -0.000375450               0.999999985              -0.000441884              -0.000393227               0.999999985              -0.000450194              -0.000410687               0.999999985              -0.000458102              -0.000427270               0.999999985              -0.000465414              -0.000442556               0.999999985              -0.000471842              -0.000455905               0.999999985              -0.000477193              -0.000466931               0.999999985              -0.000481483              -0.000475416               0.999999985              -0.000484965              -0.000481275               0.999999985              -0.000487968              -0.000484792               0.999999985              -0.000490826              -0.000485897               0.999999985              -0.000394251              -0.000517543               0.999999985              -0.000377748              -0.000438489               0.999999985              -0.000369053              -0.000416942               0.999999985              -0.000367430              -0.000419816               0.999999985              -0.000370500              -0.000433986               0.999999985              -0.000376222              -0.000453464               0.999999985              -0.000383207              -0.000475336               0.999999985              -0.000390567              -0.000497630               0.999999985              -0.000397633              -0.000519223               0.999999985              -0.000403852              -0.000539553               0.999999985              -0.000408877              -0.000558151               0.999999985              -0.000412449              -0.000574642               0.999999985              -0.000414749              -0.000588882               0.999999985              -0.000416061              -0.000601152               0.999999985              -0.000416709              -0.000611656               0.999999985              -0.000416952              -0.000620619               0.999999985              -0.000416821              -0.000628359               0.999999985              -0.000368599              -0.000608871               0.999999985              -0.000333365              -0.000521167               0.999999985              -0.000319533              -0.000500461               0.999999985              -0.000317277              -0.000506798               0.999999985              -0.000320839              -0.000525158               0.999999985              -0.000326981              -0.000549034               0.999999985              -0.000334056              -0.000575218               0.999999985              -0.000340942              -0.000601689               0.999999985              -0.000346876              -0.000627080               0.999999985              -0.000351282              -0.000650914               0.999999985              -0.000353965              -0.000672684               0.999999985              -0.000354946              -0.000692342               0.999999985              -0.000354419              -0.000710327               0.999999985              -0.000352672              -0.000726842               0.999999985              -0.000350001              -0.000742002               0.999999985              -0.000346396              -0.000755983               0.999999985              -0.000341733              -0.000768413               0.999999985              -0.000339707              -0.000694009               0.999999985              -0.000287136              -0.000601622               0.999999985              -0.000270563              -0.000582873               0.999999985              -0.000269381              -0.000592681               0.999999985              -0.000274328              -0.000615070               0.999999985              -0.000281456              -0.000643057               0.999999985              -0.000288787              -0.000673249               0.999999985              -0.000295186              -0.000703558               0.999999985              -0.000299761              -0.000732550               0.999999985              -0.000302003              -0.000759694               0.999999985              -0.000301839              -0.000784852               0.999999985              -0.000299382              -0.000808212               0.999999985              -0.000295075              -0.000829877               0.999999985              -0.000289288              -0.000850144               0.999999985              -0.000282110              -0.000869087               0.999999985              -0.000273613              -0.000886486               0.999999985              -0.000263713              -0.000902240               0.999999985              -0.000308771              -0.000771462               0.999999985              -0.000240574              -0.000679820               0.999999985              -0.000224716              -0.000663155               0.999999985              -0.000225846              -0.000676002               0.999999985              -0.000232825              -0.000702074               0.999999985              -0.000241034              -0.000733941               0.999999985              -0.000248563              -0.000767968               0.999999985              -0.000254107              -0.000801912               0.999999985              -0.000256630              -0.000834341               0.999999985              -0.000255724              -0.000864952               0.999999985              -0.000251618              -0.000893491               0.999999985              -0.000244881              -0.000919753               0.999999985              -0.000235980              -0.000944222               0.999999985              -0.000225294              -0.000967160               0.999999985              -0.000213274              -0.000988582               0.999999985              -0.000200134              -0.001008531               0.999999985              -0.000186248              -0.001027025               0.999999985              -0.000277309              -0.000844227               0.999999985              -0.000202390              -0.000764644               0.999999985              -0.000183518              -0.000743264               0.999999985              -0.000183161              -0.000750217               0.999999985              -0.000189352              -0.000771299               0.999999985              -0.000197130              -0.000799600               0.999999985              -0.000204625              -0.000831404               0.999999985              -0.000210579              -0.000864439               0.999999985              -0.000213843              -0.000897179               0.999999985              -0.000213912              -0.000928876               0.999999985              -0.000210562              -0.000958778               0.999999985              -0.000204081              -0.000986807               0.999999985              -0.000194899              -0.001013027               0.999999985              -0.000183352              -0.001037502               0.999999985              -0.000170340              -0.001060696               0.999999985              -0.000156436              -0.001082607               0.999999985              -0.000142081              -0.001103296               0.999999985              -0.000242750              -0.000910080               0.999999985              -0.000166989              -0.000846046               0.999999985              -0.000145176              -0.000824664               0.999999985              -0.000142735              -0.000827577               0.999999985              -0.000147491              -0.000844525               0.999999985              -0.000154388              -0.000869579               0.999999985              -0.000161326              -0.000899254               0.999999985              -0.000167195              -0.000931228               0.999999985              -0.000170945              -0.000963995               0.999999985              -0.000171812              -0.000996566               0.999999985              -0.000169348              -0.001027853               0.999999985              -0.000163444              -0.001057392               0.999999985              -0.000154367              -0.001085270               0.999999985              -0.000142188              -0.001111414               0.999999985              -0.000127591              -0.001136107               0.999999985              -0.000111526              -0.001159675               0.999999985              -0.000094588              -0.001182508               0.999999985              -0.000205935              -0.000967482               0.999999985              -0.000134305              -0.000921703               0.999999985              -0.000110835              -0.000903845               0.999999985              -0.000106157              -0.000905370               0.999999985              -0.000108997              -0.000919635               0.999999985              -0.000114511              -0.000942158               0.999999985              -0.000120451              -0.000970017               0.999999985              -0.000125699              -0.001001105               0.999999985              -0.000129452              -0.001033884               0.999999985              -0.000130789              -0.001067336               0.999999985              -0.000129176              -0.001100154               0.999999985              -0.000124093              -0.001131656               0.999999985              -0.000115462              -0.001161383               0.999999985              -0.000103207              -0.001189480               0.999999985              -0.000087516              -0.001215987               0.999999985              -0.000068890              -0.001241104               0.999999985              -0.000048057              -0.001265453               0.999999985              -0.000167172              -0.001015611               0.999999985              -0.000104218              -0.000988658               0.999999985              -0.000081069              -0.000976991               0.999999985              -0.000074708              -0.000979547               0.999999985              -0.000075568              -0.000992906               0.999999985              -0.000079330              -0.001014076               0.999999985              -0.000083949              -0.001040709               0.999999985              -0.000088349              -0.001071133               0.999999985              -0.000091559              -0.001104058               0.999999985              -0.000092880              -0.001138445               0.999999985              -0.000091992              -0.001172928               0.999999985              -0.000087993              -0.001206708               0.999999985              -0.000080239              -0.001239145               0.999999985              -0.000068527              -0.001269959               0.999999985              -0.000052757              -0.001299103               0.999999985              -0.000032638              -0.001326662               0.999999985              -0.000008076              -0.001353021               0.999999985              -0.000126869              -0.001053701               0.999999985              -0.000076325              -0.001044049               0.999999985              -0.000055883              -0.001039853               0.999999985              -0.000049005              -0.001045167               0.999999985              -0.000048390              -0.001059165               0.999999985              -0.000050519              -0.001080069               0.999999985              -0.000053639              -0.001106298               0.999999985              -0.000056829              -0.001136592               0.999999985              -0.000059267              -0.001169934               0.999999985              -0.000060458              -0.001205245               0.999999985              -0.000059975              -0.001241369               0.999999985              -0.000056964              -0.001277550               0.999999985              -0.000050662              -0.001313022               0.999999985              -0.000040573              -0.001347229               0.999999985              -0.000026170              -0.001379833               0.999999985              -0.000006764              -0.001410793               0.999999985               0.000018648              -0.001440193               0.999999985              -0.000085355              -0.001081286               0.999999985              -0.000050034              -0.001085471               0.999999985              -0.000034724              -0.001088298               0.999999985              -0.000028876              -0.001096910               0.999999985              -0.000027661              -0.001112347               0.999999985              -0.000028609              -0.001133883               0.999999985              -0.000030404              -0.001160387               0.999999985              -0.000032267              -0.001190956               0.999999985              -0.000033869              -0.001224880               0.999999985              -0.000034755              -0.001261177               0.999999985              -0.000034469              -0.001298861               0.999999985              -0.000032366              -0.001337213               0.999999985              -0.000027895              -0.001375457               0.999999985              -0.000020476              -0.001413076               0.999999985              -0.000009373              -0.001449448               0.999999985               0.000006195              -0.001484242               0.999999985               0.000027747              -0.001517186               0.999999985              -0.000042913              -0.001098079               0.999999985              -0.000024762              -0.001111173               0.999999985              -0.000016556              -0.001118909               0.999999985              -0.000013197              -0.001130146               0.999999985              -0.000012321              -0.001146894               0.999999985              -0.000012595              -0.001169114               0.999999985              -0.000013343              -0.001196152               0.999999985              -0.000014171              -0.001227143               0.999999985              -0.000014984              -0.001261571               0.999999985              -0.000015443              -0.001298697               0.999999985              -0.000015273              -0.001337525               0.999999985              -0.000014191              -0.001377398               0.999999985              -0.000011827              -0.001417639               0.999999985              -0.000007788              -0.001457762               0.999999985              -0.000001875              -0.001497072               0.999999985               0.000006856              -0.001535042               0.999999985               0.000019362              -0.001570986               0.999999985              -0.000000000              -0.001103654               0.999999985               0.000000000              -0.001119841               0.999999985               0.000000000              -0.001129347               0.999999985              -0.000000000              -0.001141487               0.999999985               0.000000000              -0.001158838               0.999999985              -0.000000000              -0.001181469               0.999999985               0.000000000              -0.001208685               0.999999985               0.000000000              -0.001239857               0.999999985               0.000000000              -0.001274478               0.999999985              -0.000000000              -0.001311966               0.999999985              -0.000000000              -0.001351251               0.999999985               0.000000000              -0.001391666               0.999999985              -0.000000000              -0.001432610               0.999999985              -0.000000000              -0.001473549               0.999999985              -0.000000000              -0.001513935               0.999999985              -0.000000000              -0.001553119               0.999999985               0.000000000              -0.001590239               0.999999985               0.000457373               0.000000000               0.999999985               0.000499782               0.000000000               0.999999985               0.000519130               0.000000000               0.999999985               0.000530654              -0.000000000               0.999999985               0.000539980              -0.000000000               0.999999985               0.000549173              -0.000000000               0.999999985               0.000559177              -0.000000000               0.999999985               0.000570164               0.000000000               0.999999985               0.000582195              -0.000000000               0.999999985               0.000595166               0.000000000               0.999999985               0.000608860               0.000000000               0.999999985               0.000623229              -0.000000000               0.999999985               0.000638064              -0.000000000               0.999999985               0.000653142              -0.000000000               0.999999985               0.000668144              -0.000000000               0.999999985               0.000682676               0.000000000               0.999999985               0.000696290               0.000000000               0.999999985               0.000454723              -0.000108151               0.999999985               0.000494289              -0.000090055               0.999999985               0.000511904              -0.000082936               0.999999985               0.000522378              -0.000081529               0.999999985               0.000531061              -0.000082963               0.999999985               0.000539857              -0.000086024               0.999999985               0.000549519              -0.000089948               0.999999985               0.000560233              -0.000094279               0.999999985               0.000571910              -0.000098710               0.999999985               0.000584369              -0.000102852               0.999999985               0.000597518              -0.000106664               0.999999985               0.000611213              -0.000110015               0.999999985               0.000625241              -0.000112579               0.999999985               0.000639395              -0.000113901               0.999999985               0.000653383              -0.000113542               0.999999985               0.000666878              -0.000111102               0.999999985               0.000679421              -0.000105876               0.999999985               0.000446826              -0.000215079               0.999999985               0.000478119              -0.000179364               0.999999985               0.000490912              -0.000166010               0.999999985               0.000498551              -0.000163881               0.999999985               0.000505510              -0.000167327               0.999999985               0.000513308              -0.000173840               0.999999985               0.000522207              -0.000181968               0.999999985               0.000532151              -0.000190761               0.999999985               0.000542908              -0.000199488               0.999999985               0.000554238              -0.000207839               0.999999985               0.000565981              -0.000215582               0.999999985               0.000577838              -0.000222344               0.999999985               0.000589647              -0.000227541               0.999999985               0.000601140              -0.000230530               0.999999985               0.000612122              -0.000230858               0.999999985               0.000622476              -0.000227849               0.999999985               0.000632055              -0.000220505               0.999999985               0.000433854              -0.000319671               0.999999985               0.000452205              -0.000267386               0.999999985               0.000458031              -0.000249398               0.999999985               0.000462040              -0.000247671               0.999999985               0.000467062              -0.000254050               0.999999985               0.000473696              -0.000264582               0.999999985               0.000481748              -0.000277197               0.999999985               0.000490792              -0.000290469               0.999999985               0.000500389              -0.000303640               0.999999985               0.000510183              -0.000316151               0.999999985               0.000519850              -0.000327697               0.999999985               0.000529175              -0.000337753               0.999999985               0.000537879              -0.000345780               0.999999985               0.000545851              -0.000351165               0.999999985               0.000552976              -0.000353608               0.999999985               0.000559375              -0.000352706               0.999999985               0.000565371              -0.000347840               0.999999985               0.000416131              -0.000420860               0.999999985               0.000418076              -0.000353834               0.999999985               0.000416289              -0.000333102               0.999999985               0.000416914              -0.000333105               0.999999985               0.000420489              -0.000343189               0.999999985               0.000426369              -0.000358159               0.999999985               0.000433709              -0.000375450               0.999999985               0.000441884              -0.000393227               0.999999985               0.000450194              -0.000410687               0.999999985               0.000458102              -0.000427270               0.999999985               0.000465414              -0.000442556               0.999999985               0.000471842              -0.000455905               0.999999985               0.000477193              -0.000466931               0.999999985               0.000481483              -0.000475416               0.999999985               0.000484965              -0.000481275               0.999999985               0.000487968              -0.000484792               0.999999985               0.000490826              -0.000485897               0.999999985               0.000394251              -0.000517543               0.999999985               0.000377748              -0.000438489               0.999999985               0.000369053              -0.000416942               0.999999985               0.000367430              -0.000419816               0.999999985               0.000370500              -0.000433986               0.999999985               0.000376222              -0.000453464               0.999999985               0.000383207              -0.000475336               0.999999985               0.000390567              -0.000497630               0.999999985               0.000397633              -0.000519223               0.999999985               0.000403852              -0.000539553               0.999999985               0.000408877              -0.000558151               0.999999985               0.000412449              -0.000574642               0.999999985               0.000414749              -0.000588882               0.999999985               0.000416061              -0.000601152               0.999999985               0.000416709              -0.000611656               0.999999985               0.000416952              -0.000620619               0.999999985               0.000416821              -0.000628359               0.999999985               0.000368599              -0.000608871               0.999999985               0.000333365              -0.000521167               0.999999985               0.000319533              -0.000500461               0.999999985               0.000317277              -0.000506798               0.999999985               0.000320839              -0.000525158               0.999999985               0.000326981              -0.000549034               0.999999985               0.000334056              -0.000575218               0.999999985               0.000340942              -0.000601689               0.999999985               0.000346876              -0.000627080               0.999999985               0.000351282              -0.000650914               0.999999985               0.000353965              -0.000672684               0.999999985               0.000354946              -0.000692342               0.999999985               0.000354419              -0.000710327               0.999999985               0.000352672              -0.000726842               0.999999985               0.000350001              -0.000742002               0.999999985               0.000346396              -0.000755983               0.999999985               0.000341733              -0.000768413               0.999999985               0.000339707              -0.000694009               0.999999985               0.000287136              -0.000601622               0.999999985               0.000270563              -0.000582873               0.999999985               0.000269381              -0.000592681               0.999999985               0.000274328              -0.000615070               0.999999985               0.000281456              -0.000643057               0.999999985               0.000288787              -0.000673249               0.999999985               0.000295186              -0.000703558               0.999999985               0.000299761              -0.000732550               0.999999985               0.000302003              -0.000759694               0.999999985               0.000301839              -0.000784852               0.999999985               0.000299382              -0.000808212               0.999999985               0.000295075              -0.000829877               0.999999985               0.000289288              -0.000850144               0.999999985               0.000282110              -0.000869087               0.999999985               0.000273613              -0.000886486               0.999999985               0.000263713              -0.000902240               0.999999985               0.000308771              -0.000771462               0.999999985               0.000240574              -0.000679820               0.999999985               0.000224716              -0.000663155               0.999999985               0.000225846              -0.000676002               0.999999985               0.000232825              -0.000702074               0.999999985               0.000241034              -0.000733941               0.999999985               0.000248563              -0.000767968               0.999999985               0.000254107              -0.000801912               0.999999985               0.000256630              -0.000834341               0.999999985               0.000255724              -0.000864952               0.999999985               0.000251618              -0.000893491               0.999999985               0.000244881              -0.000919753               0.999999985               0.000235980              -0.000944222               0.999999985               0.000225294              -0.000967160               0.999999985               0.000213274              -0.000988582               0.999999985               0.000200134              -0.001008531               0.999999985               0.000186248              -0.001027025               0.999999985               0.000277309              -0.000844227               0.999999985               0.000202390              -0.000764644               0.999999985               0.000183518              -0.000743264               0.999999985               0.000183161              -0.000750217               0.999999985               0.000189352              -0.000771299               0.999999985               0.000197130              -0.000799600               0.999999985               0.000204625              -0.000831404               0.999999985               0.000210579              -0.000864439               0.999999985               0.000213843              -0.000897179               0.999999985               0.000213912              -0.000928876               0.999999985               0.000210562              -0.000958778               0.999999985               0.000204081              -0.000986807               0.999999985               0.000194899              -0.001013027               0.999999985               0.000183352              -0.001037502               0.999999985               0.000170340              -0.001060696               0.999999985               0.000156436              -0.001082607               0.999999985               0.000142081              -0.001103296               0.999999985               0.000242750              -0.000910080               0.999999985               0.000166989              -0.000846046               0.999999985               0.000145176              -0.000824664               0.999999985               0.000142735              -0.000827577               0.999999985               0.000147491              -0.000844525               0.999999985               0.000154388              -0.000869579               0.999999985               0.000161326              -0.000899254               0.999999985               0.000167195              -0.000931228               0.999999985               0.000170945              -0.000963995               0.999999985               0.000171812              -0.000996566               0.999999985               0.000169348              -0.001027853               0.999999985               0.000163444              -0.001057392               0.999999985               0.000154367              -0.001085270               0.999999985               0.000142188              -0.001111414               0.999999985               0.000127591              -0.001136107               0.999999985               0.000111526              -0.001159675               0.999999985               0.000094588              -0.001182508               0.999999985               0.000205935              -0.000967482               0.999999985               0.000134305              -0.000921703               0.999999985               0.000110835              -0.000903845               0.999999985               0.000106157              -0.000905370               0.999999985               0.000108997              -0.000919635               0.999999985               0.000114511              -0.000942158               0.999999985               0.000120451              -0.000970017               0.999999985               0.000125699              -0.001001105               0.999999985               0.000129452              -0.001033884               0.999999985               0.000130789              -0.001067336               0.999999985               0.000129176              -0.001100154               0.999999985               0.000124093              -0.001131656               0.999999985               0.000115462              -0.001161383               0.999999985               0.000103207              -0.001189480               0.999999985               0.000087516              -0.001215987               0.999999985               0.000068890              -0.001241104               0.999999985               0.000048057              -0.001265453               0.999999985               0.000167172              -0.001015611               0.999999985               0.000104218              -0.000988658               0.999999985               0.000081069              -0.000976991               0.999999985               0.000074708              -0.000979547               0.999999985               0.000075568              -0.000992906               0.999999985               0.000079330              -0.001014076               0.999999985               0.000083949              -0.001040709               0.999999985               0.000088349              -0.001071133               0.999999985               0.000091559              -0.001104058               0.999999985               0.000092880              -0.001138445               0.999999985               0.000091992              -0.001172928               0.999999985               0.000087993              -0.001206708               0.999999985               0.000080239              -0.001239145               0.999999985               0.000068527              -0.001269959               0.999999985               0.000052757              -0.001299103               0.999999985               0.000032638              -0.001326662               0.999999985               0.000008076              -0.001353021               0.999999985               0.000126869              -0.001053701               0.999999985               0.000076325              -0.001044049               0.999999985               0.000055883              -0.001039853               0.999999985               0.000049005              -0.001045167               0.999999985               0.000048390              -0.001059165               0.999999985               0.000050519              -0.001080069               0.999999985               0.000053639              -0.001106298               0.999999985               0.000056829              -0.001136592               0.999999985               0.000059267              -0.001169934               0.999999985               0.000060458              -0.001205245               0.999999985               0.000059975              -0.001241369               0.999999985               0.000056964              -0.001277550               0.999999985               0.000050662              -0.001313022               0.999999985               0.000040573              -0.001347229               0.999999985               0.000026170              -0.001379833               0.999999985               0.000006764              -0.001410793               0.999999985              -0.000018648              -0.001440193               0.999999985               0.000085355              -0.001081286               0.999999985               0.000050034              -0.001085471               0.999999985               0.000034724              -0.001088298               0.999999985               0.000028876              -0.001096910               0.999999985               0.000027661              -0.001112347               0.999999985               0.000028609              -0.001133883               0.999999985               0.000030404              -0.001160387               0.999999985               0.000032267              -0.001190956               0.999999985               0.000033869              -0.001224880               0.999999985               0.000034755              -0.001261177               0.999999985               0.000034469              -0.001298861               0.999999985               0.000032366              -0.001337213               0.999999985               0.000027895              -0.001375457               0.999999985               0.000020476              -0.001413076               0.999999985               0.000009373              -0.001449448               0.999999985              -0.000006195              -0.001484242               0.999999985              -0.000027747              -0.001517186               0.999999985               0.000042913              -0.001098079               0.999999985               0.000024762              -0.001111173               0.999999985               0.000016556              -0.001118909               0.999999985               0.000013197              -0.001130146               0.999999985               0.000012321              -0.001146894               0.999999985               0.000012595              -0.001169114               0.999999985               0.000013343              -0.001196152               0.999999985               0.000014171              -0.001227143               0.999999985               0.000014984              -0.001261571               0.999999985               0.000015443              -0.001298697               0.999999985               0.000015273              -0.001337525               0.999999985               0.000014191              -0.001377398               0.999999985               0.000011827              -0.001417639               0.999999985               0.000007788              -0.001457762               0.999999985               0.000001875              -0.001497072               0.999999985              -0.000006856              -0.001535042               0.999999985              -0.000019362              -0.001570986               0.999999985              -0.000000000              -0.001103654               0.999999985               0.000000000              -0.001119841               0.999999985               0.000000000              -0.001129347               0.999999985              -0.000000000              -0.001141487               0.999999985               0.000000000              -0.001158838               0.999999985              -0.000000000              -0.001181469               0.999999985               0.000000000              -0.001208685               0.999999985               0.000000000              -0.001239857               0.999999985               0.000000000              -0.001274478               0.999999985              -0.000000000              -0.001311966               0.999999985              -0.000000000              -0.001351251               0.999999985               0.000000000              -0.001391666               0.999999985              -0.000000000              -0.001432610               0.999999985              -0.000000000              -0.001473549               0.999999985              -0.000000000              -0.001513935               0.999999985              -0.000000000              -0.001553119               0.999999985               0.000000000              -0.001590239               0.999999985               0.000457373               0.000000000               0.999999985               0.000499782               0.000000000               0.999999985               0.000519130               0.000000000               0.999999985               0.000530654              -0.000000000               0.999999985               0.000539980              -0.000000000               0.999999985               0.000549173              -0.000000000               0.999999985               0.000559177              -0.000000000               0.999999985               0.000570164               0.000000000               0.999999985               0.000582195              -0.000000000               0.999999985               0.000595166               0.000000000               0.999999985               0.000608860               0.000000000               0.999999985               0.000623229              -0.000000000               0.999999985               0.000638064              -0.000000000               0.999999985               0.000653142              -0.000000000               0.999999985               0.000668144              -0.000000000               0.999999985               0.000682676               0.000000000               0.999999985               0.000696290               0.000000000               0.999999985               0.000454723               0.000108151               0.999999985               0.000494289               0.000090055               0.999999985               0.000511904               0.000082936               0.999999985               0.000522378               0.000081529               0.999999985               0.000531061               0.000082963               0.999999985               0.000539857               0.000086024               0.999999985               0.000549519               0.000089948               0.999999985               0.000560233               0.000094279               0.999999985               0.000571910               0.000098710               0.999999985               0.000584369               0.000102852               0.999999985               0.000597518               0.000106664               0.999999985               0.000611213               0.000110015               0.999999985               0.000625241               0.000112579               0.999999985               0.000639395               0.000113901               0.999999985               0.000653383               0.000113542               0.999999985               0.000666878               0.000111102               0.999999985               0.000679421               0.000105876               0.999999985               0.000446826               0.000215079               0.999999985               0.000478119               0.000179364               0.999999985               0.000490912               0.000166010               0.999999985               0.000498551               0.000163881               0.999999985               0.000505510               0.000167327               0.999999985               0.000513308               0.000173840               0.999999985               0.000522207               0.000181968               0.999999985               0.000532151               0.000190761               0.999999985               0.000542908               0.000199488               0.999999985               0.000554238               0.000207839               0.999999985               0.000565981               0.000215582               0.999999985               0.000577838               0.000222344               0.999999985               0.000589647               0.000227541               0.999999985               0.000601140               0.000230530               0.999999985               0.000612122               0.000230858               0.999999985               0.000622476               0.000227849               0.999999985               0.000632055               0.000220505               0.999999985               0.000433854               0.000319671               0.999999985               0.000452205               0.000267386               0.999999985               0.000458031               0.000249398               0.999999985               0.000462040               0.000247671               0.999999985               0.000467062               0.000254050               0.999999985               0.000473696               0.000264582               0.999999985               0.000481748               0.000277197               0.999999985               0.000490792               0.000290469               0.999999985               0.000500389               0.000303640               0.999999985               0.000510183               0.000316151               0.999999985               0.000519850               0.000327697               0.999999985               0.000529175               0.000337753               0.999999985               0.000537879               0.000345780               0.999999985               0.000545851               0.000351165               0.999999985               0.000552976               0.000353608               0.999999985               0.000559375               0.000352706               0.999999985               0.000565371               0.000347840               0.999999985               0.000416131               0.000420860               0.999999985               0.000418076               0.000353834               0.999999985               0.000416289               0.000333102               0.999999985               0.000416914               0.000333105               0.999999985               0.000420489               0.000343189               0.999999985               0.000426369               0.000358159               0.999999985               0.000433709               0.000375450               0.999999985               0.000441884               0.000393227               0.999999985               0.000450194               0.000410687               0.999999985               0.000458102               0.000427270               0.999999985               0.000465414               0.000442556               0.999999985               0.000471842               0.000455905               0.999999985               0.000477193               0.000466931               0.999999985               0.000481483               0.000475416               0.999999985               0.000484965               0.000481275               0.999999985               0.000487968               0.000484792               0.999999985               0.000490826               0.000485897               0.999999985               0.000394251               0.000517543               0.999999985               0.000377748               0.000438489               0.999999985               0.000369053               0.000416942               0.999999985               0.000367430               0.000419816               0.999999985               0.000370500               0.000433986               0.999999985               0.000376222               0.000453464               0.999999985               0.000383207               0.000475336               0.999999985               0.000390567               0.000497630               0.999999985               0.000397633               0.000519223               0.999999985               0.000403852               0.000539553               0.999999985               0.000408877               0.000558151               0.999999985               0.000412449               0.000574642               0.999999985               0.000414749               0.000588882               0.999999985               0.000416061               0.000601152               0.999999985               0.000416709               0.000611656               0.999999985               0.000416952               0.000620619               0.999999985               0.000416821               0.000628359               0.999999985               0.000368599               0.000608871               0.999999985               0.000333365               0.000521167               0.999999985               0.000319533               0.000500461               0.999999985               0.000317277               0.000506798               0.999999985               0.000320839               0.000525158               0.999999985               0.000326981               0.000549034               0.999999985               0.000334056               0.000575218               0.999999985               0.000340942               0.000601689               0.999999985               0.000346876               0.000627080               0.999999985               0.000351282               0.000650914               0.999999985               0.000353965               0.000672684               0.999999985               0.000354946               0.000692342               0.999999985               0.000354419               0.000710327               0.999999985               0.000352672               0.000726842               0.999999985               0.000350001               0.000742002               0.999999985               0.000346396               0.000755983               0.999999985               0.000341733               0.000768413               0.999999985               0.000339707               0.000694009               0.999999985               0.000287136               0.000601622               0.999999985               0.000270563               0.000582873               0.999999985               0.000269381               0.000592681               0.999999985               0.000274328               0.000615070               0.999999985               0.000281456               0.000643057               0.999999985               0.000288787               0.000673249               0.999999985               0.000295186               0.000703558               0.999999985               0.000299761               0.000732550               0.999999985               0.000302003               0.000759694               0.999999985               0.000301839               0.000784852               0.999999985               0.000299382               0.000808212               0.999999985               0.000295075               0.000829877               0.999999985               0.000289288               0.000850144               0.999999985               0.000282110               0.000869087               0.999999985               0.000273613               0.000886486               0.999999985               0.000263713               0.000902240               0.999999985               0.000308771               0.000771462               0.999999985               0.000240574               0.000679820               0.999999985               0.000224716               0.000663155               0.999999985               0.000225846               0.000676002               0.999999985               0.000232825               0.000702074               0.999999985               0.000241034               0.000733941               0.999999985               0.000248563               0.000767968               0.999999985               0.000254107               0.000801912               0.999999985               0.000256630               0.000834341               0.999999985               0.000255724               0.000864952               0.999999985               0.000251618               0.000893491               0.999999985               0.000244881               0.000919753               0.999999985               0.000235980               0.000944222               0.999999985               0.000225294               0.000967160               0.999999985               0.000213274               0.000988582               0.999999985               0.000200134               0.001008531               0.999999985               0.000186248               0.001027025               0.999999985               0.000277309               0.000844227               0.999999985               0.000202390               0.000764644               0.999999985               0.000183518               0.000743264               0.999999985               0.000183161               0.000750217               0.999999985               0.000189352               0.000771299               0.999999985               0.000197130               0.000799600               0.999999985               0.000204625               0.000831404               0.999999985               0.000210579               0.000864439               0.999999985               0.000213843               0.000897179               0.999999985               0.000213912               0.000928876               0.999999985               0.000210562               0.000958778               0.999999985               0.000204081               0.000986807               0.999999985               0.000194899               0.001013027               0.999999985               0.000183352               0.001037502               0.999999985               0.000170340               0.001060696               0.999999985               0.000156436               0.001082607               0.999999985               0.000142081               0.001103296               0.999999985               0.000242750               0.000910080               0.999999985               0.000166989               0.000846046               0.999999985               0.000145176               0.000824664               0.999999985               0.000142735               0.000827577               0.999999985               0.000147491               0.000844525               0.999999985               0.000154388               0.000869579               0.999999985               0.000161326               0.000899254               0.999999985               0.000167195               0.000931228               0.999999985               0.000170945               0.000963995               0.999999985               0.000171812               0.000996566               0.999999985               0.000169348               0.001027853               0.999999985               0.000163444               0.001057392               0.999999985               0.000154367               0.001085270               0.999999985               0.000142188               0.001111414               0.999999985               0.000127591               0.001136107               0.999999985               0.000111526               0.001159675               0.999999985               0.000094588               0.001182508               0.999999985               0.000205935               0.000967482               0.999999985               0.000134305               0.000921703               0.999999985               0.000110835               0.000903845               0.999999985               0.000106157               0.000905370               0.999999985               0.000108997               0.000919635               0.999999985               0.000114511               0.000942158               0.999999985               0.000120451               0.000970017               0.999999985               0.000125699               0.001001105               0.999999985               0.000129452               0.001033884               0.999999985               0.000130789               0.001067336               0.999999985               0.000129176               0.001100154               0.999999985               0.000124093               0.001131656               0.999999985               0.000115462               0.001161383               0.999999985               0.000103207               0.001189480               0.999999985               0.000087516               0.001215987               0.999999985               0.000068890               0.001241104               0.999999985               0.000048057               0.001265453               0.999999985               0.000167172               0.001015611               0.999999985               0.000104218               0.000988658               0.999999985               0.000081069               0.000976991               0.999999985               0.000074708               0.000979547               0.999999985               0.000075568               0.000992906               0.999999985               0.000079330               0.001014076               0.999999985               0.000083949               0.001040709               0.999999985               0.000088349               0.001071133               0.999999985               0.000091559               0.001104058               0.999999985               0.000092880               0.001138445               0.999999985               0.000091992               0.001172928               0.999999985               0.000087993               0.001206708               0.999999985               0.000080239               0.001239145               0.999999985               0.000068527               0.001269959               0.999999985               0.000052757               0.001299103               0.999999985               0.000032638               0.001326662               0.999999985               0.000008076               0.001353021               0.999999985               0.000126869               0.001053701               0.999999985               0.000076325               0.001044049               0.999999985               0.000055883               0.001039853               0.999999985               0.000049005               0.001045167               0.999999985               0.000048390               0.001059165               0.999999985               0.000050519               0.001080069               0.999999985               0.000053639               0.001106298               0.999999985               0.000056829               0.001136592               0.999999985               0.000059267               0.001169934               0.999999985               0.000060458               0.001205245               0.999999985               0.000059975               0.001241369               0.999999985               0.000056964               0.001277550               0.999999985               0.000050662               0.001313022               0.999999985               0.000040573               0.001347229               0.999999985               0.000026170               0.001379833               0.999999985               0.000006764               0.001410793               0.999999985              -0.000018648               0.001440193               0.999999985               0.000085355               0.001081286               0.999999985               0.000050034               0.001085471               0.999999985               0.000034724               0.001088298               0.999999985               0.000028876               0.001096910               0.999999985               0.000027661               0.001112347               0.999999985               0.000028609               0.001133883               0.999999985               0.000030404               0.001160387               0.999999985               0.000032267               0.001190956               0.999999985               0.000033869               0.001224880               0.999999985               0.000034755               0.001261177               0.999999985               0.000034469               0.001298861               0.999999985               0.000032366               0.001337213               0.999999985               0.000027895               0.001375457               0.999999985               0.000020476               0.001413076               0.999999985               0.000009373               0.001449448               0.999999985              -0.000006195               0.001484242               0.999999985              -0.000027747               0.001517186               0.999999985               0.000042913               0.001098079               0.999999985               0.000024762               0.001111173               0.999999985               0.000016556               0.001118909               0.999999985               0.000013197               0.001130146               0.999999985               0.000012321               0.001146894               0.999999985               0.000012595               0.001169114               0.999999985               0.000013343               0.001196152               0.999999985               0.000014171               0.001227143               0.999999985               0.000014984               0.001261571               0.999999985               0.000015443               0.001298697               0.999999985               0.000015273               0.001337525               0.999999985               0.000014191               0.001377398               0.999999985               0.000011827               0.001417639               0.999999985               0.000007788               0.001457762               0.999999985               0.000001875               0.001497072               0.999999985              -0.000006856               0.001535042               0.999999985              -0.000019362               0.001570986               0.999999985              -0.000000000               0.001103654               0.999999985              -0.000000000               0.001119841               0.999999985              -0.000000000               0.001129347               0.999999985              -0.000000000               0.001141487               0.999999985               0.000000000               0.001158838               0.999999985               0.000000000               0.001181469               0.999999985              -0.000000000               0.001208685               0.999999985               0.000000000               0.001239857               0.999999985               0.000000000               0.001274478               0.999999985               0.000000000               0.001311966               0.999999985              -0.000000000               0.001351251               0.999999985              -0.000000000               0.001391666               0.999999985              -0.000000000               0.001432610               0.999999985               0.000000000               0.001473549               0.999999985               0.000000000               0.001513935               0.999999985              -0.000000000               0.001553119               0.999999985              -0.000000000               0.001590239               0.999999985 </DataArray>
<DataArray type="Float64"                                    Name="defo"                                                      NumberOfComponents=" 3" format="ascii">
             -0.000457373               0.000000000               0.999999985              -0.000499782               0.000000000               0.999999985              -0.000519130               0.000000000               0.999999985              -0.000530654               0.000000000               0.999999985              -0.000539980               0.000000000               0.999999985              -0.000549173               0.000000000               0.999999985              -0.000559177              -0.000000000               0.999999985              -0.000570164               0.000000000               0.999999985              -0.000582195               0.000000000               0.999999985              -0.000595166               0.000000000               0.999999985              -0.000608860               0.000000000               0.999999985              -0.000623229               0.000000000               0.999999985              -0.000638064               0.000000000               0.999999985              -0.000653142               0.000000000               0.999999985              -0.000668144               0.000000000               0.999999985              -0.000682676               0.000000000               0.999999985              -0.000696290              -0.000000000               0.999999985              -0.000454723               0.000108151               0.999999985              -0.000494289               0.000090055               0.999999985              -0.000511904               0.000082936               0.999999985              -0.000522378               0.000081529               0.999999985              -0.000531061               0.000082963               0.999999985              -0.000539857               0.000086024               0.999999985              -0.000549519               0.000089948               0.999999985              -0.000560233               0.000094279               0.999999985              -0.000571910               0.000098710               0.999999985              -0.000584369               0.000102852               0.999999985              -0.000597518               0.000106664               0.999999985              -0.000611213               0.000110015               0.999999985              -0.000625241               0.000112579               0.999999985              -0.000639395               0.000113901               0.999999985              -0.000653383               0.000113542               0.999999985              -0.000666878               0.000111102               0.999999985              -0.000679421               0.000105876               0.999999985              -0.000446826               0.000215079               0.999999985              -0.000478119               0.000179364               0.999999985              -0.000490912               0.000166010               0.999999985              -0.000498551               0.000163881               0.999999985              -0.000505510               0.000167327               0.999999985              -0.000513308               0.000173840               0.999999985              -0.000522207               0.000181968               0.999999985              -0.000532151               0.000190761               0.999999985              -0.000542908               0.000199488               0.999999985              -0.000554238               0.000207839               0.999999985              -0.000565981               0.000215582               0.999999985              -0.000577838               0.000222344               0.999999985              -0.000589647               0.000227541               0.999999985              -0.000601140               0.000230530               0.999999985              -0.000612122               0.000230858               0.999999985              -0.000622476               0.000227849               0.999999985              -0.000632055               0.000220505               0.999999985              -0.000433854               0.000319671               0.999999985              -0.000452205               0.000267386               0.999999985              -0.000458031               0.000249398               0.999999985              -0.000462040               0.000247671               0.999999985              -0.000467062               0.000254050               0.999999985              -0.000473696               0.000264582               0.999999985              -0.000481748               0.000277197               0.999999985              -0.000490792               0.000290469               0.999999985              -0.000500389               0.000303640               0.999999985              -0.000510183               0.000316151               0.999999985              -0.000519850               0.000327697               0.999999985              -0.000529175               0.000337753               0.999999985              -0.000537879               0.000345780               0.999999985              -0.000545851               0.000351165               0.999999985              -0.000552976               0.000353608               0.999999985              -0.000559375               0.000352706               0.999999985              -0.000565371               0.000347840               0.999999985              -0.000416131               0.000420860               0.999999985              -0.000418076               0.000353834               0.999999985              -0.000416289               0.000333102               0.999999985              -0.000416914               0.000333105               0.999999985              -0.000420489               0.000343189               0.999999985              -0.000426369               0.000358159               0.999999985              -0.000433709               0.000375450               0.999999985              -0.000441884               0.000393227               0.999999985              -0.000450194               0.000410687               0.999999985              -0.000458102               0.000427270               0.999999985              -0.000465414               0.000442556               0.999999985              -0.000471842               0.000455905               0.999999985              -0.000477193               0.000466931               0.999999985              -0.000481483               0.000475416               0.999999985              -0.000484965               0.000481275               0.999999985              -0.000487968               0.000484792               0.999999985              -0.000490826               0.000485897               0.999999985              -0.000394251               0.000517543               0.999999985              -0.000377748               0.000438489               0.999999985              -0.000369053               0.000416942               0.999999985              -0.000367430               0.000419816               0.999999985              -0.000370500               0.000433986               0.999999985              -0.000376222               0.000453464               0.999999985              -0.000383207               0.000475336               0.999999985              -0.000390567               0.000497630               0.999999985              -0.000397633               0.000519223               0.999999985              -0.000403852               0.000539553               0.999999985              -0.000408877               0.000558151               0.999999985              -0.000412449               0.000574642               0.999999985              -0.000414749               0.000588882               0.999999985              -0.000416061               0.000601152               0.999999985              -0.000416709               0.000611656               0.999999985              -0.000416952               0.000620619               0.999999985              -0.000416821               0.000628359               0.999999985              -0.000368599               0.000608871               0.999999985              -0.000333365               0.000521167               0.999999985              -0.000319533               0.000500461               0.999999985              -0.000317277               0.000506798               0.999999985              -0.000320839               0.000525158               0.999999985              -0.000326981               0.000549034               0.999999985              -0.000334056               0.000575218               0.999999985              -0.000340942               0.000601689               0.999999985              -0.000346876               0.000627080               0.999999985              -0.000351282               0.000650914               0.999999985              -0.000353965               0.000672684               0.999999985              -0.000354946               0.000692342               0.999999985              -0.000354419               0.000710327               0.999999985              -0.000352672               0.000726842               0.999999985              -0.000350001               0.000742002               0.999999985              -0.000346396               0.000755983               0.999999985              -0.000341733               0.000768413               0.999999985              -0.000339707               0.000694009               0.999999985              -0.000287136               0.000601622               0.999999985              -0.000270563               0.000582873               0.999999985              -0.000269381               0.000592681               0.999999985              -0.000274328               0.000615070               0.999999985              -0.000281456               0.000643057               0.999999985              -0.000288787               0.000673249               0.999999985              -0.000295186               0.000703558               0.999999985              -0.000299761               0.000732550               0.999999985              -0.000302003               0.000759694               0.999999985              -0.000301839               0.000784852               0.999999985              -0.000299382               0.000808212               0.999999985              -0.000295075               0.000829877               0.999999985              -0.000289288               0.000850144               0.999999985              -0.000282110               0.000869087               0.999999985              -0.000273613               0.000886486               0.999999985              -0.000263713               0.000902240               0.999999985              -0.000308771               0.000771462               0.999999985              -0.000240574               0.000679820               0.999999985              -0.000224716               0.000663155               0.999999985              -0.000225846               0.000676002               0.999999985              -0.000232825               0.000702074               0.999999985              -0.000241034               0.000733941               0.999999985              -0.000248563               0.000767968               0.999999985              -0.000254107               0.000801912               0.999999985              -0.000256630               0.000834341               0.999999985              -0.000255724               0.000864952               0.999999985              -0.000251618               0.000893491               0.999999985              -0.000244881               0.000919753               0.999999985              -0.000235980               0.000944222               0.999999985              -0.000225294               0.000967160               0.999999985              -0.000213274               0.000988582               0.999999985              -0.000200134               0.001008531               0.999999985              -0.000186248               0.001027025               0.999999985              -0.000277309               0.000844227               0.999999985              -0.000202390               0.000764644               0.999999985              -0.000183518               0.000743264               0.999999985              -0.000183161               0.000750217               0.999999985              -0.000189352               0.000771299               0.999999985              -0.000197130               0.000799600               0.999999985              -0.000204625               0.000831404               0.999999985              -0.000210579               0.000864439               0.999999985              -0.000213843               0.000897179               0.999999985              -0.000213912               0.000928876               0.999999985              -0.000210562               0.000958778               0.999999985              -0.000204081               0.000986807               0.999999985              -0.000194899               0.001013027               0.999999985              -0.000183352               0.001037502               0.999999985              -0.000170340               0.001060696               0.999999985              -0.000156436               0.001082607               0.999999985              -0.000142081               0.001103296               0.999999985              -0.000242750               0.000910080               0.999999985              -0.000166989               0.000846046               0.999999985              -0.000145176               0.000824664               0.999999985              -0.000142735               0.000827577               0.999999985              -0.000147491               0.000844525               0.999999985              -0.000154388               0.000869579               0.999999985              -0.000161326               0.000899254               0.999999985              -0.000167195               0.000931228               0.999999985              -0.000170945               0.000963995               0.999999985              -0.000171812               0.000996566               0.999999985              -0.000169348               0.001027853               0.999999985              -0.000163444               0.001057392               0.999999985              -0.000154367               0.001085270               0.999999985              -0.000142188               0.001111414               0.999999985              -0.000127591               0.001136107               0.999999985              -0.000111526               0.001159675               0.999999985              -0.000094588               0.001182508               0.999999985              -0.000205935               0.000967482               0.999999985              -0.000134305               0.000921703               0.999999985              -0.000110835               0.000903845               0.999999985              -0.000106157               0.000905370               0.999999985              -0.000108997               0.000919635               0.999999985              -0.000114511               0.000942158               0.999999985              -0.000120451               0.000970017               0.999999985              -0.000125699               0.001001105               0.999999985              -0.000129452               0.001033884               0.999999985              -0.000130789               0.001067336               0.999999985              -0.000129176               0.001100154               0.999999985              -0.000124093               0.001131656               0.999999985              -0.000115462               0.001161383               0.999999985              -0.000103207               0.001189480               0.999999985              -0.000087516               0.001215987               0.999999985              -0.000068890               0.001241104               0.999999985              -0.000048057               0.001265453               0.999999985              -0.000167172               0.001015611               0.999999985              -0.000104218               0.000988658               0.999999985              -0.000081069               0.000976991               0.999999985              -0.000074708               0.000979547               0.999999985              -0.000075568               0.000992906               0.999999985              -0.000079330               0.001014076               0.999999985              -0.000083949               0.001040709               0.999999985              -0.000088349               0.001071133               0.999999985              -0.000091559               0.001104058               0.999999985              -0.000092880               0.001138445               0.999999985              -0.000091992               0.001172928               0.999999985              -0.000087993               0.001206708               0.999999985              -0.000080239               0.001239145               0.999999985              -0.000068527               0.001269959               0.999999985              -0.000052757               0.001299103               0.999999985              -0.000032638               0.001326662               0.999999985              -0.000008076               0.001353021               0.999999985              -0.000126869               0.001053701               0.999999985              -0.000076325               0.001044049               0.999999985              -0.000055883               0.001039853               0.999999985              -0.000049005               0.001045167               0.999999985              -0.000048390               0.001059165               0.999999985              -0.000050519               0.001080069               0.999999985              -0.000053639               0.001106298               0.999999985              -0.000056829               0.001136592               0.999999985              -0.000059267               0.001169934               0.999999985              -0.000060458               0.001205245               0.999999985              -0.000059975               0.001241369               0.999999985              -0.000056964               0.001277550               0.999999985              -0.000050662               0.001313022               0.999999985              -0.000040573               0.001347229               0.999999985              -0.000026170               0.001379833               0.999999985              -0.000006764               0.001410793               0.999999985               0.000018648               0.001440193               0.999999985              -0.000085355               0.001081286               0.999999985              -0.000050034               0.001085471               0.999999985              -0.000034724               0.001088298               0.999999985              -0.000028876               0.001096910               0.999999985              -0.000027661               0.001112347               0.999999985              -0.000028609               0.001133883               0.999999985              -0.000030404               0.001160387               0.999999985              -0.000032267               0.001190956               0.999999985              -0.000033869               0.001224880               0.999999985              -0.000034755               0.001261177               0.999999985              -0.000034469               0.001298861               0.999999985              -0.000032366               0.001337213               0.999999985              -0.000027895               0.001375457               0.999999985              -0.000020476               0.001413076               0.999999985              -0.000009373               0.001449448               0.999999985               0.000006195               0.001484242               0.999999985               0.000027747               0.001517186               0.999999985              -0.000042913               0.001098079               0.999999985              -0.000024762               0.001111173               0.999999985              -0.000016556               0.001118909               0.999999985              -0.000013197               0.001130146               0.999999985              -0.000012321               0.001146894               0.999999985              -0.000012595               0.001169114               0.999999985              -0.000013343               0.001196152               0.999999985              -0.000014171               0.001227143               0.999999985              -0.000014984               0.001261571               0.999999985              -0.000015443               0.001298697               0.999999985              -0.000015273               0.001337525               0.999999985              -0.000014191               0.001377398               0.999999985              -0.000011827               0.001417639               0.999999985              -0.000007788               0.001457762               0.999999985              -0.000001875               0.001497072               0.999999985               0.000006856               0.001535042               0.999999985               0.000019362               0.001570986               0.999999985              -0.000000000               0.001103654               0.999999985              -0.000000000               0.001119841               0.999999985              -0.000000000               0.001129347               0.999999985              -0.000000000               0.001141487               0.999999985               0.000000000               0.001158838               0.999999985               0.000000000               0.001181469               0.999999985              -0.000000000               0.001208685               0.999999985               0.000000000               0.001239857               0.999999985               0.000000000               0.001274478               0.999999985               0.000000000               0.001311966               0.999999985              -0.000000000               0.001351251               0.999999985              -0.000000000               0.001391666               0.999999985              -0.000000000               0.001432610               0.999999985               0.000000000               0.001473549               0.999999985               0.000000000               0.001513935               0.999999985              -0.000000000               0.001553119               0.999999985              -0.000000000               0.001590239               0.999999985              -0.000457373               0.000000000               0.999999985              -0.000499782               0.000000000               0.999999985              -0.000519130               0.000000000               0.999999985              -0.000530654               0.000000000               0.999999985              -0.000539980               0.000000000               0.999999985              -0.000549173               0.000000000               0.999999985              -0.000559177              -0.000000000               0.999999985              -0.000570164               0.000000000               0.999999985              -0.000582195               0.000000000               0.999999985              -0.000595166               0.000000000               0.999999985              -0.000608860               0.000000000               0.999999985              -0.000623229               0.000000000               0.999999985              -0.000638064               0.000000000               0.999999985              -0.000653142               0.000000000               0.999999985              -0.000668144               0.000000000               0.999999985              -0.000682676               0.000000000               0.999999985              -0.000696290              -0.000000000               0.999999985              -0.000454723              -0.000108151               0.999999985              -0.000494289              -0.000090055               0.999999985              -0.000511904              -0.000082936               0.999999985              -0.000522378              -0.000081529               0.999999985              -0.000531061              -0.000082963               0.999999985              -0.000539857              -0.000086024               0.999999985              -0.000549519              -0.000089948               0.999999985              -0.000560233              -0.000094279               0.999999985              -0.000571910              -0.000098710               0.999999985              -0.000584369              -0.000102852               0.999999985              -0.000597518              -0.000106664               0.999999985              -0.000611213              -0.000110015               0.999999985              -0.000625241              -0.000112579               0.999999985              -0.000639395              -0.000113901               0.999999985              -0.000653383              -0.000113542               0.999999985              -0.000666878              -0.000111102               0.999999985              -0.000679421              -0.000105876               0.999999985              -0.000446826              -0.000215079               0.999999985              -0.000478119              -0.000179364               0.999999985              -0.000490912              -0.000166010               0.999999985              -0.000498551              -0.000163881               0.999999985              -0.000505510              -0.000167327               0.999999985              -0.000513308              -0.000173840               0.999999985              -0.000522207              -0.000181968               0.999999985              -0.000532151              -0.000190761               0.999999985              -0.000542908              -0.000199488               0.999999985              -0.000554238              -0.000207839               0.999999985              -0.000565981              -0.000215582               0.999999985              -0.000577838              -0.000222344               0.999999985              -0.000589647              -0.000227541               0.999999985              -0.000601140              -0.000230530               0.999999985              -0.000612122              -0.000230858               0.999999985              -0.000622476              -0.000227849               0.999999985              -0.000632055              -0.000220505               0.999999985              -0.000433854              -0.000319671               0.999999985              -0.000452205              -0.000267386               0.999999985              -0.000458031              -0.000249398               0.999999985              -0.000462040              -0.000247671               0.999999985              -0.000467062              -0.000254050               0.999999985              -0.000473696              -0.000264582               0.999999985              -0.000481748              -0.000277197               0.999999985              -0.000490792              -0.000290469               0.999999985              -0.000500389              -0.000303640               0.999999985              -0.000510183              -0.000316151               0.999999985              -0.000519850              -0.000327697               0.999999985              -0.000529175              -0.000337753               0.999999985              -0.000537879              -0.000345780               0.999999985              -0.000545851              -0.000351165               0.999999985              -0.000552976              -0.000353608               0.999999985              -0.000559375              -0.000352706               0.999999985              -0.000565371              -0.000347840               0.999999985              -0.000416131              -0.000420860               0.999999985              -0.000418076              -0.000353834               0.999999985              -0.000416289              -0.000333102               0.999999985              -0.000416914              -0.000333105               0.999999985              -0.000420489              -0.000343189               0.999999985              -0.000426369              -0.000358159               0.999999985              -0.000433709              -0.000375450               0.999999985              -0.000441884              -0.000393227               0.999999985              -0.000450194              -0.000410687               0.999999985              -0.000458102              -0.000427270               0.999999985              -0.000465414              -0.000442556               0.999999985              -0.000471842              -0.000455905               0.999999985              -0.000477193              -0.000466931               0.999999985              -0.000481483              -0.000475416               0.999999985              -0.000484965              -0.000481275               0.999999985              -0.000487968              -0.000484792               0.999999985              -0.000490826              -0.000485897               0.999999985              -0.000394251              -0.000517543               0.999999985              -0.000377748              -0.000438489               0.999999985              -0.000369053              -0.000416942               0.999999985              -0.000367430              -0.000419816               0.999999985              -0.000370500              -0.000433986               0.999999985              -0.000376222              -0.000453464               0.999999985              -0.000383207              -0.000475336               0.999999985              -0.000390567              -0.000497630               0.999999985              -0.000397633              -0.000519223               0.999999985              -0.000403852              -0.000539553               0.999999985              -0.000408877              -0.000558151               0.999999985              -0.000412449              -0.000574642               0.999999985              -0.000414749              -0.000588882               0.999999985              -0.000416061              -0.000601152               0.999999985              -0.000416709              -0.000611656               0.999999985              -0.000416952              -0.000620619               0.999999985              -0.000416821              -0.000628359               0.999999985              -0.000368599              -0.000608871               0.999999985              -0.000333365              -0.000521167               0.999999985              -0.000319533              -0.000500461               0.999999985              -0.000317277              -0.000506798               0.999999985              -0.000320839              -0.000525158               0.999999985              -0.000326981              -0.000549034               0.999999985              -0.000334056              -0.000575218               0.999999985              -0.000340942              -0.000601689               0.999999985              -0.000346876              -0.000627080               0.999999985              -0.000351282              -0.000650914               0.999999985              -0.000353965              -0.000672684               0.999999985              -0.000354946              -0.000692342               0.999999985              -0.000354419              -0.000710327               0.999999985              -0.000352672              -0.000726842               0.999999985              -0.000350001              -0.000742002               0.999999985              -0.000346396              -0.000755983               0.999999985              -0.000341733              -0.000768413               0.999999985              -0.000339707              -0.000694009               0.999999985              -0.000287136              -0.000601622               0.999999985              -0.000270563              -0.000582873               0.999999985              -0.000269381              -0.000592681               0.999999985              -0.000274328              -0.000615070               0.999999985              -0.000281456              -0.000643057               0.999999985              -0.000288787              -0.000673249               0.999999985              -0.000295186              -0.000703558               0.999999985              -0.000299761              -0.000732550               0.999999985              -0.000302003              -0.000759694               0.999999985              -0.000301839              -0.000784852               0.999999985              -0.000299382              -0.000808212               0.999999985              -0.000295075              -0.000829877               0.999999985              -0.000289288              -0.000850144               0.999999985              -0.000282110              -0.000869087               0.999999985              -0.000273613              -0.000886486               0.999999985              -0.000263713              -0.000902240               0.999999985              -0.000308771              -0.000771462               0.999999985              -0.000240574              -0.000679820               0.999999985              -0.000224716              -0.000663155               0.999999985              -0.000225846              -0.000676002               0.999999985              -0.000232825              -0.000702074               0.999999985              -0.000241034              -0.000733941               0.999999985              -0.000248563              -0.000767968               0.999999985              -0.000254107              -0.000801912               0.999999985              -0.000256630              -0.000834341               0.999999985              -0.000255724              -0.000864952               0.999999985              -0.000251618              -0.000893491               0.999999985              -0.000244881              -0.000919753               0.999999985              -0.000235980              -0.000944222               0.999999985              -0.000225294              -0.000967160               0.999999985              -0.000213274              -0.000988582               0.999999985              -0.000200134              -0.001008531               0.999999985              -0.000186248              -0.001027025               0.999999985              -0.000277309              -0.000844227               0.999999985              -0.000202390              -0.000764644               0.999999985              -0.000183518              -0.000743264               0.999999985              -0.000183161              -0.000750217               0.999999985              -0.000189352              -0.000771299               0.999999985              -0.000197130              -0.000799600               0.999999985              -0.000204625              -0.000831404               0.999999985              -0.000210579              -0.000864439               0.999999985              -0.000213843              -0.000897179               0.999999985              -0.000213912              -0.000928876               0.999999985              -0.000210562              -0.000958778               0.999999985              -0.000204081              -0.000986807               0.999999985              -0.000194899              -0.001013027               0.999999985              -0.000183352              -0.001037502               0.999999985              -0.000170340              -0.001060696               0.999999985              -0.000156436              -0.001082607               0.999999985              -0.000142081              -0.001103296               0.999999985              -0.000242750              -0.000910080               0.999999985              -0.000166989              -0.000846046               0.999999985              -0.000145176              -0.000824664               0.999999985              -0.000142735              -0.000827577               0.999999985              -0.000147491              -0.000844525               0.999999985              -0.000154388              -0.000869579               0.999999985              -0.000161326              -0.000899254               0.999999985              -0.000167195              -0.000931228               0.999999985              -0.000170945              -0.000963995               0.999999985              -0.000171812              -0.000996566               0.999999985              -0.000169348              -0.001027853               0.999999985              -0.000163444              -0.001057392               0.999999985              -0.000154367              -0.001085270               0.999999985              -0.000142188              -0.001111414               0.999999985              -0.000127591              -0.001136107               0.999999985              -0.000111526              -0.001159675               0.999999985              -0.000094588              -0.001182508               0.999999985              -0.000205935              -0.000967482               0.999999985              -0.000134305              -0.000921703               0.999999985              -0.000110835              -0.000903845               0.999999985              -0.000106157              -0.000905370               0.999999985              -0.000108997              -0.000919635               0.999999985              -0.000114511              -0.000942158               0.999999985              -0.000120451              -0.000970017               0.999999985              -0.000125699              -0.001001105               0.999999985              -0.000129452              -0.001033884               0.999999985              -0.000130789              -0.001067336               0.999999985              -0.000129176              -0.001100154               0.999999985              -0.000124093              -0.001131656               0.999999985              -0.000115462              -0.001161383               0.999999985              -0.000103207              -0.001189480               0.999999985              -0.000087516              -0.001215987               0.999999985              -0.000068890              -0.001241104               0.999999985              -0.000048057              -0.001265453               0.999999985              -0.000167172              -0.001015611               0.999999985              -0.000104218              -0.000988658               0.999999985              -0.000081069              -0.000976991               0.999999985              -0.000074708              -0.000979547               0.999999985              -0.000075568              -0.000992906               0.999999985              -0.000079330              -0.001014076               0.999999985              -0.000083949              -0.001040709               0.999999985              -0.000088349              -0.001071133               0.999999985              -0.000091559              -0.001104058               0.999999985              -0.000092880              -0.001138445               0.999999985              -0.000091992              -0.001172928               0.999999985              -0.000087993              -0.001206708               0.999999985              -0.000080239              -0.001239145               0.999999985              -0.000068527              -0.001269959               0.999999985              -0.000052757              -0.001299103               0.999999985              -0.000032638              -0.001326662               0.999999985              -0.000008076              -0.001353021               0.999999985              -0.000126869              -0.001053701               0.999999985              -0.000076325              -0.001044049               0.999999985              -0.000055883              -0.001039853               0.999999985              -0.000049005              -0.001045167               0.999999985              -0.000048390              -0.001059165               0.999999985              -0.000050519              -0.001080069               0.999999985              -0.000053639              -0.001106298               0.999999985              -0.000056829              -0.001136592               0.999999985              -0.000059267              -0.001169934               0.999999985              -0.000060458              -0.001205245               0.999999985              -0.000059975              -0.001241369               0.999999985              -0.000056964              -0.001277550               0.999999985              -0.000050662              -0.001313022               0.999999985              -0.000040573              -0.001347229               0.999999985              -0.000026170              -0.001379833               0.999999985              -0.000006764              -0.001410793               0.999999985               0.000018648              -0.001440193               0.999999985              -0.000085355              -0.001081286               0.999999985              -0.000050034              -0.001085471               0.999999985              -0.000034724              -0.001088298               0.999999985              -0.000028876              -0.001096910               0.999999985              -0.000027661              -0.001112347               0.999999985              -0.000028609              -0.001133883               0.999999985              -0.000030404              -0.001160387               0.999999985              -0.000032267              -0.001190956               0.999999985              -0.000033869              -0.001224880               0.999999985              -0.000034755              -0.001261177               0.999999985              -0.000034469              -0.001298861               0.999999985              -0.000032366              -0.001337213               0.999999985              -0.000027895              -0.001375457               0.999999985              -0.000020476              -0.001413076               0.999999985              -0.000009373              -0.001449448               0.999999985               0.000006195              -0.001484242               0.999999985               0.000027747              -0.001517186               0.999999985              -0.000042913              -0.001098079               0.999999985              -0.000024762              -0.001111173               0.999999985              -0.000016556              -0.001118909               0.999999985              -0.000013197              -0.001130146               0.999999985              -0.000012321              -0.001146894               0.999999985              -0.000012595              -0.001169114               0.999999985              -0.000013343              -0.001196152               0.999999985              -0.000014171              -0.001227143               0.999999985              -0.000014984              -0.001261571               0.999999985              -0.000015443              -0.001298697               0.999999985              -0.000015273              -0.001337525               0.999999985              -0.000014191              -0.001377398               0.999999985              -0.000011827              -0.001417639               0.999999985              -0.000007788              -0.001457762               0.999999985              -0.000001875              -0.001497072               0.999999985               0.000006856              -0.001535042               0.999999985               0.000019362              -0.001570986               0.999999985              -0.000000000              -0.001103654               0.999999985               0.000000000              -0.001119841               0.999999985               0.000000000              -0.001129347               0.999999985              -0.000000000              -0.001141487               0.999999985               0.000000000              -0.001158838               0.999999985              -0.000000000              -0.001181469               0.999999985               0.000000000              -0.001208685               0.999999985               0.000000000              -0.001239857               0.999999985               0.000000000              -0.001274478               0.999999985              -0.000000000              -0.001311966               0.999999985              -0.000000000              -0.001351251               0.999999985               0.000000000              -0.001391666               0.999999985              -0.000000000              -0.001432610               0.999999985              -0.000000000              -0.001473549               0.999999985              -0.000000000              -0.001513935               0.999999985              -0.000000000              -0.001553119               0.999999985               0.000000000              -0.001590239               0.999999985               0.000457373               0.000000000               0.999999985               0.000499782               0.000000000               0.999999985               0.000519130               0.000000000               0.999999985               0.000530654              -0.000000000               0.999999985               0.000539980              -0.000000000               0.999999985               0.000549173              -0.000000000               0.999999985               0.000559177              -0.000000000               0.999999985               0.000570164               0.000000000               0.999999985               0.000582195              -0.000000000               0.999999985               0.000595166               0.000000000               0.999999985               0.000608860               0.000000000               0.999999985               0.000623229              -0.000000000               0.999999985               0.000638064              -0.000000000               0.999999985               0.000653142              -0.000000000               0.999999985               0.000668144              -0.000000000               0.999999985               0.000682676               0.000000000               0.999999985               0.000696290               0.000000000               0.999999985               0.000454723              -0.000108151               0.999999985               0.000494289              -0.000090055               0.999999985               0.000511904              -0.000082936               0.999999985               0.000522378              -0.000081529               0.999999985               0.000531061              -0.000082963               0.999999985               0.000539857              -0.000086024               0.999999985               0.000549519              -0.000089948               0.999999985               0.000560233              -0.000094279               0.999999985               0.000571910              -0.000098710               0.999999985               0.000584369              -0.000102852               0.999999985               0.000597518              -0.000106664               0.999999985               0.000611213              -0.000110015               0.999999985               0.000625241              -0.000112579               0.999999985               0.000639395              -0.000113901               0.999999985               0.000653383              -0.000113542               0.999999985               0.000666878              -0.000111102               0.999999985               0.000679421              -0.000105876               0.999999985               0.000446826              -0.000215079               0.999999985               0.000478119              -0.000179364               0.999999985               0.000490912              -0.000166010               0.999999985               0.000498551              -0.000163881               0.999999985               0.000505510              -0.000167327               0.999999985               0.000513308              -0.000173840               0.999999985               0.000522207              -0.000181968               0.999999985               0.000532151              -0.000190761               0.999999985               0.000542908              -0.000199488               0.999999985               0.000554238              -0.000207839               0.999999985               0.000565981              -0.000215582               0.999999985               0.000577838              -0.000222344               0.999999985               0.000589647              -0.000227541               0.999999985               0.000601140              -0.000230530               0.999999985               0.000612122              -0.000230858               0.999999985               0.000622476              -0.000227849               0.999999985               0.000632055              -0.000220505               0.999999985               0.000433854              -0.000319671               0.999999985               0.000452205              -0.000267386               0.999999985               0.000458031              -0.000249398               0.999999985               0.000462040              -0.000247671               0.999999985               0.000467062              -0.000254050               0.999999985               0.000473696              -0.000264582               0.999999985               0.000481748              -0.000277197               0.999999985               0.000490792              -0.000290469               0.999999985               0.000500389              -0.000303640               0.999999985               0.000510183              -0.000316151               0.999999985               0.000519850              -0.000327697               0.999999985               0.000529175              -0.000337753               0.999999985               0.000537879              -0.000345780               0.999999985               0.000545851              -0.000351165               0.999999985               0.000552976              -0.000353608               0.999999985               0.000559375              -0.000352706               0.999999985               0.000565371              -0.000347840               0.999999985               0.000416131              -0.000420860               0.999999985               0.000418076              -0.000353834               0.999999985               0.000416289              -0.000333102               0.999999985               0.000416914              -0.000333105               0.999999985               0.000420489              -0.000343189               0.999999985               0.000426369              -0.000358159               0.999999985               0.000433709              -0.000375450               0.999999985               0.000441884              -0.000393227               0.999999985               0.000450194              -0.000410687               0.999999985               0.000458102              -0.000427270               0.999999985               0.000465414              -0.000442556               0.999999985               0.000471842              -0.000455905               0.999999985               0.000477193              -0.000466931               0.999999985               0.000481483              -0.000475416               0.999999985               0.000484965              -0.000481275               0.999999985               0.000487968              -0.000484792               0.999999985               0.000490826              -0.000485897               0.999999985               0.000394251              -0.000517543               0.999999985               0.000377748              -0.000438489               0.999999985               0.000369053              -0.000416942               0.999999985               0.000367430              -0.000419816               0.999999985               0.000370500              -0.000433986               0.999999985               0.000376222              -0.000453464               0.999999985               0.000383207              -0.000475336               0.999999985               0.000390567              -0.000497630               0.999999985               0.000397633              -0.000519223               0.999999985               0.000403852              -0.000539553               0.999999985               0.000408877              -0.000558151               0.999999985               0.000412449              -0.000574642               0.999999985               0.000414749              -0.000588882               0.999999985               0.000416061              -0.000601152               0.999999985               0.000416709              -0.000611656               0.999999985               0.000416952              -0.000620619               0.999999985               0.000416821              -0.000628359               0.999999985               0.000368599              -0.000608871               0.999999985               0.000333365              -0.000521167               0.999999985               0.000319533              -0.000500461               0.999999985               0.000317277              -0.000506798               0.999999985               0.000320839              -0.000525158               0.999999985               0.000326981              -0.000549034               0.999999985               0.000334056              -0.000575218               0.999999985               0.000340942              -0.000601689               0.999999985               0.000346876              -0.000627080               0.999999985               0.000351282              -0.000650914               0.999999985               0.000353965              -0.000672684               0.999999985               0.000354946              -0.000692342               0.999999985               0.000354419              -0.000710327               0.999999985               0.000352672              -0.000726842               0.999999985               0.000350001              -0.000742002               0.999999985               0.000346396              -0.000755983               0.999999985               0.000341733              -0.000768413               0.999999985               0.000339707              -0.000694009               0.999999985               0.000287136              -0.000601622               0.999999985               0.000270563              -0.000582873               0.999999985               0.000269381              -0.000592681               0.999999985               0.000274328              -0.000615070               0.999999985               0.000281456              -0.000643057               0.999999985               0.000288787              -0.000673249               0.999999985               0.000295186              -0.000703558               0.999999985               0.000299761              -0.000732550               0.999999985               0.000302003              -0.000759694               0.999999985               0.000301839              -0.000784852               0.999999985               0.000299382              -0.000808212               0.999999985               0.000295075              -0.000829877               0.999999985               0.000289288              -0.000850144               0.999999985               0.000282110              -0.000869087               0.999999985               0.000273613              -0.000886486               0.999999985               0.000263713              -0.000902240               0.999999985               0.000308771              -0.000771462               0.999999985               0.000240574              -0.000679820               0.999999985               0.000224716              -0.000663155               0.999999985               0.000225846              -0.000676002               0.999999985               0.000232825              -0.000702074               0.999999985               0.000241034              -0.000733941               0.999999985               0.000248563              -0.000767968               0.999999985               0.000254107              -0.000801912               0.999999985               0.000256630              -0.000834341               0.999999985               0.000255724              -0.000864952               0.999999985               0.000251618              -0.000893491               0.999999985               0.000244881              -0.000919753               0.999999985               0.000235980              -0.000944222               0.999999985               0.000225294              -0.000967160               0.999999985               0.000213274              -0.000988582               0.999999985               0.000200134              -0.001008531               0.999999985               0.000186248              -0.001027025               0.999999985               0.000277309              -0.000844227               0.999999985               0.000202390              -0.000764644               0.999999985               0.000183518              -0.000743264               0.999999985               0.000183161              -0.000750217               0.999999985               0.000189352              -0.000771299               0.999999985               0.000197130              -0.000799600               0.999999985               0.000204625              -0.000831404               0.999999985               0.000210579              -0.000864439               0.999999985               0.000213843              -0.000897179               0.999999985               0.000213912              -0.000928876               0.999999985               0.000210562              -0.000958778               0.999999985               0.000204081              -0.000986807               0.999999985               0.000194899              -0.001013027               0.999999985               0.000183352              -0.001037502               0.999999985               0.000170340              -0.001060696               0.999999985               0.000156436              -0.001082607               0.999999985               0.000142081              -0.001103296               0.999999985               0.000242750              -0.000910080               0.999999985               0.000166989              -0.000846046               0.999999985               0.000145176              -0.000824664               0.999999985               0.000142735              -0.000827577               0.999999985               0.000147491              -0.000844525               0.999999985               0.000154388              -0.000869579               0.999999985               0.000161326              -0.000899254               0.999999985               0.000167195              -0.000931228               0.999999985               0.000170945              -0.000963995               0.999999985               0.000171812              -0.000996566               0.999999985               0.000169348              -0.001027853               0.999999985               0.000163444              -0.001057392               0.999999985               0.000154367              -0.001085270               0.999999985               0.000142188              -0.001111414               0.999999985               0.000127591              -0.001136107               0.999999985               0.000111526              -0.001159675               0.999999985               0.000094588              -0.001182508               0.999999985               0.000205935              -0.000967482               0.999999985               0.000134305              -0.000921703               0.999999985               0.000110835              -0.000903845               0.999999985               0.000106157              -0.000905370               0.999999985               0.000108997              -0.000919635               0.999999985               0.000114511              -0.000942158               0.999999985               0.000120451              -0.000970017               0.999999985               0.000125699              -0.001001105               0.999999985               0.000129452              -0.001033884               0.999999985               0.000130789              -0.001067336               0.999999985               0.000129176              -0.001100154               0.999999985               0.000124093              -0.001131656               0.999999985               0.000115462              -0.001161383               0.999999985               0.000103207              -0.001189480               0.999999985               0.000087516              -0.001215987               0.999999985               0.000068890              -0.001241104               0.999999985               0.000048057              -0.001265453               0.999999985               0.000167172              -0.001015611               0.999999985               0.000104218              -0.000988658               0.999999985               0.000081069              -0.000976991               0.999999985               0.000074708              -0.000979547               0.999999985               0.000075568              -0.000992906               0.999999985               0.000079330              -0.001014076               0.999999985               0.000083949              -0.001040709               0.999999985               0.000088349              -0.001071133               0.999999985               0.000091559              -0.001104058               0.999999985               0.000092880              -0.001138445               0.999999985               0.000091992              -0.001172928               0.999999985               0.000087993              -0.001206708               0.999999985               0.000080239              -0.001239145               0.999999985               0.000068527              -0.001269959               0.999999985               0.000052757              -0.001299103               0.999999985               0.000032638              -0.001326662               0.999999985               0.000008076              -0.001353021               0.999999985               0.000126869              -0.001053701               0.999999985               0.000076325              -0.001044049               0.999999985               0.000055883              -0.001039853               0.999999985               0.000049005              -0.001045167               0.999999985               0.000048390              -0.001059165               0.999999985               0.000050519              -0.001080069               0.999999985               0.000053639              -0.001106298               0.999999985               0.000056829              -0.001136592               0.999999985               0.000059267              -0.001169934               0.999999985               0.000060458              -0.001205245               0.999999985               0.000059975              -0.001241369               0.999999985               0.000056964              -0.001277550               0.999999985               0.000050662              -0.001313022               0.999999985               0.000040573              -0.001347229               0.999999985               0.000026170              -0.001379833               0.999999985               0.000006764              -0.001410793               0.999999985              -0.000018648              -0.001440193               0.999999985               0.000085355              -0.001081286               0.999999985               0.000050034              -0.001085471               0.999999985               0.000034724              -0.001088298               0.999999985               0.000028876              -0.001096910               0.999999985               0.000027661              -0.001112347               0.999999985               0.000028609              -0.001133883               0.999999985               0.000030404              -0.001160387               0.999999985               0.000032267              -0.001190956               0.999999985               0.000033869              -0.001224880               0.999999985               0.000034755              -0.001261177               0.999999985               0.000034469              -0.001298861               0.999999985               0.000032366              -0.001337213               0.999999985               0.000027895              -0.001375457               0.999999985               0.000020476              -0.001413076               0.999999985               0.000009373              -0.001449448               0.999999985              -0.000006195              -0.001484242               0.999999985              -0.000027747              -0.001517186               0.999999985               0.000042913              -0.001098079               0.999999985               0.000024762              -0.001111173               0.999999985               0.000016556              -0.001118909               0.999999985               0.000013197              -0.001130146               0.999999985               0.000012321              -0.001146894               0.999999985               0.000012595              -0.001169114               0.999999985               0.000013343              -0.001196152               0.999999985               0.000014171              -0.001227143               0.999999985               0.000014984              -0.001261571               0.999999985               0.000015443              -0.001298697               0.999999985               0.000015273              -0.001337525               0.999999985               0.000014191              -0.001377398               0.999999985               0.000011827              -0.001417639               0.999999985               0.000007788              -0.001457762               0.999999985               0.000001875              -0.001497072               0.999999985              -0.000006856              -0.001535042               0.999999985              -0.000019362              -0.001570986               0.999999985              -0.000000000              -0.001103654               0.999999985               0.000000000              -0.001119841               0.999999985               0.000000000              -0.001129347               0.999999985              -0.000000000              -0.001141487               0.999999985               0.000000000              -0.001158838               0.999999985              -0.000000000              -0.001181469               0.999999985               0.000000000              -0.001208685               0.999999985               0.000000000              -0.001239857               0.999999985               0.000000000              -0.001274478               0.999999985              -0.000000000              -0.001311966               0.999999985              -0.000000000              -0.001351251               0.999999985               0.000000000              -0.001391666               0.999999985              -0.000000000              -0.001432610               0.999999985              -0.000000000              -0.001473549               0.999999985              -0.000000000              -0.001513935               0.999999985              -0.000000000              -0.001553119               0.999999985               0.000000000              -0.001590239               0.999999985               0.000457373               0.000000000               0.999999985               0.000499782               0.000000000               0.999999985               0.000519130               0.000000000               0.999999985               0.000530654              -0.000000000               0.999999985               0.000539980              -0.000000000               0.999999985               0.000549173              -0.000000000               0.999999985               0.000559177              -0.000000000               0.999999985               0.000570164               0.000000000               0.999999985               0.000582195              -0.000000000               0.999999985               0.000595166               0.000000000               0.999999985               0.000608860               0.000000000               0.999999985               0.000623229              -0.000000000               0.999999985               0.000638064              -0.000000000               0.999999985               0.000653142              -0.000000000               0.999999985               0.000668144              -0.000000000               0.999999985               0.000682676               0.000000000               0.999999985               0.000696290               0.000000000               0.999999985               0.000454723               0.000108151               0.999999985               0.000494289               0.000090055               0.999999985               0.000511904               0.000082936               0.999999985               0.000522378               0.000081529               0.999999985               0.000531061               0.000082963               0.999999985               0.000539857               0.000086024               0.999999985               0.000549519               0.000089948               0.999999985               0.000560233               0.000094279               0.999999985               0.000571910               0.000098710               0.999999985               0.000584369               0.000102852               0.999999985               0.000597518               0.000106664               0.999999985               0.000611213               0.000110015               0.999999985               0.000625241               0.000112579               0.999999985               0.000639395               0.000113901               0.999999985               0.000653383               0.000113542               0.999999985               0.000666878               0.000111102               0.999999985               0.000679421               0.000105876               0.999999985               0.000446826               0.000215079               0.999999985               0.000478119               0.000179364               0.999999985               0.000490912               0.000166010               0.999999985               0.000498551               0.000163881               0.999999985               0.000505510               0.000167327               0.999999985               0.000513308               0.000173840               0.999999985               0.000522207               0.000181968               0.999999985               0.000532151               0.000190761               0.999999985               0.000542908               0.000199488               0.999999985               0.000554238               0.000207839               0.999999985               0.000565981               0.000215582               0.999999985               0.000577838               0.000222344               0.999999985               0.000589647               0.000227541               0.999999985               0.000601140               0.000230530               0.999999985               0.000612122               0.000230858               0.999999985               0.000622476               0.000227849               0.999999985               0.000632055               0.000220505               0.999999985               0.000433854               0.000319671               0.999999985               0.000452205               0.000267386               0.999999985               0.000458031               0.000249398               0.999999985               0.000462040               0.000247671               0.999999985               0.000467062               0.000254050               0.999999985               0.000473696               0.000264582               0.999999985               0.000481748               0.000277197               0.999999985               0.000490792               0.000290469               0.999999985               0.000500389               0.000303640               0.999999985               0.000510183               0.000316151               0.999999985               0.000519850               0.000327697               0.999999985               0.000529175               0.000337753               0.999999985               0.000537879               0.000345780               0.999999985               0.000545851               0.000351165               0.999999985               0.000552976               0.000353608               0.999999985               0.000559375               0.000352706               0.999999985               0.000565371               0.000347840               0.999999985               0.000416131               0.000420860               0.999999985               0.000418076               0.000353834               0.999999985               0.000416289               0.000333102               0.999999985               0.000416914               0.000333105               0.999999985               0.000420489               0.000343189               0.999999985               0.000426369               0.000358159               0.999999985               0.000433709               0.000375450               0.999999985               0.000441884               0.000393227               0.999999985               0.000450194               0.000410687               0.999999985               0.000458102               0.000427270               0.999999985               0.000465414               0.000442556               0.999999985               0.000471842               0.000455905               0.999999985               0.000477193               0.000466931               0.999999985               0.000481483               0.000475416               0.999999985               0.000484965               0.000481275               0.999999985               0.000487968               0.000484792               0.999999985               0.000490826               0.000485897               0.999999985               0.000394251               0.000517543               0.999999985               0.000377748               0.000438489               0.999999985               0.000369053               0.000416942               0.999999985               0.000367430               0.000419816               0.999999985               0.000370500               0.000433986               0.999999985               0.000376222               0.000453464               0.999999985               0.000383207               0.000475336               0.999999985               0.000390567               0.000497630               0.999999985               0.000397633               0.000519223               0.999999985               0.000403852               0.000539553               0.999999985               0.000408877               0.000558151               0.999999985               0.000412449               0.000574642               0.999999985               0.000414749               0.000588882               0.999999985               0.000416061               0.000601152               0.999999985               0.000416709               0.000611656               0.999999985               0.000416952               0.000620619               0.999999985               0.000416821               0.000628359               0.999999985               0.000368599               0.000608871               0.999999985               0.000333365               0.000521167               0.999999985               0.000319533               0.000500461               0.999999985               0.000317277               0.000506798               0.999999985               0.000320839               0.000525158               0.999999985               0.000326981               0.000549034               0.999999985               0.000334056               0.000575218               0.999999985               0.000340942               0.000601689               0.999999985               0.000346876               0.000627080               0.999999985               0.000351282               0.000650914               0.999999985               0.000353965               0.000672684               0.999999985               0.000354946               0.000692342               0.999999985               0.000354419               0.000710327               0.999999985               0.000352672               0.000726842               0.999999985               0.000350001               0.000742002               0.999999985               0.000346396               0.000755983               0.999999985               0.000341733               0.000768413               0.999999985               0.000339707               0.000694009               0.999999985               0.000287136               0.000601622               0.999999985               0.000270563               0.000582873               0.999999985               0.000269381               0.000592681               0.999999985               0.000274328               0.000615070               0.999999985               0.000281456               0.000643057               0.999999985               0.000288787               0.000673249               0.999999985               0.000295186               0.000703558               0.999999985               0.000299761               0.000732550               0.999999985               0.000302003               0.000759694               0.999999985               0.000301839               0.000784852               0.999999985               0.000299382               0.000808212               0.999999985               0.000295075               0.000829877               0.999999985               0.000289288               0.000850144               0.999999985               0.000282110               0.000869087               0.999999985               0.000273613               0.000886486               0.999999985               0.000263713               0.000902240               0.999999985               0.000308771               0.000771462               0.999999985               0.000240574               0.000679820               0.999999985               0.000224716               0.000663155               0.999999985               0.000225846               0.000676002               0.999999985               0.000232825               0.000702074               0.999999985               0.000241034               0.000733941               0.999999985               0.000248563               0.000767968               0.999999985               0.000254107               0.000801912               0.999999985               0.000256630               0.000834341               0.999999985               0.000255724               0.000864952               0.999999985               0.000251618               0.000893491               0.999999985               0.000244881               0.000919753               0.999999985               0.000235980               0.000944222               0.999999985               0.000225294               0.000967160               0.999999985               0.000213274               0.000988582               0.999999985               0.000200134               0.001008531               0.999999985               0.000186248               0.001027025               0.999999985               0.000277309               0.000844227               0.999999985               0.000202390               0.000764644               0.999999985               0.000183518               0.000743264               0.999999985               0.000183161               0.000750217               0.999999985               0.000189352               0.000771299               0.999999985               0.000197130               0.000799600               0.999999985               0.000204625               0.000831404               0.999999985               0.000210579               0.000864439               0.999999985               0.000213843               0.000897179               0.999999985               0.000213912               0.000928876               0.999999985               0.000210562               0.000958778               0.999999985               0.000204081               0.000986807               0.999999985               0.000194899               0.001013027               0.999999985               0.000183352               0.001037502               0.999999985               0.000170340               0.001060696               0.999999985               0.000156436               0.001082607               0.999999985               0.000142081               0.001103296               0.999999985               0.000242750               0.000910080               0.999999985               0.000166989               0.000846046               0.999999985               0.000145176               0.000824664               0.999999985               0.000142735               0.000827577               0.999999985               0.000147491               0.000844525               0.999999985               0.000154388               0.000869579               0.999999985               0.000161326               0.000899254               0.999999985               0.000167195               0.000931228               0.999999985               0.000170945               0.000963995               0.999999985               0.000171812               0.000996566               0.999999985               0.000169348               0.001027853               0.999999985               0.000163444               0.001057392               0.999999985               0.000154367               0.001085270               0.999999985               0.000142188               0.001111414               0.999999985               0.000127591               0.001136107               0.999999985               0.000111526               0.001159675               0.999999985               0.000094588               0.001182508               0.999999985               0.000205935               0.000967482               0.999999985               0.000134305               0.000921703               0.999999985               0.000110835               0.000903845               0.999999985               0.000106157               0.000905370               0.999999985               0.000108997               0.000919635               0.999999985               0.000114511               0.000942158               0.999999985               0.000120451               0.000970017               0.999999985               0.000125699               0.001001105               0.999999985               0.000129452               0.001033884               0.999999985               0.000130789               0.001067336               0.999999985               0.000129176               0.001100154               0.999999985               0.000124093               0.001131656               0.999999985               0.000115462               0.001161383               0.999999985               0.000103207               0.001189480               0.999999985               0.000087516               0.001215987               0.999999985               0.000068890               0.001241104               0.999999985               0.000048057               0.001265453               0.999999985               0.000167172               0.001015611               0.999999985               0.000104218               0.000988658               0.999999985               0.000081069               0.000976991               0.999999985               0.000074708               0.000979547               0.999999985               0.000075568               0.000992906               0.999999985               0.000079330               0.001014076               0.999999985               0.000083949               0.001040709               0.999999985               0.000088349               0.001071133               0.999999985               0.000091559               0.001104058               0.999999985               0.000092880               0.001138445               0.999999985               0.000091992               0.001172928               0.999999985               0.000087993               0.001206708               0.999999985               0.000080239               0.001239145               0.999999985               0.000068527               0.001269959               0.999999985               0.000052757               0.001299103               0.999999985               0.000032638               0.001326662               0.999999985               0.000008076               0.001353021               0.999999985               0.000126869               0.001053701               0.999999985               0.000076325               0.001044049               0.999999985               0.000055883               0.001039853               0.999999985               0.000049005               0.001045167               0.999999985               0.000048390               0.001059165               0.999999985               0.000050519               0.001080069               0.999999985               0.000053639               0.001106298               0.999999985               0.000056829               0.001136592               0.999999985               0.000059267               0.001169934               0.999999985               0.000060458               0.001205245               0.999999985               0.000059975               0.001241369               0.999999985               0.000056964               0.001277550               0.999999985               0.000050662               0.001313022               0.999999985               0.000040573               0.001347229               0.999999985               0.000026170               0.001379833               0.999999985               0.000006764               0.001410793               0.999999985              -0.000018648               0.001440193               0.999999985               0.000085355               0.001081286               0.999999985               0.000050034               0.001085471               0.999999985               0.000034724               0.001088298               0.999999985               0.000028876               0.001096910               0.999999985               0.000027661               0.001112347               0.999999985               0.000028609               0.001133883               0.999999985               0.000030404               0.001160387               0.999999985               0.000032267               0.001190956               0.999999985               0.000033869               0.001224880               0.999999985               0.000034755               0.001261177               0.999999985               0.000034469               0.001298861               0.999999985               0.000032366               0.001337213               0.999999985               0.000027895               0.001375457               0.999999985               0.000020476               0.001413076               0.999999985               0.000009373               0.001449448               0.999999985              -0.000006195               0.001484242               0.999999985              -0.000027747               0.001517186               0.999999985               0.000042913               0.001098079               0.999999985               0.000024762               0.001111173               0.999999985               0.000016556               0.001118909               0.999999985               0.000013197               0.001130146               0.999999985               0.000012321               0.001146894               0.999999985               0.000012595               0.001169114               0.999999985               0.000013343               0.001196152               0.999999985               0.000014171               0.001227143               0.999999985               0.000014984               0.001261571               0.999999985               0.000015443               0.001298697               0.999999985               0.000015273               0.001337525               0.999999985               0.000014191               0.001377398               0.999999985               0.000011827               0.001417639               0.999999985               0.000007788               0.001457762               0.999999985               0.000001875               0.001497072               0.999999985              -0.000006856               0.001535042               0.999999985              -0.000019362               0.001570986               0.999999985              -0.000000000               0.001103654               0.999999985              -0.000000000               0.001119841               0.999999985              -0.000000000               0.001129347               0.999999985              -0.000000000               0.001141487               0.999999985               0.000000000               0.001158838               0.999999985               0.000000000               0.001181469               0.999999985              -0.000000000               0.001208685               0.999999985               0.000000000               0.001239857               0.999999985               0.000000000               0.001274478               0.999999985               0.000000000               0.001311966               0.999999985              -0.000000000               0.001351251               0.999999985              -0.000000000               0.001391666               0.999999985              -0.000000000               0.001432610               0.999999985               0.000000000               0.001473549               0.999999985               0.000000000               0.001513935               0.999999985              -0.000000000               0.001553119               0.999999985              -0.000000000               0.001590239               0.999999985 </DataArray>
<DataArray type="Float64"                                    Name="stress"                                                      NumberOfComponents="10" format="ascii">
              0.001790298               0.019885961               0.000000000              -0.001814379               0.007233380               0.005419001               0.000000000               0.000000000               0.000000000               0.000000000               0.001801262               0.015749620              -0.000000000              -0.001293226               0.005680896               0.004387670               0.000000000               0.000000000               0.000000000               0.000000000               0.002379579               0.012412648               0.000000000              -0.000659237               0.004357254               0.003698017               0.000000000               0.000000000               0.000000000               0.000000000               0.002303934               0.010559032               0.000000000              -0.000455903               0.003671610               0.003215707               0.000000000               0.000000000               0.000000000               0.000000000               0.002040918               0.009412335               0.000000000              -0.000411197               0.003274479               0.002863282               0.000000000               0.000000000               0.000000000               0.000000000               0.001739181               0.008640548              -0.000000000              -0.000427874               0.003022779               0.002594904               0.000000000               0.000000000               0.000000000               0.000000000               0.001448112               0.008080323              -0.000000000              -0.000466997               0.002849080               0.002382083               0.000000000               0.000000000               0.000000000               0.000000000               0.001188087               0.007645895               0.000000000              -0.000510203               0.002718674               0.002208471               0.000000000               0.000000000               0.000000000               0.000000000               0.000958924               0.007284588               0.000000000              -0.000550976               0.002611830               0.002060855               0.000000000               0.000000000               0.000000000               0.000000000               0.000759519               0.006961177               0.000000000              -0.000585326               0.002515478               0.001930152               0.000000000               0.000000000               0.000000000               0.000000000               0.000581943               0.006660227               0.000000000              -0.000614298               0.002424820               0.001810521               0.000000000               0.000000000               0.000000000               0.000000000               0.000424450               0.006369749              -0.000000000              -0.000637048               0.002335578               0.001698530               0.000000000               0.000000000               0.000000000               0.000000000               0.000289387               0.006073053              -0.000000000              -0.000650610               0.002241201               0.001590591               0.000000000               0.000000000               0.000000000               0.000000000               0.000176331               0.005750864              -0.000000000              -0.000652732               0.002134513               0.001481781               0.000000000               0.000000000               0.000000000               0.000000000               0.000089629               0.005389426              -0.000000000              -0.000640066               0.002009813               0.001369747               0.000000000               0.000000000               0.000000000               0.000000000               0.000033886               0.004977288              -0.000000000              -0.000609452               0.001862230               0.001252778               0.000000000               0.000000000               0.000000000               0.000000000              -0.000018326               0.004662520              -0.000000000              -0.000589686               0.001750720               0.001161034               0.000000000               0.000000000               0.000000000               0.000000000               0.001860821               0.019481166              -0.001374847              -0.001737334               0.007072768               0.005335435               0.000000000               0.000000000               0.000000000               0.000000000               0.001774716               0.015482724              -0.000722348              -0.001269819               0.005584129               0.004314310               0.000000000               0.000000000               0.000000000               0.000000000               0.002251468               0.012292218              -0.000070306              -0.000692225               0.004328107               0.003635882               0.000000000               0.000000000               0.000000000               0.000000000               0.002137434               0.010513592               0.000205040              -0.000512660               0.003675382               0.003162722               0.000000000               0.000000000               0.000000000               0.000000000               0.001863574               0.009407184               0.000317330              -0.000477057               0.003294716               0.002817659               0.000000000               0.000000000               0.000000000               0.000000000               0.001567863               0.008657849               0.000357863              -0.000494281               0.003050681               0.002556400               0.000000000               0.000000000               0.000000000               0.000000000               0.001290436               0.008109916               0.000365209              -0.000529825               0.002879886               0.002350062               0.000000000               0.000000000               0.000000000               0.000000000               0.001046343               0.007679295               0.000357176              -0.000567532               0.002748917               0.002181385               0.000000000               0.000000000               0.000000000               0.000000000               0.000836779               0.007316409               0.000341310              -0.000600757               0.002639031               0.002038274               0.000000000               0.000000000               0.000000000               0.000000000               0.000654994               0.006994822               0.000324000              -0.000628728               0.002541160               0.001912432               0.000000000               0.000000000               0.000000000               0.000000000               0.000494576               0.006697765               0.000307848              -0.000651753               0.002449817               0.001798064               0.000000000               0.000000000               0.000000000               0.000000000               0.000355323               0.006410797               0.000288425              -0.000668102               0.002359611               0.001691510               0.000000000               0.000000000               0.000000000               0.000000000               0.000236302               0.006118251               0.000259715              -0.000676167               0.002264785               0.001588619               0.000000000               0.000000000               0.000000000               0.000000000               0.000138225               0.005807671               0.000220079              -0.000674123               0.002160579               0.001486456               0.000000000               0.000000000               0.000000000               0.000000000               0.000064371               0.005472111               0.000168532              -0.000659873               0.002043976               0.001384103               0.000000000               0.000000000               0.000000000               0.000000000               0.000020469               0.005103273               0.000096996              -0.000630232               0.001911151               0.001280920               0.000000000               0.000000000               0.000000000               0.000000000              -0.000021159               0.004828759               0.000060057              -0.000611528               0.001813413               0.001201885               0.000000000               0.000000000               0.000000000               0.000000000               0.002038872               0.018329718              -0.002563581              -0.001526635               0.006618723               0.005092088               0.000000000               0.000000000               0.000000000               0.000000000               0.001686992               0.014731090              -0.001349975              -0.001208762               0.005313235               0.004104473               0.000000000               0.000000000               0.000000000               0.000000000               0.001884959               0.011956710              -0.000147458              -0.000787727               0.004248106               0.003460378               0.000000000               0.000000000               0.000000000               0.000000000               0.001675053               0.010384909               0.000345045              -0.000669967               0.003684924               0.003014957               0.000000000               0.000000000               0.000000000               0.000000000               0.001382458               0.009388532               0.000539587              -0.000655143               0.003347860               0.002692717               0.000000000               0.000000000               0.000000000               0.000000000               0.001105092               0.008696019               0.000607339              -0.000672591               0.003122841               0.002450250               0.000000000               0.000000000               0.000000000               0.000000000               0.000868738               0.008175934               0.000616413              -0.000696214               0.002957355               0.002261142               0.000000000               0.000000000               0.000000000               0.000000000               0.000672434               0.007754256               0.000597844              -0.000717118               0.002823765               0.002106648               0.000000000               0.000000000               0.000000000               0.000000000               0.000512870               0.007394514               0.000568691              -0.000731986               0.002708809               0.001976823               0.000000000               0.000000000               0.000000000               0.000000000               0.000380150               0.007076139               0.000539141              -0.000741959               0.002606009               0.001864050               0.000000000               0.000000000               0.000000000               0.000000000               0.000270624               0.006783419               0.000509552              -0.000746442               0.002509931               0.001763489               0.000000000               0.000000000               0.000000000               0.000000000               0.000181777               0.006502402               0.000472404              -0.000744632               0.002415656               0.001671024               0.000000000               0.000000000               0.000000000               0.000000000               0.000111046               0.006225489               0.000421017              -0.000736542               0.002320656               0.001584114               0.000000000               0.000000000               0.000000000               0.000000000               0.000060448               0.005951390               0.000355285              -0.000721254               0.002224195               0.001502941               0.000000000               0.000000000               0.000000000               0.000000000               0.000025749               0.005681433               0.000271992              -0.000700521               0.002127299               0.001426778               0.000000000               0.000000000               0.000000000               0.000000000               0.000006424               0.005416852               0.000156255              -0.000674696               0.002030498               0.001355802               0.000000000               0.000000000               0.000000000               0.000000000              -0.000015272               0.005239886               0.000094051              -0.000660711               0.001966848               0.001306137               0.000000000               0.000000000               0.000000000               0.000000000               0.002235609               0.016590798              -0.003428296              -0.001235496               0.005942042               0.004706546               0.000000000               0.000000000               0.000000000               0.000000000               0.001520176               0.013616314              -0.001821121              -0.001131971               0.004916049               0.003784078               0.000000000               0.000000000               0.000000000               0.000000000               0.001330209               0.011461221              -0.000248623              -0.000933822               0.004131643               0.003197821               0.000000000               0.000000000               0.000000000               0.000000000               0.001005757               0.010182998               0.000367342              -0.000895714               0.003692870               0.002797156               0.000000000               0.000000000               0.000000000               0.000000000               0.000716048               0.009334745               0.000601263              -0.000898323               0.003410991               0.002512669               0.000000000               0.000000000               0.000000000               0.000000000               0.000485015               0.008714688               0.000678730              -0.000907453               0.003207351               0.002299898               0.000000000               0.000000000               0.000000000               0.000000000               0.000311508               0.008226712               0.000686171              -0.000911521               0.003046050               0.002134529               0.000000000               0.000000000               0.000000000               0.000000000               0.000186356               0.007817447               0.000662324              -0.000907295               0.002908221               0.002000926               0.000000000               0.000000000               0.000000000               0.000000000               0.000100829               0.007465811               0.000628597              -0.000895413               0.002787050               0.001891637               0.000000000               0.000000000               0.000000000               0.000000000               0.000041357               0.007153009               0.000594247              -0.000878615               0.002677184               0.001798569               0.000000000               0.000000000               0.000000000               0.000000000               0.000000721               0.006864905               0.000556841              -0.000857841               0.002574226               0.001716385               0.000000000               0.000000000               0.000000000               0.000000000              -0.000021743               0.006593217               0.000509660              -0.000832304               0.002475152               0.001642848               0.000000000               0.000000000               0.000000000               0.000000000              -0.000029336               0.006339996               0.000448423              -0.000803499               0.002381144               0.001577645               0.000000000               0.000000000               0.000000000               0.000000000              -0.000024894               0.006112379               0.000372412              -0.000773381               0.002295233               0.001521852               0.000000000               0.000000000               0.000000000               0.000000000              -0.000014280               0.005916958               0.000279993              -0.000744973               0.002220624               0.001475651               0.000000000               0.000000000               0.000000000               0.000000000              -0.000007200               0.005765454               0.000158256              -0.000723380               0.002162926               0.001439545               0.000000000               0.000000000               0.000000000               0.000000000              -0.000008725               0.005690894               0.000090110              -0.000714632               0.002135156               0.001420525               0.000000000               0.000000000               0.000000000               0.000000000               0.002346338               0.014467903              -0.003903761              -0.000928612               0.005132123               0.004203511               0.000000000               0.000000000               0.000000000               0.000000000               0.001254730               0.012280898              -0.002118187              -0.001064587               0.004448454               0.003383866               0.000000000               0.000000000               0.000000000               0.000000000               0.000661508               0.010865011              -0.000392075              -0.001110058               0.003991653               0.002881595               0.000000000               0.000000000               0.000000000               0.000000000               0.000256758               0.009915056               0.000251926              -0.001143095               0.003686017               0.002542922               0.000000000               0.000000000               0.000000000               0.000000000               0.000005027               0.009214482               0.000491343              -0.001149922               0.003454771               0.002304849               0.000000000               0.000000000               0.000000000               0.000000000              -0.000145869               0.008663932               0.000571676              -0.001137690               0.003267178               0.002129489               0.000000000               0.000000000               0.000000000               0.000000000              -0.000233976               0.008209233               0.000582152              -0.001113893               0.003107681               0.001993789               0.000000000               0.000000000               0.000000000               0.000000000              -0.000275433               0.007819015               0.000561009              -0.001080661               0.002966533               0.001885871               0.000000000               0.000000000               0.000000000               0.000000000              -0.000275280               0.007476911               0.000531581              -0.001037841               0.002838226               0.001800384               0.000000000               0.000000000               0.000000000               0.000000000              -0.000254287               0.007168884               0.000499494              -0.000991466               0.002720093               0.001728627               0.000000000               0.000000000               0.000000000               0.000000000              -0.000222552               0.006884726               0.000460970              -0.000944046               0.002609568               0.001665522               0.000000000               0.000000000               0.000000000               0.000000000              -0.000179188               0.006625971               0.000412377              -0.000895440               0.002507115               0.001611675               0.000000000               0.000000000               0.000000000               0.000000000              -0.000129990               0.006399966               0.000353272              -0.000848740               0.002416214               0.001567474               0.000000000               0.000000000               0.000000000               0.000000000              -0.000083025               0.006218274               0.000281796              -0.000808417               0.002342209               0.001533793               0.000000000               0.000000000               0.000000000               0.000000000              -0.000045390               0.006085742               0.000200529              -0.000777737               0.002287806               0.001510069               0.000000000               0.000000000               0.000000000               0.000000000              -0.000018843               0.006008561               0.000106992              -0.000758134               0.002255545               0.001497411               0.000000000               0.000000000               0.000000000               0.000000000              -0.000005525               0.005989080               0.000054996              -0.000750705               0.002246575               0.001495870               0.000000000               0.000000000               0.000000000               0.000000000               0.002279573               0.012184635              -0.003990779              -0.000668242               0.004284251               0.003616009               0.000000000               0.000000000               0.000000000               0.000000000               0.000887090               0.010863995              -0.002253384              -0.001025339               0.003963075               0.002937735               0.000000000               0.000000000               0.000000000               0.000000000              -0.000040812               0.010215147              -0.000583439              -0.001292195               0.003835746               0.002543552               0.000000000               0.000000000               0.000000000               0.000000000              -0.000457524               0.009576404               0.000016309              -0.001368619               0.003648309               0.002279691               0.000000000               0.000000000               0.000000000               0.000000000              -0.000628417               0.009009746               0.000244211              -0.001361871               0.003457176               0.002095304               0.000000000               0.000000000               0.000000000               0.000000000              -0.000677193               0.008522235               0.000331489              -0.001319223               0.003280458               0.001961234               0.000000000               0.000000000               0.000000000               0.000000000              -0.000664622               0.008099605               0.000354803              -0.001261681               0.003120402               0.001858721               0.000000000               0.000000000               0.000000000               0.000000000              -0.000616928               0.007728513               0.000344541              -0.001197409               0.002975281               0.001777872               0.000000000               0.000000000               0.000000000               0.000000000              -0.000541546               0.007395430               0.000323745              -0.001127506               0.002840954               0.001713448               0.000000000               0.000000000               0.000000000               0.000000000              -0.000449884               0.007093774               0.000298900              -0.001055426               0.002716376               0.001660951               0.000000000               0.000000000               0.000000000               0.000000000              -0.000351262               0.006818970               0.000268220              -0.000984092               0.002600998               0.001616906               0.000000000               0.000000000               0.000000000               0.000000000              -0.000254395               0.006579998               0.000230119              -0.000917896               0.002499276               0.001581380               0.000000000               0.000000000               0.000000000               0.000000000              -0.000171548               0.006386808               0.000186853              -0.000862679               0.002416474               0.001553795               0.000000000               0.000000000               0.000000000               0.000000000              -0.000107350               0.006240917               0.000139357              -0.000820369               0.002353741               0.001533372               0.000000000               0.000000000               0.000000000               0.000000000              -0.000062015               0.006137876               0.000089518              -0.000790488               0.002309434               0.001518946               0.000000000               0.000000000               0.000000000               0.000000000              -0.000028193               0.006070462               0.000042109              -0.000769378               0.002279927               0.001510548               0.000000000               0.000000000               0.000000000               0.000000000              -0.000018683               0.006036430               0.000022938              -0.000761558               0.002265976               0.001504418               0.000000000               0.000000000               0.000000000               0.000000000               0.001971204               0.009933643              -0.003751153              -0.000502507               0.003478682               0.002976176               0.000000000               0.000000000               0.000000000               0.000000000               0.000430274               0.009476565              -0.002263836              -0.001023217               0.003499895               0.002476678               0.000000000               0.000000000               0.000000000               0.000000000              -0.000700708               0.009536659              -0.000820924              -0.001454845               0.003663803               0.002208958               0.000000000               0.000000000               0.000000000               0.000000000              -0.001050648               0.009161473              -0.000300308              -0.001539173               0.003566852               0.002027678               0.000000000               0.000000000               0.000000000               0.000000000              -0.001103587               0.008715226              -0.000082774              -0.001503245               0.003406128               0.001902883               0.000000000               0.000000000               0.000000000               0.000000000              -0.001043742               0.008287970               0.000018386              -0.001427396               0.003238428               0.001811032               0.000000000               0.000000000               0.000000000               0.000000000              -0.000939771               0.007896492               0.000063727              -0.001339472               0.003078628               0.001739156               0.000000000               0.000000000               0.000000000               0.000000000              -0.000810726               0.007543911               0.000074633              -0.001247008               0.002930281               0.001683273               0.000000000               0.000000000               0.000000000               0.000000000              -0.000666789               0.007226651               0.000072982              -0.001153374               0.002793318               0.001639943               0.000000000               0.000000000               0.000000000               0.000000000              -0.000521383               0.006941917               0.000067200              -0.001063256               0.002668368               0.001605112               0.000000000               0.000000000               0.000000000               0.000000000              -0.000385852               0.006692216               0.000055895              -0.000981219               0.002557789               0.001576570               0.000000000               0.000000000               0.000000000               0.000000000              -0.000267671               0.006483870               0.000044544              -0.000910858               0.002464888               0.001554030               0.000000000               0.000000000               0.000000000               0.000000000              -0.000176410               0.006312695               0.000035440              -0.000855239               0.002389290               0.001534052               0.000000000               0.000000000               0.000000000               0.000000000              -0.000114232               0.006170396               0.000026332              -0.000814134               0.002328156               0.001514022               0.000000000               0.000000000               0.000000000               0.000000000              -0.000072340               0.006049738               0.000019141              -0.000783343               0.002277673               0.001494331               0.000000000               0.000000000               0.000000000               0.000000000              -0.000035858               0.005942492               0.000011739              -0.000756256               0.002232896               0.001476640               0.000000000               0.000000000               0.000000000               0.000000000              -0.000034691               0.005867008               0.000016674              -0.000746383               0.002204444               0.001458061               0.000000000               0.000000000               0.000000000               0.000000000               0.001442642               0.007845038              -0.003270028              -0.000439641               0.002761533               0.002321891               0.000000000               0.000000000               0.000000000               0.000000000              -0.000088839               0.008198359              -0.002191961              -0.001058108               0.003085461               0.002027353               0.000000000               0.000000000               0.000000000               0.000000000              -0.001249766               0.008844227              -0.001099680              -0.001574187               0.003472775               0.001898588               0.000000000               0.000000000               0.000000000               0.000000000              -0.001464005               0.008677758              -0.000655562              -0.001633718               0.003437130               0.001803412               0.000000000               0.000000000               0.000000000               0.000000000              -0.001386151               0.008338259              -0.000433439              -0.001562085               0.003300087               0.001738002               0.000000000               0.000000000               0.000000000               0.000000000              -0.001226428               0.007972865              -0.000307408              -0.001456515               0.003143100               0.001686585               0.000000000               0.000000000               0.000000000               0.000000000              -0.001045642               0.007621170              -0.000231568              -0.001344758               0.002988617               0.001643859               0.000000000               0.000000000               0.000000000               0.000000000              -0.000854153               0.007295789              -0.000188359              -0.001232278               0.002842664               0.001610387               0.000000000               0.000000000               0.000000000               0.000000000              -0.000660746               0.007003601              -0.000158740              -0.001123227               0.002708919               0.001585692               0.000000000               0.000000000               0.000000000               0.000000000              -0.000484408               0.006745782              -0.000132483              -0.001024873               0.002590196               0.001565323               0.000000000               0.000000000               0.000000000               0.000000000              -0.000337788               0.006518977              -0.000108477              -0.000941540               0.002486817               0.001545277               0.000000000               0.000000000               0.000000000               0.000000000              -0.000229666               0.006313032              -0.000083186              -0.000875251               0.002396073               0.001520822               0.000000000               0.000000000               0.000000000               0.000000000              -0.000163195               0.006121719              -0.000054862              -0.000826411               0.002316023               0.001489612               0.000000000               0.000000000               0.000000000               0.000000000              -0.000123881               0.005945188              -0.000026127              -0.000789602               0.002244910               0.001455308               0.000000000               0.000000000               0.000000000               0.000000000              -0.000093964               0.005783106              -0.000003879              -0.000758123               0.002180390               0.001422268               0.000000000               0.000000000               0.000000000               0.000000000              -0.000057304               0.005637478               0.000006952              -0.000726172               0.002121198               0.001395026               0.000000000               0.000000000               0.000000000               0.000000000              -0.000048359               0.005544713               0.000018239              -0.000711222               0.002085293               0.001374071               0.000000000               0.000000000               0.000000000               0.000000000               0.000790987               0.006069338              -0.002641712              -0.000462049               0.002177108               0.001715059               0.000000000               0.000000000               0.000000000               0.000000000              -0.000585722               0.007057019              -0.002087051              -0.001101772               0.002719573               0.001617801               0.000000000               0.000000000               0.000000000               0.000000000              -0.001649335               0.008169622              -0.001425053              -0.001639700               0.003269746               0.001630047               0.000000000               0.000000000               0.000000000               0.000000000              -0.001714556               0.008215227              -0.001032344              -0.001669858               0.003295001               0.001625143               0.000000000               0.000000000               0.000000000               0.000000000              -0.001531696               0.007994182              -0.000786659              -0.001573655               0.003189252               0.001615597               0.000000000               0.000000000               0.000000000               0.000000000              -0.001297531               0.007705241              -0.000624666              -0.001449726               0.003051630               0.001601904               0.000000000               0.000000000               0.000000000               0.000000000              -0.001058856               0.007407444              -0.000514436              -0.001322998               0.002910123               0.001587124               0.000000000               0.000000000               0.000000000               0.000000000              -0.000821232               0.007117689              -0.000433256              -0.001197670               0.002771763               0.001574092               0.000000000               0.000000000               0.000000000               0.000000000              -0.000593434               0.006854981              -0.000364089              -0.001079408               0.002644773               0.001565366               0.000000000               0.000000000               0.000000000               0.000000000              -0.000397660               0.006616075              -0.000300907              -0.000976129               0.002530713               0.001554583               0.000000000               0.000000000               0.000000000               0.000000000              -0.000258548               0.006376142              -0.000243046              -0.000893971               0.002423350               0.001529379               0.000000000               0.000000000               0.000000000               0.000000000              -0.000173114               0.006142541              -0.000186882              -0.000832733               0.002325071               0.001492338               0.000000000               0.000000000               0.000000000               0.000000000              -0.000132357               0.005921618              -0.000127738              -0.000789834               0.002237131               0.001447297               0.000000000               0.000000000               0.000000000               0.000000000              -0.000128488               0.005706818              -0.000071044              -0.000761533               0.002156098               0.001394565               0.000000000               0.000000000               0.000000000               0.000000000              -0.000135752               0.005506696              -0.000027732              -0.000739242               0.002081961               0.001342719               0.000000000               0.000000000               0.000000000               0.000000000              -0.000136331               0.005327259              -0.000002479              -0.000717030               0.002014745               0.001297715               0.000000000               0.000000000               0.000000000               0.000000000              -0.000132667               0.005231701               0.000007786              -0.000703711               0.001978453               0.001274742               0.000000000               0.000000000               0.000000000               0.000000000              -0.000009205               0.004402682              -0.001961323              -0.000553787               0.001652141               0.001098354               0.000000000               0.000000000               0.000000000               0.000000000              -0.000983179               0.005739393              -0.001965574              -0.001086115               0.002275149               0.001189035               0.000000000               0.000000000               0.000000000               0.000000000              -0.001847059               0.007185668              -0.001777313              -0.001590852               0.002925483               0.001334630               0.000000000               0.000000000               0.000000000               0.000000000              -0.001834947               0.007531344              -0.001448596              -0.001629519               0.003053596               0.001424076               0.000000000               0.000000000               0.000000000               0.000000000              -0.001611324               0.007514412              -0.001176659              -0.001543544               0.003019293               0.001475749               0.000000000               0.000000000               0.000000000               0.000000000              -0.001347976               0.007374860              -0.000972947              -0.001427345               0.002934044               0.001506699               0.000000000               0.000000000               0.000000000               0.000000000              -0.001092614               0.007188818              -0.000823144              -0.001308329               0.002832358               0.001524029               0.000000000               0.000000000               0.000000000               0.000000000              -0.000847729               0.006981584              -0.000702267              -0.001190594               0.002724036               0.001533442               0.000000000               0.000000000               0.000000000               0.000000000              -0.000614572               0.006777188              -0.000596845              -0.001077610               0.002618243               0.001540633               0.000000000               0.000000000               0.000000000               0.000000000              -0.000414124               0.006560513              -0.000499549              -0.000975358               0.002511935               0.001536577               0.000000000               0.000000000               0.000000000               0.000000000              -0.000268105               0.006317928              -0.000405332              -0.000890278               0.002402714               0.001512436               0.000000000               0.000000000               0.000000000               0.000000000              -0.000177894               0.006075479              -0.000314429              -0.000826143               0.002300521               0.001474377               0.000000000               0.000000000               0.000000000               0.000000000              -0.000140752               0.005833858              -0.000223057              -0.000782012               0.002205271               0.001423258               0.000000000               0.000000000               0.000000000               0.000000000              -0.000149897               0.005601222              -0.000137823              -0.000756362               0.002119176               0.001362814               0.000000000               0.000000000               0.000000000               0.000000000              -0.000188561               0.005386055              -0.000070535              -0.000743965               0.002043322               0.001299357               0.000000000               0.000000000               0.000000000               0.000000000              -0.000237344               0.005187346              -0.000023495              -0.000737421               0.001974905               0.001237484               0.000000000               0.000000000               0.000000000               0.000000000              -0.000261301               0.005091265              -0.000004284              -0.000734394               0.001941869               0.001207475               0.000000000               0.000000000               0.000000000               0.000000000              -0.001077257               0.002876902              -0.001269126              -0.000763583               0.001213485               0.000449902               0.000000000               0.000000000               0.000000000               0.000000000              -0.001434797               0.004417861              -0.001778968              -0.001090280               0.001836031               0.000745752               0.000000000               0.000000000               0.000000000               0.000000000              -0.001961058               0.006055596              -0.002052447              -0.001492343               0.002515959               0.001023616               0.000000000               0.000000000               0.000000000               0.000000000              -0.001882083               0.006688390              -0.001844882              -0.001541827               0.002743383               0.001201556               0.000000000               0.000000000               0.000000000               0.000000000              -0.001642326               0.006908370              -0.001576984              -0.001479415               0.002795905               0.001316490               0.000000000               0.000000000               0.000000000               0.000000000              -0.001371278               0.006950176              -0.001343095              -0.001382998               0.002777702               0.001394703               0.000000000               0.000000000               0.000000000               0.000000000              -0.001115493               0.006902241              -0.001156576              -0.001281087               0.002727753               0.001446666               0.000000000               0.000000000               0.000000000               0.000000000              -0.000875454               0.006803173              -0.001003591              -0.001178689               0.002660598               0.001481909               0.000000000               0.000000000               0.000000000               0.000000000              -0.000641841               0.006681451              -0.000869675              -0.001075869               0.002585751               0.001509882               0.000000000               0.000000000               0.000000000               0.000000000              -0.000435106               0.006518723              -0.000746080              -0.000978003               0.002498887               0.001520884               0.000000000               0.000000000               0.000000000               0.000000000              -0.000271128               0.006308197              -0.000627016              -0.000890196               0.002399443               0.001509248               0.000000000               0.000000000               0.000000000               0.000000000              -0.000156192               0.006080353              -0.000509194              -0.000818614               0.002299635               0.001481021               0.000000000               0.000000000               0.000000000               0.000000000              -0.000094840               0.005842739              -0.000387832              -0.000765905               0.002202862               0.001436956               0.000000000               0.000000000               0.000000000               0.000000000              -0.000086849               0.005607245              -0.000268536              -0.000733472               0.002113554               0.001380082               0.000000000               0.000000000               0.000000000               0.000000000              -0.000133872               0.005382404              -0.000162337              -0.000723001               0.002035117               0.001312116               0.000000000               0.000000000               0.000000000               0.000000000              -0.000223819               0.005181456              -0.000072102              -0.000731612               0.001971006               0.001239393               0.000000000               0.000000000               0.000000000               0.000000000              -0.000292895               0.005079076              -0.000024232              -0.000744718               0.001941248               0.001196530               0.000000000               0.000000000               0.000000000               0.000000000              -0.002336569               0.001607491              -0.000615937              -0.001077148               0.000894873              -0.000182275               0.000000000               0.000000000               0.000000000               0.000000000              -0.001990582               0.003170676              -0.001501670              -0.001142801               0.001437814               0.000295014               0.000000000               0.000000000               0.000000000               0.000000000              -0.002028802               0.004800151              -0.002151400              -0.001360817               0.002053639               0.000692822               0.000000000               0.000000000               0.000000000               0.000000000              -0.001827152               0.005640031              -0.002099952              -0.001390183               0.002343385               0.000953202               0.000000000               0.000000000               0.000000000               0.000000000              -0.001562832               0.006080092              -0.001880939              -0.001346071               0.002475367               0.001129296               0.000000000               0.000000000               0.000000000               0.000000000              -0.001293105               0.006311189              -0.001648619              -0.001273811               0.002528312               0.001254501               0.000000000               0.000000000               0.000000000               0.000000000              -0.001039783               0.006421060              -0.001445004              -0.001192549               0.002537848               0.001345299               0.000000000               0.000000000               0.000000000               0.000000000              -0.000805673               0.006452999              -0.001273328              -0.001108750               0.002520561               0.001411811               0.000000000               0.000000000               0.000000000               0.000000000              -0.000584257               0.006437188              -0.001120944              -0.001023743               0.002486955               0.001463213               0.000000000               0.000000000               0.000000000               0.000000000              -0.000383120               0.006357661              -0.000981705              -0.000938376               0.002431991               0.001493615               0.000000000               0.000000000               0.000000000               0.000000000              -0.000207439               0.006211651              -0.000849000              -0.000854244               0.002355277               0.001501033               0.000000000               0.000000000               0.000000000               0.000000000              -0.000068712               0.006024387              -0.000714841              -0.000778813               0.002267713               0.001488900               0.000000000               0.000000000               0.000000000               0.000000000               0.000021090               0.005814384              -0.000574315              -0.000718888               0.002177738               0.001458850               0.000000000               0.000000000               0.000000000               0.000000000               0.000062623               0.005599628              -0.000428711              -0.000676468               0.002092013               0.001415545               0.000000000               0.000000000               0.000000000               0.000000000               0.000044723               0.005380274              -0.000282911              -0.000655761               0.002011994               0.001356232               0.000000000               0.000000000               0.000000000               0.000000000              -0.000040359               0.005177529              -0.000138833              -0.000662324               0.001946600               0.001284276               0.000000000               0.000000000               0.000000000               0.000000000              -0.000126639               0.005067604              -0.000057948              -0.000680938               0.001916164               0.001235226               0.000000000               0.000000000               0.000000000               0.000000000              -0.003690614               0.000659459              -0.000086233              -0.001466411               0.000708619              -0.000757792               0.000000000               0.000000000               0.000000000               0.000000000              -0.002616991               0.002065154              -0.001166610              -0.001239514               0.001101548              -0.000137966               0.000000000               0.000000000               0.000000000               0.000000000              -0.002076972               0.003521529              -0.002048216              -0.001219054               0.001580182               0.000361128               0.000000000               0.000000000               0.000000000               0.000000000              -0.001692572               0.004468321              -0.002142547              -0.001193253               0.001887175               0.000693923               0.000000000               0.000000000               0.000000000               0.000000000              -0.001376736               0.005082072              -0.002000072              -0.001151533               0.002077851               0.000926318               0.000000000               0.000000000               0.000000000               0.000000000              -0.001103547               0.005482734              -0.001802326              -0.001099170               0.002193949               0.001094779               0.000000000               0.000000000               0.000000000               0.000000000              -0.000859626               0.005746374              -0.001610816              -0.001040655               0.002262323               0.001221669               0.000000000               0.000000000               0.000000000               0.000000000              -0.000635067               0.005920860              -0.001438345              -0.000978256               0.002299685               0.001321429               0.000000000               0.000000000               0.000000000               0.000000000              -0.000425520               0.006028856              -0.001281823              -0.000913175               0.002313990               0.001400815               0.000000000               0.000000000               0.000000000               0.000000000              -0.000232936               0.006051533              -0.001142938              -0.000843791               0.002298421               0.001454630               0.000000000               0.000000000               0.000000000               0.000000000              -0.000056502               0.005993705              -0.001010445              -0.000770400               0.002254682               0.001484282               0.000000000               0.000000000               0.000000000               0.000000000               0.000100608               0.005881528              -0.000870199              -0.000697462               0.002192977               0.001495515               0.000000000               0.000000000               0.000000000               0.000000000               0.000225447               0.005728692              -0.000723296              -0.000631543               0.002120059               0.001488517               0.000000000               0.000000000               0.000000000               0.000000000               0.000312906               0.005552406              -0.000568679              -0.000576710               0.002043020               0.001466310               0.000000000               0.000000000               0.000000000               0.000000000               0.000352875               0.005362025              -0.000399083              -0.000537924               0.001966631               0.001428708               0.000000000               0.000000000               0.000000000               0.000000000               0.000330204               0.005174358              -0.000207882              -0.000522967               0.001899091               0.001376124               0.000000000               0.000000000               0.000000000               0.000000000               0.000281171               0.005072278              -0.000100557              -0.000528594               0.001866940               0.001338346               0.000000000               0.000000000               0.000000000               0.000000000              -0.004999709               0.000029935               0.000245710              -0.001878631               0.000636184              -0.001242447               0.000000000               0.000000000               0.000000000               0.000000000              -0.003254023               0.001166884              -0.000819358              -0.001366117               0.000844328              -0.000521790               0.000000000               0.000000000               0.000000000               0.000000000              -0.002123179               0.002341052              -0.001741525              -0.001088822               0.001143282               0.000054461               0.000000000               0.000000000               0.000000000               0.000000000              -0.001515904               0.003300423              -0.001928900              -0.000981015               0.001427134               0.000446119               0.000000000               0.000000000               0.000000000               0.000000000              -0.001121343               0.004023882              -0.001864411              -0.000923488               0.001649109               0.000725621               0.000000000               0.000000000               0.000000000               0.000000000              -0.000828256               0.004558842              -0.001721610              -0.000880450               0.001813082               0.000932632               0.000000000               0.000000000               0.000000000               0.000000000              -0.000590570               0.004959219              -0.001565527              -0.000841365               0.001933511               0.001092146               0.000000000               0.000000000               0.000000000               0.000000000              -0.000382139               0.005266410              -0.001416026              -0.000801602               0.002022653               0.001221051               0.000000000               0.000000000               0.000000000               0.000000000              -0.000183981               0.005493354              -0.001279404              -0.000755661               0.002082986               0.001327326               0.000000000               0.000000000               0.000000000               0.000000000               0.000000306               0.005622633              -0.001156821              -0.000702713               0.002108430               0.001405717               0.000000000               0.000000000               0.000000000               0.000000000               0.000170654               0.005667302              -0.001036563              -0.000644416               0.002103887               0.001459471               0.000000000               0.000000000               0.000000000               0.000000000               0.000335168               0.005647888              -0.000907597              -0.000580297               0.002076043               0.001495746               0.000000000               0.000000000               0.000000000               0.000000000               0.000493225               0.005572562              -0.000771569              -0.000511610               0.002028039               0.001516429               0.000000000               0.000000000               0.000000000               0.000000000               0.000637985               0.005455859              -0.000625389              -0.000442737               0.001966180               0.001523443               0.000000000               0.000000000               0.000000000               0.000000000               0.000760385               0.005313031              -0.000456651              -0.000378984               0.001897321               0.001518337               0.000000000               0.000000000               0.000000000               0.000000000               0.000851963               0.005159561              -0.000248826              -0.000325458               0.001828323               0.001502864               0.000000000               0.000000000               0.000000000               0.000000000               0.000898538               0.005083844              -0.000134262              -0.000298528               0.001794107               0.001495579               0.000000000               0.000000000               0.000000000               0.000000000              -0.006111769              -0.000333775               0.000342080              -0.002250190               0.000638801              -0.001611389               0.000000000               0.000000000               0.000000000               0.000000000              -0.003816887               0.000514871              -0.000504335              -0.001495690               0.000670182              -0.000825508               0.000000000               0.000000000               0.000000000               0.000000000              -0.002169755               0.001384259              -0.001263253              -0.000986689               0.000790310              -0.000196379               0.000000000               0.000000000               0.000000000               0.000000000              -0.001341018               0.002295164              -0.001460812              -0.000789776               0.001028305               0.000238529               0.000000000               0.000000000               0.000000000               0.000000000              -0.000857553               0.003074318              -0.001448718              -0.000705871               0.001260052               0.000554181               0.000000000               0.000000000               0.000000000               0.000000000              -0.000536699               0.003701070              -0.001362240              -0.000663895               0.001454976               0.000791081               0.000000000               0.000000000               0.000000000               0.000000000              -0.000297342               0.004200899              -0.001254860              -0.000636615               0.001612490               0.000975875               0.000000000               0.000000000               0.000000000               0.000000000              -0.000095757               0.004610878              -0.001148385              -0.000612268               0.001741033               0.001128765               0.000000000               0.000000000               0.000000000               0.000000000               0.000091525               0.004937243              -0.001050473              -0.000582833               0.001840009               0.001257176               0.000000000               0.000000000               0.000000000               0.000000000               0.000263007               0.005161698              -0.000958834              -0.000546584               0.001902743               0.001356159               0.000000000               0.000000000               0.000000000               0.000000000               0.000426101               0.005298792              -0.000866347              -0.000502560               0.001933766               0.001431206               0.000000000               0.000000000               0.000000000               0.000000000               0.000595247               0.005365297              -0.000767858              -0.000447444               0.001937562               0.001490119               0.000000000               0.000000000               0.000000000               0.000000000               0.000778309               0.005373479              -0.000663067              -0.000379818               0.001917748               0.001537930               0.000000000               0.000000000               0.000000000               0.000000000               0.000976242               0.005331081              -0.000547784              -0.000300294               0.001877107               0.001576813               0.000000000               0.000000000               0.000000000               0.000000000               0.001191011               0.005247288              -0.000411248              -0.000209281               0.001818839               0.001609557               0.000000000               0.000000000               0.000000000               0.000000000               0.001418888               0.005134073              -0.000231323              -0.000109676               0.001747899               0.001638223               0.000000000               0.000000000               0.000000000               0.000000000               0.001589065               0.005089576              -0.000133574              -0.000040298               0.001709941               0.001669643               0.000000000               0.000000000               0.000000000               0.000000000              -0.006865107              -0.000511966               0.000232476              -0.002510418               0.000666146              -0.001844272               0.000000000               0.000000000               0.000000000               0.000000000              -0.004207276               0.000119136              -0.000235503              -0.001592619               0.000570581              -0.001022038               0.000000000               0.000000000               0.000000000               0.000000000              -0.002206236               0.000757756              -0.000662211              -0.000922057               0.000559933              -0.000362123               0.000000000               0.000000000               0.000000000               0.000000000              -0.001213627               0.001611032              -0.000786179              -0.000656488               0.000755834               0.000099346               0.000000000               0.000000000               0.000000000               0.000000000              -0.000661017               0.002408752              -0.000792679              -0.000548974               0.000985901               0.000436926               0.000000000               0.000000000               0.000000000               0.000000000              -0.000314024               0.003088346              -0.000753635              -0.000503802               0.001197372               0.000693570               0.000000000               0.000000000               0.000000000               0.000000000              -0.000067287               0.003648700              -0.000699780              -0.000481319               0.001376661               0.000895342               0.000000000               0.000000000               0.000000000               0.000000000               0.000134562               0.004120011              -0.000646197              -0.000464540               0.001528170               0.001063630               0.000000000               0.000000000               0.000000000               0.000000000               0.000313464               0.004513149              -0.000595616              -0.000446594               0.001653232               0.001206639               0.000000000               0.000000000               0.000000000               0.000000000               0.000474609               0.004803438              -0.000546430              -0.000422451               0.001741947               0.001319496               0.000000000               0.000000000               0.000000000               0.000000000               0.000632229               0.005000354              -0.000496568              -0.000387958               0.001796087               0.001408129               0.000000000               0.000000000               0.000000000               0.000000000               0.000805719               0.005127920              -0.000443198              -0.000338845               0.001822238               0.001483393               0.000000000               0.000000000               0.000000000               0.000000000               0.001007552               0.005200120              -0.000384782              -0.000272182               0.001824083               0.001551901               0.000000000               0.000000000               0.000000000               0.000000000               0.001245398               0.005219937              -0.000322338              -0.000185468               0.001801784               0.001616317               0.000000000               0.000000000               0.000000000               0.000000000               0.001527884               0.005188979              -0.000246048              -0.000075666               0.001754864               0.001679199               0.000000000               0.000000000               0.000000000               0.000000000               0.001866238               0.005109960              -0.000139010               0.000061093               0.001682939               0.001744032               0.000000000               0.000000000               0.000000000               0.000000000               0.002143153               0.005090099              -0.000082595               0.000167419               0.001640876               0.001808295               0.000000000               0.000000000               0.000000000               0.000000000              -0.007130672              -0.000563274              -0.000000000              -0.002603591               0.000680101              -0.001923490               0.000000000               0.000000000               0.000000000               0.000000000              -0.004346322              -0.000013140              -0.000000000              -0.001628227               0.000538359              -0.001089868               0.000000000               0.000000000               0.000000000               0.000000000              -0.002220425               0.000537208               0.000000000              -0.000899809               0.000479002              -0.000420807               0.000000000               0.000000000               0.000000000               0.000000000              -0.001167117               0.001368088               0.000000000              -0.000608679               0.000658917               0.000050239               0.000000000               0.000000000               0.000000000               0.000000000              -0.000587492               0.002174041               0.000000000              -0.000492063               0.000888694               0.000396631               0.000000000               0.000000000               0.000000000               0.000000000              -0.000229775               0.002867396              -0.000000000              -0.000444589               0.001103985               0.000659396               0.000000000               0.000000000               0.000000000               0.000000000               0.000021049               0.003445217              -0.000000000              -0.000422758               0.001289313               0.000866556               0.000000000               0.000000000               0.000000000               0.000000000               0.000223127               0.003937502               0.000000000              -0.000408514               0.001448659               0.001040145               0.000000000               0.000000000               0.000000000               0.000000000               0.000398062               0.004354984               0.000000000              -0.000395099               0.001583346               0.001188248               0.000000000               0.000000000               0.000000000               0.000000000               0.000555781               0.004669689              -0.000000000              -0.000375292               0.001681645               0.001306352               0.000000000               0.000000000               0.000000000               0.000000000               0.000711536               0.004885892              -0.000000000              -0.000343910               0.001743251               0.001399341               0.000000000               0.000000000               0.000000000               0.000000000               0.000886073               0.005033970              -0.000000000              -0.000296968               0.001776963               0.001479994               0.000000000               0.000000000               0.000000000               0.000000000               0.001095510               0.005127871               0.000000000              -0.000230167               0.001785996               0.001555828               0.000000000               0.000000000               0.000000000               0.000000000               0.001350084               0.005172444               0.000000000              -0.000140274               0.001770889               0.001630615               0.000000000               0.000000000               0.000000000               0.000000000               0.001655311               0.005164361              -0.000000000              -0.000024803               0.001729704               0.001704901               0.000000000               0.000000000               0.000000000               0.000000000               0.002036084               0.005099543              -0.000000000               0.000126087               0.001657802               0.001783889               0.000000000               0.000000000               0.000000000               0.000000000               0.002355685               0.005089389              -0.000000000               0.000247206               0.001614044               0.001861250               0.000000000               0.000000000               0.000000000               0.000000000               0.000000000               0.000000000               0.000000000               0.000000000               0.000000000               0.000000000               0.000000000               0.000000000               0.000000000               0.000000000               0.000000000               0.000000000               0.000000000               0.000000000               0.000000000               0.000000000               0.000000000               0.000000000               0.000000000               0.000000000               0.000000000               0.000000000               0.000000000               0.000000000               0.000000000               0.000000000               0.000000000               0.000000000               0.000000000               0.000000000               0.000000000               0.000000000               0.000000000               0.000000000               0.000000000               0.000000000               0.000000000               0.000000000               0.000000000               0.000000000               0.000000000               0.000000000               0.000000000               0.000000000               0.000000000               0.000000000               0.000000000               0.000000000               0.000000000               0.000000000               0.000000000               0.000000000               0.000000000               0.000000000               0.000000000               0.000000000               0.000000000               0.000000000               0.000000000               0.000000000               0.000000000               0.000000000               0.000000000               0.000000000               0.000000000               0.000000000               0.000000000               0.000000000               0.000000000               0.000000000               0.000000000               0.000000000               0.000000000               0.000000000               0.000000000               0.000000000               0.000000000               0.000000000               0.000000000               0.000000000               0.000000000               0.000000000               0.000000000               0.000000000               0.000000000               0.000000000               0.000000000               0.000000000               0.000000000               0.000000000               0.000000000               0.000000000               0.000000000               0.000000000               0.000000000               0.000000000               0.000000000               0.000000000               0.000000000               0.000000000               0.000000000               0.000000000               0.000000000               0.000000000               0.000000000               0.000000000               0.000000000               0.000000000               0.000000000               0.000000000               0.000000000               0.000000000               0.000000000               0.000000000               0.000000000               0.000000000               0.000000000               0.000000000               0.000000000               0.000000000               0.000000000               0.000000000               0.000000000               0.000000000               0.000000000               0.000000000               0.000000000               0.000000000               0.000000000               0.000000000               0.000000000               0.000000000               0.000000000               0.000000000               0.000000000               0.000000000               0.000000000               0.000000000               0.000000000               0.000000000               0.000000000               0.000000000               0.000000000               0.000000000               0.000000000               0.000000000               0.000000000               0.000000000               0.000000000               0.000000000               0.000000000               0.000000000               0.000000000               0.000000000               0.000000000               0.000000000               0.000000000               0.000000000               0.000000000               0.000000000               0.000000000               0.000000000               0.000000000               0.000000000               0.000000000               0.000000000               0.000000000               0.000000000               0.000000000               0.000000000               0.001860821               0.019481166               0.001374847              -0.001737334               0.007072768               0.005335435               0.000000000               0.000000000               0.000000000               0.000000000               0.001774716               0.015482724               0.000722348              -0.001269819               0.005584129               0.004314310               0.000000000               0.000000000               0.000000000               0.000000000               0.002251468               0.012292218               0.000070306              -0.000692225               0.004328107               0.003635882               0.000000000               0.000000000               0.000000000               0.000000000               0.002137434               0.010513592              -0.000205040              -0.000512660               0.003675382               0.003162722               0.000000000               0.000000000               0.000000000               0.000000000               0.001863574               0.009407184              -0.000317330              -0.000477057               0.003294716               0.002817659               0.000000000               0.000000000               0.000000000               0.000000000               0.001567863               0.008657849              -0.000357863              -0.000494281               0.003050681               0.002556400               0.000000000               0.000000000               0.000000000               0.000000000               0.001290436               0.008109916              -0.000365209              -0.000529825               0.002879886               0.002350062               0.000000000               0.000000000               0.000000000               0.000000000               0.001046343               0.007679295              -0.000357176              -0.000567532               0.002748917               0.002181385               0.000000000               0.000000000               0.000000000               0.000000000               0.000836779               0.007316409              -0.000341310              -0.000600757               0.002639031               0.002038274               0.000000000               0.000000000               0.000000000               0.000000000               0.000654994               0.006994822              -0.000324000              -0.000628728               0.002541160               0.001912432               0.000000000               0.000000000               0.000000000               0.000000000               0.000494576               0.006697765              -0.000307848              -0.000651753               0.002449817               0.001798064               0.000000000               0.000000000               0.000000000               0.000000000               0.000355323               0.006410797              -0.000288425              -0.000668102               0.002359611               0.001691510               0.000000000               0.000000000               0.000000000               0.000000000               0.000236302               0.006118251              -0.000259715              -0.000676167               0.002264785               0.001588619               0.000000000               0.000000000               0.000000000               0.000000000               0.000138225               0.005807671              -0.000220079              -0.000674123               0.002160579               0.001486456               0.000000000               0.000000000               0.000000000               0.000000000               0.000064371               0.005472111              -0.000168532              -0.000659873               0.002043976               0.001384103               0.000000000               0.000000000               0.000000000               0.000000000               0.000020469               0.005103273              -0.000096996              -0.000630232               0.001911151               0.001280920               0.000000000               0.000000000               0.000000000               0.000000000              -0.000021159               0.004828759              -0.000060057              -0.000611528               0.001813413               0.001201885               0.000000000               0.000000000               0.000000000               0.000000000               0.002038872               0.018329718               0.002563581              -0.001526635               0.006618723               0.005092088               0.000000000               0.000000000               0.000000000               0.000000000               0.001686992               0.014731090               0.001349975              -0.001208762               0.005313235               0.004104473               0.000000000               0.000000000               0.000000000               0.000000000               0.001884959               0.011956710               0.000147458              -0.000787727               0.004248106               0.003460378               0.000000000               0.000000000               0.000000000               0.000000000               0.001675053               0.010384909              -0.000345045              -0.000669967               0.003684924               0.003014957               0.000000000               0.000000000               0.000000000               0.000000000               0.001382458               0.009388532              -0.000539587              -0.000655143               0.003347860               0.002692717               0.000000000               0.000000000               0.000000000               0.000000000               0.001105092               0.008696019              -0.000607339              -0.000672591               0.003122841               0.002450250               0.000000000               0.000000000               0.000000000               0.000000000               0.000868738               0.008175934              -0.000616413              -0.000696214               0.002957355               0.002261142               0.000000000               0.000000000               0.000000000               0.000000000               0.000672434               0.007754256              -0.000597844              -0.000717118               0.002823765               0.002106648               0.000000000               0.000000000               0.000000000               0.000000000               0.000512870               0.007394514              -0.000568691              -0.000731986               0.002708809               0.001976823               0.000000000               0.000000000               0.000000000               0.000000000               0.000380150               0.007076139              -0.000539141              -0.000741959               0.002606009               0.001864050               0.000000000               0.000000000               0.000000000               0.000000000               0.000270624               0.006783419              -0.000509552              -0.000746442               0.002509931               0.001763489               0.000000000               0.000000000               0.000000000               0.000000000               0.000181777               0.006502402              -0.000472404              -0.000744632               0.002415656               0.001671024               0.000000000               0.000000000               0.000000000               0.000000000               0.000111046               0.006225489              -0.000421017              -0.000736542               0.002320656               0.001584114               0.000000000               0.000000000               0.000000000               0.000000000               0.000060448               0.005951390              -0.000355285              -0.000721254               0.002224195               0.001502941               0.000000000               0.000000000               0.000000000               0.000000000               0.000025749               0.005681433              -0.000271992              -0.000700521               0.002127299               0.001426778               0.000000000               0.000000000               0.000000000               0.000000000               0.000006424               0.005416852              -0.000156255              -0.000674696               0.002030498               0.001355802               0.000000000               0.000000000               0.000000000               0.000000000              -0.000015272               0.005239886              -0.000094051              -0.000660711               0.001966848               0.001306137               0.000000000               0.000000000               0.000000000               0.000000000               0.002235609               0.016590798               0.003428296              -0.001235496               0.005942042               0.004706546               0.000000000               0.000000000               0.000000000               0.000000000               0.001520176               0.013616314               0.001821121              -0.001131971               0.004916049               0.003784078               0.000000000               0.000000000               0.000000000               0.000000000               0.001330209               0.011461221               0.000248623              -0.000933822               0.004131643               0.003197821               0.000000000               0.000000000               0.000000000               0.000000000               0.001005757               0.010182998              -0.000367342              -0.000895714               0.003692870               0.002797156               0.000000000               0.000000000               0.000000000               0.000000000               0.000716048               0.009334745              -0.000601263              -0.000898323               0.003410991               0.002512669               0.000000000               0.000000000               0.000000000               0.000000000               0.000485015               0.008714688              -0.000678730              -0.000907453               0.003207351               0.002299898               0.000000000               0.000000000               0.000000000               0.000000000               0.000311508               0.008226712              -0.000686171              -0.000911521               0.003046050               0.002134529               0.000000000               0.000000000               0.000000000               0.000000000               0.000186356               0.007817447              -0.000662324              -0.000907295               0.002908221               0.002000926               0.000000000               0.000000000               0.000000000               0.000000000               0.000100829               0.007465811              -0.000628597              -0.000895413               0.002787050               0.001891637               0.000000000               0.000000000               0.000000000               0.000000000               0.000041357               0.007153009              -0.000594247              -0.000878615               0.002677184               0.001798569               0.000000000               0.000000000               0.000000000               0.000000000               0.000000721               0.006864905              -0.000556841              -0.000857841               0.002574226               0.001716385               0.000000000               0.000000000               0.000000000               0.000000000              -0.000021743               0.006593217              -0.000509660              -0.000832304               0.002475152               0.001642848               0.000000000               0.000000000               0.000000000               0.000000000              -0.000029336               0.006339996              -0.000448423              -0.000803499               0.002381144               0.001577645               0.000000000               0.000000000               0.000000000               0.000000000              -0.000024894               0.006112379              -0.000372412              -0.000773381               0.002295233               0.001521852               0.000000000               0.000000000               0.000000000               0.000000000              -0.000014280               0.005916958              -0.000279993              -0.000744973               0.002220624               0.001475651               0.000000000               0.000000000               0.000000000               0.000000000              -0.000007200               0.005765454              -0.000158256              -0.000723380               0.002162926               0.001439545               0.000000000               0.000000000               0.000000000               0.000000000              -0.000008725               0.005690894              -0.000090110              -0.000714632               0.002135156               0.001420525               0.000000000               0.000000000               0.000000000               0.000000000               0.002346338               0.014467903               0.003903761              -0.000928612               0.005132123               0.004203511               0.000000000               0.000000000               0.000000000               0.000000000               0.001254730               0.012280898               0.002118187              -0.001064587               0.004448454               0.003383866               0.000000000               0.000000000               0.000000000               0.000000000               0.000661508               0.010865011               0.000392075              -0.001110058               0.003991653               0.002881595               0.000000000               0.000000000               0.000000000               0.000000000               0.000256758               0.009915056              -0.000251926              -0.001143095               0.003686017               0.002542922               0.000000000               0.000000000               0.000000000               0.000000000               0.000005027               0.009214482              -0.000491343              -0.001149922               0.003454771               0.002304849               0.000000000               0.000000000               0.000000000               0.000000000              -0.000145869               0.008663932              -0.000571676              -0.001137690               0.003267178               0.002129489               0.000000000               0.000000000               0.000000000               0.000000000              -0.000233976               0.008209233              -0.000582152              -0.001113893               0.003107681               0.001993789               0.000000000               0.000000000               0.000000000               0.000000000              -0.000275433               0.007819015              -0.000561009              -0.001080661               0.002966533               0.001885871               0.000000000               0.000000000               0.000000000               0.000000000              -0.000275280               0.007476911              -0.000531581              -0.001037841               0.002838226               0.001800384               0.000000000               0.000000000               0.000000000               0.000000000              -0.000254287               0.007168884              -0.000499494              -0.000991466               0.002720093               0.001728627               0.000000000               0.000000000               0.000000000               0.000000000              -0.000222552               0.006884726              -0.000460970              -0.000944046               0.002609568               0.001665522               0.000000000               0.000000000               0.000000000               0.000000000              -0.000179188               0.006625971              -0.000412377              -0.000895440               0.002507115               0.001611675               0.000000000               0.000000000               0.000000000               0.000000000              -0.000129990               0.006399966              -0.000353272              -0.000848740               0.002416214               0.001567474               0.000000000               0.000000000               0.000000000               0.000000000              -0.000083025               0.006218274              -0.000281796              -0.000808417               0.002342209               0.001533793               0.000000000               0.000000000               0.000000000               0.000000000              -0.000045390               0.006085742              -0.000200529              -0.000777737               0.002287806               0.001510069               0.000000000               0.000000000               0.000000000               0.000000000              -0.000018843               0.006008561              -0.000106992              -0.000758134               0.002255545               0.001497411               0.000000000               0.000000000               0.000000000               0.000000000              -0.000005525               0.005989080              -0.000054996              -0.000750705               0.002246575               0.001495870               0.000000000               0.000000000               0.000000000               0.000000000               0.002279573               0.012184635               0.003990779              -0.000668242               0.004284251               0.003616009               0.000000000               0.000000000               0.000000000               0.000000000               0.000887090               0.010863995               0.002253384              -0.001025339               0.003963075               0.002937735               0.000000000               0.000000000               0.000000000               0.000000000              -0.000040812               0.010215147               0.000583439              -0.001292195               0.003835746               0.002543552               0.000000000               0.000000000               0.000000000               0.000000000              -0.000457524               0.009576404              -0.000016309              -0.001368619               0.003648309               0.002279691               0.000000000               0.000000000               0.000000000               0.000000000              -0.000628417               0.009009746              -0.000244211              -0.001361871               0.003457176               0.002095304               0.000000000               0.000000000               0.000000000               0.000000000              -0.000677193               0.008522235              -0.000331489              -0.001319223               0.003280458               0.001961234               0.000000000               0.000000000               0.000000000               0.000000000              -0.000664622               0.008099605              -0.000354803              -0.001261681               0.003120402               0.001858721               0.000000000               0.000000000               0.000000000               0.000000000              -0.000616928               0.007728513              -0.000344541              -0.001197409               0.002975281               0.001777872               0.000000000               0.000000000               0.000000000               0.000000000              -0.000541546               0.007395430              -0.000323745              -0.001127506               0.002840954               0.001713448               0.000000000               0.000000000               0.000000000               0.000000000              -0.000449884               0.007093774              -0.000298900              -0.001055426               0.002716376               0.001660951               0.000000000               0.000000000               0.000000000               0.000000000              -0.000351262               0.006818970              -0.000268220              -0.000984092               0.002600998               0.001616906               0.000000000               0.000000000               0.000000000               0.000000000              -0.000254395               0.006579998              -0.000230119              -0.000917896               0.002499276               0.001581380               0.000000000               0.000000000               0.000000000               0.000000000              -0.000171548               0.006386808              -0.000186853              -0.000862679               0.002416474               0.001553795               0.000000000               0.000000000               0.000000000               0.000000000              -0.000107350               0.006240917              -0.000139357              -0.000820369               0.002353741               0.001533372               0.000000000               0.000000000               0.000000000               0.000000000              -0.000062015               0.006137876              -0.000089518              -0.000790488               0.002309434               0.001518946               0.000000000               0.000000000               0.000000000               0.000000000              -0.000028193               0.006070462              -0.000042109              -0.000769378               0.002279927               0.001510548               0.000000000               0.000000000               0.000000000               0.000000000              -0.000018683               0.006036430              -0.000022938              -0.000761558               0.002265976               0.001504418               0.000000000               0.000000000               0.000000000               0.000000000               0.001971204               0.009933643               0.003751153              -0.000502507               0.003478682               0.002976176               0.000000000               0.000000000               0.000000000               0.000000000               0.000430274               0.009476565               0.002263836              -0.001023217               0.003499895               0.002476678               0.000000000               0.000000000               0.000000000               0.000000000              -0.000700708               0.009536659               0.000820924              -0.001454845               0.003663803               0.002208958               0.000000000               0.000000000               0.000000000               0.000000000              -0.001050648               0.009161473               0.000300308              -0.001539173               0.003566852               0.002027678               0.000000000               0.000000000               0.000000000               0.000000000              -0.001103587               0.008715226               0.000082774              -0.001503245               0.003406128               0.001902883               0.000000000               0.000000000               0.000000000               0.000000000              -0.001043742               0.008287970              -0.000018386              -0.001427396               0.003238428               0.001811032               0.000000000               0.000000000               0.000000000               0.000000000              -0.000939771               0.007896492              -0.000063727              -0.001339472               0.003078628               0.001739156               0.000000000               0.000000000               0.000000000               0.000000000              -0.000810726               0.007543911              -0.000074633              -0.001247008               0.002930281               0.001683273               0.000000000               0.000000000               0.000000000               0.000000000              -0.000666789               0.007226651              -0.000072982              -0.001153374               0.002793318               0.001639943               0.000000000               0.000000000               0.000000000               0.000000000              -0.000521383               0.006941917              -0.000067200              -0.001063256               0.002668368               0.001605112               0.000000000               0.000000000               0.000000000               0.000000000              -0.000385852               0.006692216              -0.000055895              -0.000981219               0.002557789               0.001576570               0.000000000               0.000000000               0.000000000               0.000000000              -0.000267671               0.006483870              -0.000044544              -0.000910858               0.002464888               0.001554030               0.000000000               0.000000000               0.000000000               0.000000000              -0.000176410               0.006312695              -0.000035440              -0.000855239               0.002389290               0.001534052               0.000000000               0.000000000               0.000000000               0.000000000              -0.000114232               0.006170396              -0.000026332              -0.000814134               0.002328156               0.001514022               0.000000000               0.000000000               0.000000000               0.000000000              -0.000072340               0.006049738              -0.000019141              -0.000783343               0.002277673               0.001494331               0.000000000               0.000000000               0.000000000               0.000000000              -0.000035858               0.005942492              -0.000011739              -0.000756256               0.002232896               0.001476640               0.000000000               0.000000000               0.000000000               0.000000000              -0.000034691               0.005867008              -0.000016674              -0.000746383               0.002204444               0.001458061               0.000000000               0.000000000               0.000000000               0.000000000               0.001442642               0.007845038               0.003270028              -0.000439641               0.002761533               0.002321891               0.000000000               0.000000000               0.000000000               0.000000000              -0.000088839               0.008198359               0.002191961              -0.001058108               0.003085461               0.002027353               0.000000000               0.000000000               0.000000000               0.000000000              -0.001249766               0.008844227               0.001099680              -0.001574187               0.003472775               0.001898588               0.000000000               0.000000000               0.000000000               0.000000000              -0.001464005               0.008677758               0.000655562              -0.001633718               0.003437130               0.001803412               0.000000000               0.000000000               0.000000000               0.000000000              -0.001386151               0.008338259               0.000433439              -0.001562085               0.003300087               0.001738002               0.000000000               0.000000000               0.000000000               0.000000000              -0.001226428               0.007972865               0.000307408              -0.001456515               0.003143100               0.001686585               0.000000000               0.000000000               0.000000000               0.000000000              -0.001045642               0.007621170               0.000231568              -0.001344758               0.002988617               0.001643859               0.000000000               0.000000000               0.000000000               0.000000000              -0.000854153               0.007295789               0.000188359              -0.001232278               0.002842664               0.001610387               0.000000000               0.000000000               0.000000000               0.000000000              -0.000660746               0.007003601               0.000158740              -0.001123227               0.002708919               0.001585692               0.000000000               0.000000000               0.000000000               0.000000000              -0.000484408               0.006745782               0.000132483              -0.001024873               0.002590196               0.001565323               0.000000000               0.000000000               0.000000000               0.000000000              -0.000337788               0.006518977               0.000108477              -0.000941540               0.002486817               0.001545277               0.000000000               0.000000000               0.000000000               0.000000000              -0.000229666               0.006313032               0.000083186              -0.000875251               0.002396073               0.001520822               0.000000000               0.000000000               0.000000000               0.000000000              -0.000163195               0.006121719               0.000054862              -0.000826411               0.002316023               0.001489612               0.000000000               0.000000000               0.000000000               0.000000000              -0.000123881               0.005945188               0.000026127              -0.000789602               0.002244910               0.001455308               0.000000000               0.000000000               0.000000000               0.000000000              -0.000093964               0.005783106               0.000003879              -0.000758123               0.002180390               0.001422268               0.000000000               0.000000000               0.000000000               0.000000000              -0.000057304               0.005637478              -0.000006952              -0.000726172               0.002121198               0.001395026               0.000000000               0.000000000               0.000000000               0.000000000              -0.000048359               0.005544713              -0.000018239              -0.000711222               0.002085293               0.001374071               0.000000000               0.000000000               0.000000000               0.000000000               0.000790987               0.006069338               0.002641712              -0.000462049               0.002177108               0.001715059               0.000000000               0.000000000               0.000000000               0.000000000              -0.000585722               0.007057019               0.002087051              -0.001101772               0.002719573               0.001617801               0.000000000               0.000000000               0.000000000               0.000000000              -0.001649335               0.008169622               0.001425053              -0.001639700               0.003269746               0.001630047               0.000000000               0.000000000               0.000000000               0.000000000              -0.001714556               0.008215227               0.001032344              -0.001669858               0.003295001               0.001625143               0.000000000               0.000000000               0.000000000               0.000000000              -0.001531696               0.007994182               0.000786659              -0.001573655               0.003189252               0.001615597               0.000000000               0.000000000               0.000000000               0.000000000              -0.001297531               0.007705241               0.000624666              -0.001449726               0.003051630               0.001601904               0.000000000               0.000000000               0.000000000               0.000000000              -0.001058856               0.007407444               0.000514436              -0.001322998               0.002910123               0.001587124               0.000000000               0.000000000               0.000000000               0.000000000              -0.000821232               0.007117689               0.000433256              -0.001197670               0.002771763               0.001574092               0.000000000               0.000000000               0.000000000               0.000000000              -0.000593434               0.006854981               0.000364089              -0.001079408               0.002644773               0.001565366               0.000000000               0.000000000               0.000000000               0.000000000              -0.000397660               0.006616075               0.000300907              -0.000976129               0.002530713               0.001554583               0.000000000               0.000000000               0.000000000               0.000000000              -0.000258548               0.006376142               0.000243046              -0.000893971               0.002423350               0.001529379               0.000000000               0.000000000               0.000000000               0.000000000              -0.000173114               0.006142541               0.000186882              -0.000832733               0.002325071               0.001492338               0.000000000               0.000000000               0.000000000               0.000000000              -0.000132357               0.005921618               0.000127738              -0.000789834               0.002237131               0.001447297               0.000000000               0.000000000               0.000000000               0.000000000              -0.000128488               0.005706818               0.000071044              -0.000761533               0.002156098               0.001394565               0.000000000               0.000000000               0.000000000               0.000000000              -0.000135752               0.005506696               0.000027732              -0.000739242               0.002081961               0.001342719               0.000000000               0.000000000               0.000000000               0.000000000              -0.000136331               0.005327259               0.000002479              -0.000717030               0.002014745               0.001297715               0.000000000               0.000000000               0.000000000               0.000000000              -0.000132667               0.005231701              -0.000007786              -0.000703711               0.001978453               0.001274742               0.000000000               0.000000000               0.000000000               0.000000000              -0.000009205               0.004402682               0.001961323              -0.000553787               0.001652141               0.001098354               0.000000000               0.000000000               0.000000000               0.000000000              -0.000983179               0.005739393               0.001965574              -0.001086115               0.002275149               0.001189035               0.000000000               0.000000000               0.000000000               0.000000000              -0.001847059               0.007185668               0.001777313              -0.001590852               0.002925483               0.001334630               0.000000000               0.000000000               0.000000000               0.000000000              -0.001834947               0.007531344               0.001448596              -0.001629519               0.003053596               0.001424076               0.000000000               0.000000000               0.000000000               0.000000000              -0.001611324               0.007514412               0.001176659              -0.001543544               0.003019293               0.001475749               0.000000000               0.000000000               0.000000000               0.000000000              -0.001347976               0.007374860               0.000972947              -0.001427345               0.002934044               0.001506699               0.000000000               0.000000000               0.000000000               0.000000000              -0.001092614               0.007188818               0.000823144              -0.001308329               0.002832358               0.001524029               0.000000000               0.000000000               0.000000000               0.000000000              -0.000847729               0.006981584               0.000702267              -0.001190594               0.002724036               0.001533442               0.000000000               0.000000000               0.000000000               0.000000000              -0.000614572               0.006777188               0.000596845              -0.001077610               0.002618243               0.001540633               0.000000000               0.000000000               0.000000000               0.000000000              -0.000414124               0.006560513               0.000499549              -0.000975358               0.002511935               0.001536577               0.000000000               0.000000000               0.000000000               0.000000000              -0.000268105               0.006317928               0.000405332              -0.000890278               0.002402714               0.001512436               0.000000000               0.000000000               0.000000000               0.000000000              -0.000177894               0.006075479               0.000314429              -0.000826143               0.002300521               0.001474377               0.000000000               0.000000000               0.000000000               0.000000000              -0.000140752               0.005833858               0.000223057              -0.000782012               0.002205271               0.001423258               0.000000000               0.000000000               0.000000000               0.000000000              -0.000149897               0.005601222               0.000137823              -0.000756362               0.002119176               0.001362814               0.000000000               0.000000000               0.000000000               0.000000000              -0.000188561               0.005386055               0.000070535              -0.000743965               0.002043322               0.001299357               0.000000000               0.000000000               0.000000000               0.000000000              -0.000237344               0.005187346               0.000023495              -0.000737421               0.001974905               0.001237484               0.000000000               0.000000000               0.000000000               0.000000000              -0.000261301               0.005091265               0.000004284              -0.000734394               0.001941869               0.001207475               0.000000000               0.000000000               0.000000000               0.000000000              -0.001077257               0.002876902               0.001269126              -0.000763583               0.001213485               0.000449902               0.000000000               0.000000000               0.000000000               0.000000000              -0.001434797               0.004417861               0.001778968              -0.001090280               0.001836031               0.000745752               0.000000000               0.000000000               0.000000000               0.000000000              -0.001961058               0.006055596               0.002052447              -0.001492343               0.002515959               0.001023616               0.000000000               0.000000000               0.000000000               0.000000000              -0.001882083               0.006688390               0.001844882              -0.001541827               0.002743383               0.001201556               0.000000000               0.000000000               0.000000000               0.000000000              -0.001642326               0.006908370               0.001576984              -0.001479415               0.002795905               0.001316490               0.000000000               0.000000000               0.000000000               0.000000000              -0.001371278               0.006950176               0.001343095              -0.001382998               0.002777702               0.001394703               0.000000000               0.000000000               0.000000000               0.000000000              -0.001115493               0.006902241               0.001156576              -0.001281087               0.002727753               0.001446666               0.000000000               0.000000000               0.000000000               0.000000000              -0.000875454               0.006803173               0.001003591              -0.001178689               0.002660598               0.001481909               0.000000000               0.000000000               0.000000000               0.000000000              -0.000641841               0.006681451               0.000869675              -0.001075869               0.002585751               0.001509882               0.000000000               0.000000000               0.000000000               0.000000000              -0.000435106               0.006518723               0.000746080              -0.000978003               0.002498887               0.001520884               0.000000000               0.000000000               0.000000000               0.000000000              -0.000271128               0.006308197               0.000627016              -0.000890196               0.002399443               0.001509248               0.000000000               0.000000000               0.000000000               0.000000000              -0.000156192               0.006080353               0.000509194              -0.000818614               0.002299635               0.001481021               0.000000000               0.000000000               0.000000000               0.000000000              -0.000094840               0.005842739               0.000387832              -0.000765905               0.002202862               0.001436956               0.000000000               0.000000000               0.000000000               0.000000000              -0.000086849               0.005607245               0.000268536              -0.000733472               0.002113554               0.001380082               0.000000000               0.000000000               0.000000000               0.000000000              -0.000133872               0.005382404               0.000162337              -0.000723001               0.002035117               0.001312116               0.000000000               0.000000000               0.000000000               0.000000000              -0.000223819               0.005181456               0.000072102              -0.000731612               0.001971006               0.001239393               0.000000000               0.000000000               0.000000000               0.000000000              -0.000292895               0.005079076               0.000024232              -0.000744718               0.001941248               0.001196530               0.000000000               0.000000000               0.000000000               0.000000000              -0.002336569               0.001607491               0.000615937              -0.001077148               0.000894873              -0.000182275               0.000000000               0.000000000               0.000000000               0.000000000              -0.001990582               0.003170676               0.001501670              -0.001142801               0.001437814               0.000295014               0.000000000               0.000000000               0.000000000               0.000000000              -0.002028802               0.004800151               0.002151400              -0.001360817               0.002053639               0.000692822               0.000000000               0.000000000               0.000000000               0.000000000              -0.001827152               0.005640031               0.002099952              -0.001390183               0.002343385               0.000953202               0.000000000               0.000000000               0.000000000               0.000000000              -0.001562832               0.006080092               0.001880939              -0.001346071               0.002475367               0.001129296               0.000000000               0.000000000               0.000000000               0.000000000              -0.001293105               0.006311189               0.001648619              -0.001273811               0.002528312               0.001254501               0.000000000               0.000000000               0.000000000               0.000000000              -0.001039783               0.006421060               0.001445004              -0.001192549               0.002537848               0.001345299               0.000000000               0.000000000               0.000000000               0.000000000              -0.000805673               0.006452999               0.001273328              -0.001108750               0.002520561               0.001411811               0.000000000               0.000000000               0.000000000               0.000000000              -0.000584257               0.006437188               0.001120944              -0.001023743               0.002486955               0.001463213               0.000000000               0.000000000               0.000000000               0.000000000              -0.000383120               0.006357661               0.000981705              -0.000938376               0.002431991               0.001493615               0.000000000               0.000000000               0.000000000               0.000000000              -0.000207439               0.006211651               0.000849000              -0.000854244               0.002355277               0.001501033               0.000000000               0.000000000               0.000000000               0.000000000              -0.000068712               0.006024387               0.000714841              -0.000778813               0.002267713               0.001488900               0.000000000               0.000000000               0.000000000               0.000000000               0.000021090               0.005814384               0.000574315              -0.000718888               0.002177738               0.001458850               0.000000000               0.000000000               0.000000000               0.000000000               0.000062623               0.005599628               0.000428711              -0.000676468               0.002092013               0.001415545               0.000000000               0.000000000               0.000000000               0.000000000               0.000044723               0.005380274               0.000282911              -0.000655761               0.002011994               0.001356232               0.000000000               0.000000000               0.000000000               0.000000000              -0.000040359               0.005177529               0.000138833              -0.000662324               0.001946600               0.001284276               0.000000000               0.000000000               0.000000000               0.000000000              -0.000126639               0.005067604               0.000057948              -0.000680938               0.001916164               0.001235226               0.000000000               0.000000000               0.000000000               0.000000000              -0.003690614               0.000659459               0.000086233              -0.001466411               0.000708619              -0.000757792               0.000000000               0.000000000               0.000000000               0.000000000              -0.002616991               0.002065154               0.001166610              -0.001239514               0.001101548              -0.000137966               0.000000000               0.000000000               0.000000000               0.000000000              -0.002076972               0.003521529               0.002048216              -0.001219054               0.001580182               0.000361128               0.000000000               0.000000000               0.000000000               0.000000000              -0.001692572               0.004468321               0.002142547              -0.001193253               0.001887175               0.000693923               0.000000000               0.000000000               0.000000000               0.000000000              -0.001376736               0.005082072               0.002000072              -0.001151533               0.002077851               0.000926318               0.000000000               0.000000000               0.000000000               0.000000000              -0.001103547               0.005482734               0.001802326              -0.001099170               0.002193949               0.001094779               0.000000000               0.000000000               0.000000000               0.000000000              -0.000859626               0.005746374               0.001610816              -0.001040655               0.002262323               0.001221669               0.000000000               0.000000000               0.000000000               0.000000000              -0.000635067               0.005920860               0.001438345              -0.000978256               0.002299685               0.001321429               0.000000000               0.000000000               0.000000000               0.000000000              -0.000425520               0.006028856               0.001281823              -0.000913175               0.002313990               0.001400815               0.000000000               0.000000000               0.000000000               0.000000000              -0.000232936               0.006051533               0.001142938              -0.000843791               0.002298421               0.001454630               0.000000000               0.000000000               0.000000000               0.000000000              -0.000056502               0.005993705               0.001010445              -0.000770400               0.002254682               0.001484282               0.000000000               0.000000000               0.000000000               0.000000000               0.000100608               0.005881528               0.000870199              -0.000697462               0.002192977               0.001495515               0.000000000               0.000000000               0.000000000               0.000000000               0.000225447               0.005728692               0.000723296              -0.000631543               0.002120059               0.001488517               0.000000000               0.000000000               0.000000000               0.000000000               0.000312906               0.005552406               0.000568679              -0.000576710               0.002043020               0.001466310               0.000000000               0.000000000               0.000000000               0.000000000               0.000352875               0.005362025               0.000399083              -0.000537924               0.001966631               0.001428708               0.000000000               0.000000000               0.000000000               0.000000000               0.000330204               0.005174358               0.000207882              -0.000522967               0.001899091               0.001376124               0.000000000               0.000000000               0.000000000               0.000000000               0.000281171               0.005072278               0.000100557              -0.000528594               0.001866940               0.001338346               0.000000000               0.000000000               0.000000000               0.000000000              -0.004999709               0.000029935              -0.000245710              -0.001878631               0.000636184              -0.001242447               0.000000000               0.000000000               0.000000000               0.000000000              -0.003254023               0.001166884               0.000819358              -0.001366117               0.000844328              -0.000521790               0.000000000               0.000000000               0.000000000               0.000000000              -0.002123179               0.002341052               0.001741525              -0.001088822               0.001143282               0.000054461               0.000000000               0.000000000               0.000000000               0.000000000              -0.001515904               0.003300423               0.001928900              -0.000981015               0.001427134               0.000446119               0.000000000               0.000000000               0.000000000               0.000000000              -0.001121343               0.004023882               0.001864411              -0.000923488               0.001649109               0.000725621               0.000000000               0.000000000               0.000000000               0.000000000              -0.000828256               0.004558842               0.001721610              -0.000880450               0.001813082               0.000932632               0.000000000               0.000000000               0.000000000               0.000000000              -0.000590570               0.004959219               0.001565527              -0.000841365               0.001933511               0.001092146               0.000000000               0.000000000               0.000000000               0.000000000              -0.000382139               0.005266410               0.001416026              -0.000801602               0.002022653               0.001221051               0.000000000               0.000000000               0.000000000               0.000000000              -0.000183981               0.005493354               0.001279404              -0.000755661               0.002082986               0.001327326               0.000000000               0.000000000               0.000000000               0.000000000               0.000000306               0.005622633               0.001156821              -0.000702713               0.002108430               0.001405717               0.000000000               0.000000000               0.000000000               0.000000000               0.000170654               0.005667302               0.001036563              -0.000644416               0.002103887               0.001459471               0.000000000               0.000000000               0.000000000               0.000000000               0.000335168               0.005647888               0.000907597              -0.000580297               0.002076043               0.001495746               0.000000000               0.000000000               0.000000000               0.000000000               0.000493225               0.005572562               0.000771569              -0.000511610               0.002028039               0.001516429               0.000000000               0.000000000               0.000000000               0.000000000               0.000637985               0.005455859               0.000625389              -0.000442737               0.001966180               0.001523443               0.000000000               0.000000000               0.000000000               0.000000000               0.000760385               0.005313031               0.000456651              -0.000378984               0.001897321               0.001518337               0.000000000               0.000000000               0.000000000               0.000000000               0.000851963               0.005159561               0.000248826              -0.000325458               0.001828323               0.001502864               0.000000000               0.000000000               0.000000000               0.000000000               0.000898538               0.005083844               0.000134262              -0.000298528               0.001794107               0.001495579               0.000000000               0.000000000               0.000000000               0.000000000              -0.006111769              -0.000333775              -0.000342080              -0.002250190               0.000638801              -0.001611389               0.000000000               0.000000000               0.000000000               0.000000000              -0.003816887               0.000514871               0.000504335              -0.001495690               0.000670182              -0.000825508               0.000000000               0.000000000               0.000000000               0.000000000              -0.002169755               0.001384259               0.001263253              -0.000986689               0.000790310              -0.000196379               0.000000000               0.000000000               0.000000000               0.000000000              -0.001341018               0.002295164               0.001460812              -0.000789776               0.001028305               0.000238529               0.000000000               0.000000000               0.000000000               0.000000000              -0.000857553               0.003074318               0.001448718              -0.000705871               0.001260052               0.000554181               0.000000000               0.000000000               0.000000000               0.000000000              -0.000536699               0.003701070               0.001362240              -0.000663895               0.001454976               0.000791081               0.000000000               0.000000000               0.000000000               0.000000000              -0.000297342               0.004200899               0.001254860              -0.000636615               0.001612490               0.000975875               0.000000000               0.000000000               0.000000000               0.000000000              -0.000095757               0.004610878               0.001148385              -0.000612268               0.001741033               0.001128765               0.000000000               0.000000000               0.000000000               0.000000000               0.000091525               0.004937243               0.001050473              -0.000582833               0.001840009               0.001257176               0.000000000               0.000000000               0.000000000               0.000000000               0.000263007               0.005161698               0.000958834              -0.000546584               0.001902743               0.001356159               0.000000000               0.000000000               0.000000000               0.000000000               0.000426101               0.005298792               0.000866347              -0.000502560               0.001933766               0.001431206               0.000000000               0.000000000               0.000000000               0.000000000               0.000595247               0.005365297               0.000767858              -0.000447444               0.001937562               0.001490119               0.000000000               0.000000000               0.000000000               0.000000000               0.000778309               0.005373479               0.000663067              -0.000379818               0.001917748               0.001537930               0.000000000               0.000000000               0.000000000               0.000000000               0.000976242               0.005331081               0.000547784              -0.000300294               0.001877107               0.001576813               0.000000000               0.000000000               0.000000000               0.000000000               0.001191011               0.005247288               0.000411248              -0.000209281               0.001818839               0.001609557               0.000000000               0.000000000               0.000000000               0.000000000               0.001418888               0.005134073               0.000231323              -0.000109676               0.001747899               0.001638223               0.000000000               0.000000000               0.000000000               0.000000000               0.001589065               0.005089576               0.000133574              -0.000040298               0.001709941               0.001669643               0.000000000               0.000000000               0.000000000               0.000000000              -0.006865107              -0.000511966              -0.000232476              -0.002510418               0.000666146              -0.001844272               0.000000000               0.000000000               0.000000000               0.000000000              -0.004207276               0.000119136               0.000235503              -0.001592619               0.000570581              -0.001022038               0.000000000               0.000000000               0.000000000               0.000000000              -0.002206236               0.000757756               0.000662211              -0.000922057               0.000559933              -0.000362123               0.000000000               0.000000000               0.000000000               0.000000000              -0.001213627               0.001611032               0.000786179              -0.000656488               0.000755834               0.000099346               0.000000000               0.000000000               0.000000000               0.000000000              -0.000661017               0.002408752               0.000792679              -0.000548974               0.000985901               0.000436926               0.000000000               0.000000000               0.000000000               0.000000000              -0.000314024               0.003088346               0.000753635              -0.000503802               0.001197372               0.000693570               0.000000000               0.000000000               0.000000000               0.000000000              -0.000067287               0.003648700               0.000699780              -0.000481319               0.001376661               0.000895342               0.000000000               0.000000000               0.000000000               0.000000000               0.000134562               0.004120011               0.000646197              -0.000464540               0.001528170               0.001063630               0.000000000               0.000000000               0.000000000               0.000000000               0.000313464               0.004513149               0.000595616              -0.000446594               0.001653232               0.001206639               0.000000000               0.000000000               0.000000000               0.000000000               0.000474609               0.004803438               0.000546430              -0.000422451               0.001741947               0.001319496               0.000000000               0.000000000               0.000000000               0.000000000               0.000632229               0.005000354               0.000496568              -0.000387958               0.001796087               0.001408129               0.000000000               0.000000000               0.000000000               0.000000000               0.000805719               0.005127920               0.000443198              -0.000338845               0.001822238               0.001483393               0.000000000               0.000000000               0.000000000               0.000000000               0.001007552               0.005200120               0.000384782              -0.000272182               0.001824083               0.001551901               0.000000000               0.000000000               0.000000000               0.000000000               0.001245398               0.005219937               0.000322338              -0.000185468               0.001801784               0.001616317               0.000000000               0.000000000               0.000000000               0.000000000               0.001527884               0.005188979               0.000246048              -0.000075666               0.001754864               0.001679199               0.000000000               0.000000000               0.000000000               0.000000000               0.001866238               0.005109960               0.000139010               0.000061093               0.001682939               0.001744032               0.000000000               0.000000000               0.000000000               0.000000000               0.002143153               0.005090099               0.000082595               0.000167419               0.001640876               0.001808295               0.000000000               0.000000000               0.000000000               0.000000000              -0.007130672              -0.000563274               0.000000000              -0.002603591               0.000680101              -0.001923490               0.000000000               0.000000000               0.000000000               0.000000000              -0.004346322              -0.000013140              -0.000000000              -0.001628227               0.000538359              -0.001089868               0.000000000               0.000000000               0.000000000               0.000000000              -0.002220425               0.000537208              -0.000000000              -0.000899809               0.000479002              -0.000420807               0.000000000               0.000000000               0.000000000               0.000000000              -0.001167117               0.001368088              -0.000000000              -0.000608679               0.000658917               0.000050239               0.000000000               0.000000000               0.000000000               0.000000000              -0.000587492               0.002174041              -0.000000000              -0.000492063               0.000888694               0.000396631               0.000000000               0.000000000               0.000000000               0.000000000              -0.000229775               0.002867396              -0.000000000              -0.000444589               0.001103985               0.000659396               0.000000000               0.000000000               0.000000000               0.000000000               0.000021049               0.003445217              -0.000000000              -0.000422758               0.001289313               0.000866556               0.000000000               0.000000000               0.000000000               0.000000000               0.000223127               0.003937502               0.000000000              -0.000408514               0.001448659               0.001040145               0.000000000               0.000000000               0.000000000               0.000000000               0.000398062               0.004354984               0.000000000              -0.000395099               0.001583346               0.001188248               0.000000000               0.000000000               0.000000000               0.000000000               0.000555781               0.004669689               0.000000000              -0.000375292               0.001681645               0.001306352               0.000000000               0.000000000               0.000000000               0.000000000               0.000711536               0.004885892              -0.000000000              -0.000343910               0.001743251               0.001399341               0.000000000               0.000000000               0.000000000               0.000000000               0.000886073               0.005033970               0.000000000              -0.000296968               0.001776963               0.001479994               0.000000000               0.000000000               0.000000000               0.000000000               0.001095510               0.005127871               0.000000000              -0.000230167               0.001785996               0.001555828               0.000000000               0.000000000               0.000000000               0.000000000               0.001350084               0.005172444              -0.000000000              -0.000140274               0.001770889               0.001630615               0.000000000               0.000000000               0.000000000               0.000000000               0.001655311               0.005164361              -0.000000000              -0.000024803               0.001729704               0.001704901               0.000000000               0.000000000               0.000000000               0.000000000               0.002036084               0.005099543              -0.000000000               0.000126087               0.001657802               0.001783889               0.000000000               0.000000000               0.000000000               0.000000000               0.002355685               0.005089389              -0.000000000               0.000247206               0.001614044               0.001861250               0.000000000               0.000000000               0.000000000               0.000000000               0.001790298               0.019885961               0.000000000              -0.001814379               0.007233380               0.005419001               0.000000000               0.000000000               0.000000000               0.000000000               0.001801262               0.015749620               0.000000000              -0.001293226               0.005680896               0.004387670               0.000000000               0.000000000               0.000000000               0.000000000               0.002379579               0.012412648               0.000000000              -0.000659237               0.004357254               0.003698017               0.000000000               0.000000000               0.000000000               0.000000000               0.002303934               0.010559032              -0.000000000              -0.000455903               0.003671610               0.003215707               0.000000000               0.000000000               0.000000000               0.000000000               0.002040918               0.009412335              -0.000000000              -0.000411197               0.003274479               0.002863282               0.000000000               0.000000000               0.000000000               0.000000000               0.001739181               0.008640548              -0.000000000              -0.000427874               0.003022779               0.002594904               0.000000000               0.000000000               0.000000000               0.000000000               0.001448112               0.008080323              -0.000000000              -0.000466997               0.002849080               0.002382083               0.000000000               0.000000000               0.000000000               0.000000000               0.001188087               0.007645895              -0.000000000              -0.000510203               0.002718674               0.002208471               0.000000000               0.000000000               0.000000000               0.000000000               0.000958924               0.007284588              -0.000000000              -0.000550976               0.002611830               0.002060855               0.000000000               0.000000000               0.000000000               0.000000000               0.000759519               0.006961177              -0.000000000              -0.000585326               0.002515478               0.001930152               0.000000000               0.000000000               0.000000000               0.000000000               0.000581943               0.006660227               0.000000000              -0.000614298               0.002424820               0.001810521               0.000000000               0.000000000               0.000000000               0.000000000               0.000424450               0.006369749               0.000000000              -0.000637048               0.002335578               0.001698530               0.000000000               0.000000000               0.000000000               0.000000000               0.000289387               0.006073053               0.000000000              -0.000650610               0.002241201               0.001590591               0.000000000               0.000000000               0.000000000               0.000000000               0.000176331               0.005750864              -0.000000000              -0.000652732               0.002134513               0.001481781               0.000000000               0.000000000               0.000000000               0.000000000               0.000089629               0.005389426              -0.000000000              -0.000640066               0.002009813               0.001369747               0.000000000               0.000000000               0.000000000               0.000000000               0.000033886               0.004977288              -0.000000000              -0.000609452               0.001862230               0.001252778               0.000000000               0.000000000               0.000000000               0.000000000              -0.000018326               0.004662520              -0.000000000              -0.000589686               0.001750720               0.001161034               0.000000000               0.000000000               0.000000000               0.000000000               0.001860821               0.019481166              -0.001374847              -0.001737334               0.007072768               0.005335435               0.000000000               0.000000000               0.000000000               0.000000000               0.001774716               0.015482724              -0.000722348              -0.001269819               0.005584129               0.004314310               0.000000000               0.000000000               0.000000000               0.000000000               0.002251468               0.012292218              -0.000070306              -0.000692225               0.004328107               0.003635882               0.000000000               0.000000000               0.000000000               0.000000000               0.002137434               0.010513592               0.000205040              -0.000512660               0.003675382               0.003162722               0.000000000               0.000000000               0.000000000               0.000000000               0.001863574               0.009407184               0.000317330              -0.000477057               0.003294716               0.002817659               0.000000000               0.000000000               0.000000000               0.000000000               0.001567863               0.008657849               0.000357863              -0.000494281               0.003050681               0.002556400               0.000000000               0.000000000               0.000000000               0.000000000               0.001290436               0.008109916               0.000365209              -0.000529825               0.002879886               0.002350062               0.000000000               0.000000000               0.000000000               0.000000000               0.001046343               0.007679295               0.000357176              -0.000567532               0.002748917               0.002181385               0.000000000               0.000000000               0.000000000               0.000000000               0.000836779               0.007316409               0.000341310              -0.000600757               0.002639031               0.002038274               0.000000000               0.000000000               0.000000000               0.000000000               0.000654994               0.006994822               0.000324000              -0.000628728               0.002541160               0.001912432               0.000000000               0.000000000               0.000000000               0.000000000               0.000494576               0.006697765               0.000307848              -0.000651753               0.002449817               0.001798064               0.000000000               0.000000000               0.000000000               0.000000000               0.000355323               0.006410797               0.000288425              -0.000668102               0.002359611               0.001691510               0.000000000               0.000000000               0.000000000               0.000000000               0.000236302               0.006118251               0.000259715              -0.000676167               0.002264785               0.001588619               0.000000000               0.000000000               0.000000000               0.000000000               0.000138225               0.005807671               0.000220079              -0.000674123               0.002160579               0.001486456               0.000000000               0.000000000               0.000000000               0.000000000               0.000064371               0.005472111               0.000168532              -0.000659873               0.002043976               0.001384103               0.000000000               0.000000000               0.000000000               0.000000000               0.000020469               0.005103273               0.000096996              -0.000630232               0.001911151               0.001280920               0.000000000               0.000000000               0.000000000               0.000000000              -0.000021159               0.004828759               0.000060057              -0.000611528               0.001813413               0.001201885               0.000000000               0.000000000               0.000000000               0.000000000               0.002038872               0.018329718              -0.002563581              -0.001526635               0.006618723               0.005092088               0.000000000               0.000000000               0.000000000               0.000000000               0.001686992               0.014731090              -0.001349975              -0.001208762               0.005313235               0.004104473               0.000000000               0.000000000               0.000000000               0.000000000               0.001884959               0.011956710              -0.000147458              -0.000787727               0.004248106               0.003460378               0.000000000               0.000000000               0.000000000               0.000000000               0.001675053               0.010384909               0.000345045              -0.000669967               0.003684924               0.003014957               0.000000000               0.000000000               0.000000000               0.000000000               0.001382458               0.009388532               0.000539587              -0.000655143               0.003347860               0.002692717               0.000000000               0.000000000               0.000000000               0.000000000               0.001105092               0.008696019               0.000607339              -0.000672591               0.003122841               0.002450250               0.000000000               0.000000000               0.000000000               0.000000000               0.000868738               0.008175934               0.000616413              -0.000696214               0.002957355               0.002261142               0.000000000               0.000000000               0.000000000               0.000000000               0.000672434               0.007754256               0.000597844              -0.000717118               0.002823765               0.002106648               0.000000000               0.000000000               0.000000000               0.000000000               0.000512870               0.007394514               0.000568691              -0.000731986               0.002708809               0.001976823               0.000000000               0.000000000               0.000000000               0.000000000               0.000380150               0.007076139               0.000539141              -0.000741959               0.002606009               0.001864050               0.000000000               0.000000000               0.000000000               0.000000000               0.000270624               0.006783419               0.000509552              -0.000746442               0.002509931               0.001763489               0.000000000               0.000000000               0.000000000               0.000000000               0.000181777               0.006502402               0.000472404              -0.000744632               0.002415656               0.001671024               0.000000000               0.000000000               0.000000000               0.000000000               0.000111046               0.006225489               0.000421017              -0.000736542               0.002320656               0.001584114               0.000000000               0.000000000               0.000000000               0.000000000               0.000060448               0.005951390               0.000355285              -0.000721254               0.002224195               0.001502941               0.000000000               0.000000000               0.000000000               0.000000000               0.000025749               0.005681433               0.000271992              -0.000700521               0.002127299               0.001426778               0.000000000               0.000000000               0.000000000               0.000000000               0.000006424               0.005416852               0.000156255              -0.000674696               0.002030498               0.001355802               0.000000000               0.000000000               0.000000000               0.000000000              -0.000015272               0.005239886               0.000094051              -0.000660711               0.001966848               0.001306137               0.000000000               0.000000000               0.000000000               0.000000000               0.002235609               0.016590798              -0.003428296              -0.001235496               0.005942042               0.004706546               0.000000000               0.000000000               0.000000000               0.000000000               0.001520176               0.013616314              -0.001821121              -0.001131971               0.004916049               0.003784078               0.000000000               0.000000000               0.000000000               0.000000000               0.001330209               0.011461221              -0.000248623              -0.000933822               0.004131643               0.003197821               0.000000000               0.000000000               0.000000000               0.000000000               0.001005757               0.010182998               0.000367342              -0.000895714               0.003692870               0.002797156               0.000000000               0.000000000               0.000000000               0.000000000               0.000716048               0.009334745               0.000601263              -0.000898323               0.003410991               0.002512669               0.000000000               0.000000000               0.000000000               0.000000000               0.000485015               0.008714688               0.000678730              -0.000907453               0.003207351               0.002299898               0.000000000               0.000000000               0.000000000               0.000000000               0.000311508               0.008226712               0.000686171              -0.000911521               0.003046050               0.002134529               0.000000000               0.000000000               0.000000000               0.000000000               0.000186356               0.007817447               0.000662324              -0.000907295               0.002908221               0.002000926               0.000000000               0.000000000               0.000000000               0.000000000               0.000100829               0.007465811               0.000628597              -0.000895413               0.002787050               0.001891637               0.000000000               0.000000000               0.000000000               0.000000000               0.000041357               0.007153009               0.000594247              -0.000878615               0.002677184               0.001798569               0.000000000               0.000000000               0.000000000               0.000000000               0.000000721               0.006864905               0.000556841              -0.000857841               0.002574226               0.001716385               0.000000000               0.000000000               0.000000000               0.000000000              -0.000021743               0.006593217               0.000509660              -0.000832304               0.002475152               0.001642848               0.000000000               0.000000000               0.000000000               0.000000000              -0.000029336               0.006339996               0.000448423              -0.000803499               0.002381144               0.001577645               0.000000000               0.000000000               0.000000000               0.000000000              -0.000024894               0.006112379               0.000372412              -0.000773381               0.002295233               0.001521852               0.000000000               0.000000000               0.000000000               0.000000000              -0.000014280               0.005916958               0.000279993              -0.000744973               0.002220624               0.001475651               0.000000000               0.000000000               0.000000000               0.000000000              -0.000007200               0.005765454               0.000158256              -0.000723380               0.002162926               0.001439545               0.000000000               0.000000000               0.000000000               0.000000000              -0.000008725               0.005690894               0.000090110              -0.000714632               0.002135156               0.001420525               0.000000000               0.000000000               0.000000000               0.000000000               0.002346338               0.014467903              -0.003903761              -0.000928612               0.005132123               0.004203511               0.000000000               0.000000000               0.000000000               0.000000000               0.001254730               0.012280898              -0.002118187              -0.001064587               0.004448454               0.003383866               0.000000000               0.000000000               0.000000000               0.000000000               0.000661508               0.010865011              -0.000392075              -0.001110058               0.003991653               0.002881595               0.000000000               0.000000000               0.000000000               0.000000000               0.000256758               0.009915056               0.000251926              -0.001143095               0.003686017               0.002542922               0.000000000               0.000000000               0.000000000               0.000000000               0.000005027               0.009214482               0.000491343              -0.001149922               0.003454771               0.002304849               0.000000000               0.000000000               0.000000000               0.000000000              -0.000145869               0.008663932               0.000571676              -0.001137690               0.003267178               0.002129489               0.000000000               0.000000000               0.000000000               0.000000000              -0.000233976               0.008209233               0.000582152              -0.001113893               0.003107681               0.001993789               0.000000000               0.000000000               0.000000000               0.000000000              -0.000275433               0.007819015               0.000561009              -0.001080661               0.002966533               0.001885871               0.000000000               0.000000000               0.000000000               0.000000000              -0.000275280               0.007476911               0.000531581              -0.001037841               0.002838226               0.001800384               0.000000000               0.000000000               0.000000000               0.000000000              -0.000254287               0.007168884               0.000499494              -0.000991466               0.002720093               0.001728627               0.000000000               0.000000000               0.000000000               0.000000000              -0.000222552               0.006884726               0.000460970              -0.000944046               0.002609568               0.001665522               0.000000000               0.000000000               0.000000000               0.000000000              -0.000179188               0.006625971               0.000412377              -0.000895440               0.002507115               0.001611675               0.000000000               0.000000000               0.000000000               0.000000000              -0.000129990               0.006399966               0.000353272              -0.000848740               0.002416214               0.001567474               0.000000000               0.000000000               0.000000000               0.000000000              -0.000083025               0.006218274               0.000281796              -0.000808417               0.002342209               0.001533793               0.000000000               0.000000000               0.000000000               0.000000000              -0.000045390               0.006085742               0.000200529              -0.000777737               0.002287806               0.001510069               0.000000000               0.000000000               0.000000000               0.000000000              -0.000018843               0.006008561               0.000106992              -0.000758134               0.002255545               0.001497411               0.000000000               0.000000000               0.000000000               0.000000000              -0.000005525               0.005989080               0.000054996              -0.000750705               0.002246575               0.001495870               0.000000000               0.000000000               0.000000000               0.000000000               0.002279573               0.012184635              -0.003990779              -0.000668242               0.004284251               0.003616009               0.000000000               0.000000000               0.000000000               0.000000000               0.000887090               0.010863995              -0.002253384              -0.001025339               0.003963075               0.002937735               0.000000000               0.000000000               0.000000000               0.000000000              -0.000040812               0.010215147              -0.000583439              -0.001292195               0.003835746               0.002543552               0.000000000               0.000000000               0.000000000               0.000000000              -0.000457524               0.009576404               0.000016309              -0.001368619               0.003648309               0.002279691               0.000000000               0.000000000               0.000000000               0.000000000              -0.000628417               0.009009746               0.000244211              -0.001361871               0.003457176               0.002095304               0.000000000               0.000000000               0.000000000               0.000000000              -0.000677193               0.008522235               0.000331489              -0.001319223               0.003280458               0.001961234               0.000000000               0.000000000               0.000000000               0.000000000              -0.000664622               0.008099605               0.000354803              -0.001261681               0.003120402               0.001858721               0.000000000               0.000000000               0.000000000               0.000000000              -0.000616928               0.007728513               0.000344541              -0.001197409               0.002975281               0.001777872               0.000000000               0.000000000               0.000000000               0.000000000              -0.000541546               0.007395430               0.000323745              -0.001127506               0.002840954               0.001713448               0.000000000               0.000000000               0.000000000               0.000000000              -0.000449884               0.007093774               0.000298900              -0.001055426               0.002716376               0.001660951               0.000000000               0.000000000               0.000000000               0.000000000              -0.000351262               0.006818970               0.000268220              -0.000984092               0.002600998               0.001616906               0.000000000               0.000000000               0.000000000               0.000000000              -0.000254395               0.006579998               0.000230119              -0.000917896               0.002499276               0.001581380               0.000000000               0.000000000               0.000000000               0.000000000              -0.000171548               0.006386808               0.000186853              -0.000862679               0.002416474               0.001553795               0.000000000               0.000000000               0.000000000               0.000000000              -0.000107350               0.006240917               0.000139357              -0.000820369               0.002353741               0.001533372               0.000000000               0.000000000               0.000000000               0.000000000              -0.000062015               0.006137876               0.000089518              -0.000790488               0.002309434               0.001518946               0.000000000               0.000000000               0.000000000               0.000000000              -0.000028193               0.006070462               0.000042109              -0.000769378               0.002279927               0.001510548               0.000000000               0.000000000               0.000000000               0.000000000              -0.000018683               0.006036430               0.000022938              -0.000761558               0.002265976               0.001504418               0.000000000               0.000000000               0.000000000               0.000000000               0.001971204               0.009933643              -0.003751153              -0.000502507               0.003478682               0.002976176               0.000000000               0.000000000               0.000000000               0.000000000               0.000430274               0.009476565              -0.002263836              -0.001023217               0.003499895               0.002476678               0.000000000               0.000000000               0.000000000               0.000000000              -0.000700708               0.009536659              -0.000820924              -0.001454845               0.003663803               0.002208958               0.000000000               0.000000000               0.000000000               0.000000000              -0.001050648               0.009161473              -0.000300308              -0.001539173               0.003566852               0.002027678               0.000000000               0.000000000               0.000000000               0.000000000              -0.001103587               0.008715226              -0.000082774              -0.001503245               0.003406128               0.001902883               0.000000000               0.000000000               0.000000000               0.000000000              -0.001043742               0.008287970               0.000018386              -0.001427396               0.003238428               0.001811032               0.000000000               0.000000000               0.000000000               0.000000000              -0.000939771               0.007896492               0.000063727              -0.001339472               0.003078628               0.001739156               0.000000000               0.000000000               0.000000000               0.000000000              -0.000810726               0.007543911               0.000074633              -0.001247008               0.002930281               0.001683273               0.000000000               0.000000000               0.000000000               0.000000000              -0.000666789               0.007226651               0.000072982              -0.001153374               0.002793318               0.001639943               0.000000000               0.000000000               0.000000000               0.000000000              -0.000521383               0.006941917               0.000067200              -0.001063256               0.002668368               0.001605112               0.000000000               0.000000000               0.000000000               0.000000000              -0.000385852               0.006692216               0.000055895              -0.000981219               0.002557789               0.001576570               0.000000000               0.000000000               0.000000000               0.000000000              -0.000267671               0.006483870               0.000044544              -0.000910858               0.002464888               0.001554030               0.000000000               0.000000000               0.000000000               0.000000000              -0.000176410               0.006312695               0.000035440              -0.000855239               0.002389290               0.001534052               0.000000000               0.000000000               0.000000000               0.000000000              -0.000114232               0.006170396               0.000026332              -0.000814134               0.002328156               0.001514022               0.000000000               0.000000000               0.000000000               0.000000000              -0.000072340               0.006049738               0.000019141              -0.000783343               0.002277673               0.001494331               0.000000000               0.000000000               0.000000000               0.000000000              -0.000035858               0.005942492               0.000011739              -0.000756256               0.002232896               0.001476640               0.000000000               0.000000000               0.000000000               0.000000000              -0.000034691               0.005867008               0.000016674              -0.000746383               0.002204444               0.001458061               0.000000000               0.000000000               0.000000000               0.000000000               0.001442642               0.007845038              -0.003270028              -0.000439641               0.002761533               0.002321891               0.000000000               0.000000000               0.000000000               0.000000000              -0.000088839               0.008198359              -0.002191961              -0.001058108               0.003085461               0.002027353               0.000000000               0.000000000               0.000000000               0.000000000              -0.001249766               0.008844227              -0.001099680              -0.001574187               0.003472775               0.001898588               0.000000000               0.000000000               0.000000000               0.000000000              -0.001464005               0.008677758              -0.000655562              -0.001633718               0.003437130               0.001803412               0.000000000               0.000000000               0.000000000               0.000000000              -0.001386151               0.008338259              -0.000433439              -0.001562085               0.003300087               0.001738002               0.000000000               0.000000000               0.000000000               0.000000000              -0.001226428               0.007972865              -0.000307408              -0.001456515               0.003143100               0.001686585               0.000000000               0.000000000               0.000000000               0.000000000              -0.001045642               0.007621170              -0.000231568              -0.001344758               0.002988617               0.001643859               0.000000000               0.000000000               0.000000000               0.000000000              -0.000854153               0.007295789              -0.000188359              -0.001232278               0.002842664               0.001610387               0.000000000               0.000000000               0.000000000               0.000000000              -0.000660746               0.007003601              -0.000158740              -0.001123227               0.002708919               0.001585692               0.000000000               0.000000000               0.000000000               0.000000000              -0.000484408               0.006745782              -0.000132483              -0.001024873               0.002590196               0.001565323               0.000000000               0.000000000               0.000000000               0.000000000              -0.000337788               0.006518977              -0.000108477              -0.000941540               0.002486817               0.001545277               0.000000000               0.000000000               0.000000000               0.000000000              -0.000229666               0.006313032              -0.000083186              -0.000875251               0.002396073               0.001520822               0.000000000               0.000000000               0.000000000               0.000000000              -0.000163195               0.006121719              -0.000054862              -0.000826411               0.002316023               0.001489612               0.000000000               0.000000000               0.000000000               0.000000000              -0.000123881               0.005945188              -0.000026127              -0.000789602               0.002244910               0.001455308               0.000000000               0.000000000               0.000000000               0.000000000              -0.000093964               0.005783106              -0.000003879              -0.000758123               0.002180390               0.001422268               0.000000000               0.000000000               0.000000000               0.000000000              -0.000057304               0.005637478               0.000006952              -0.000726172               0.002121198               0.001395026               0.000000000               0.000000000               0.000000000               0.000000000              -0.000048359               0.005544713               0.000018239              -0.000711222               0.002085293               0.001374071               0.000000000               0.000000000               0.000000000               0.000000000               0.000790987               0.006069338              -0.002641712              -0.000462049               0.002177108               0.001715059               0.000000000               0.000000000               0.000000000               0.000000000              -0.000585722               0.007057019              -0.002087051              -0.001101772               0.002719573               0.001617801               0.000000000               0.000000000               0.000000000               0.000000000              -0.001649335               0.008169622              -0.001425053              -0.001639700               0.003269746               0.001630047               0.000000000               0.000000000               0.000000000               0.000000000              -0.001714556               0.008215227              -0.001032344              -0.001669858               0.003295001               0.001625143               0.000000000               0.000000000               0.000000000               0.000000000              -0.001531696               0.007994182              -0.000786659              -0.001573655               0.003189252               0.001615597               0.000000000               0.000000000               0.000000000               0.000000000              -0.001297531               0.007705241              -0.000624666              -0.001449726               0.003051630               0.001601904               0.000000000               0.000000000               0.000000000               0.000000000              -0.001058856               0.007407444              -0.000514436              -0.001322998               0.002910123               0.001587124               0.000000000               0.000000000               0.000000000               0.000000000              -0.000821232               0.007117689              -0.000433256              -0.001197670               0.002771763               0.001574092               0.000000000               0.000000000               0.000000000               0.000000000              -0.000593434               0.006854981              -0.000364089              -0.001079408               0.002644773               0.001565366               0.000000000               0.000000000               0.000000000               0.000000000              -0.000397660               0.006616075              -0.000300907              -0.000976129               0.002530713               0.001554583               0.000000000               0.000000000               0.000000000               0.000000000              -0.000258548               0.006376142              -0.000243046              -0.000893971               0.002423350               0.001529379               0.000000000               0.000000000               0.000000000               0.000000000              -0.000173114               0.006142541              -0.000186882              -0.000832733               0.002325071               0.001492338               0.000000000               0.000000000               0.000000000               0.000000000              -0.000132357               0.005921618              -0.000127738              -0.000789834               0.002237131               0.001447297               0.000000000               0.000000000               0.000000000               0.000000000              -0.000128488               0.005706818              -0.000071044              -0.000761533               0.002156098               0.001394565               0.000000000               0.000000000               0.000000000               0.000000000              -0.000135752               0.005506696              -0.000027732              -0.000739242               0.002081961               0.001342719               0.000000000               0.000000000               0.000000000               0.000000000              -0.000136331               0.005327259              -0.000002479              -0.000717030               0.002014745               0.001297715               0.000000000               0.000000000               0.000000000               0.000000000              -0.000132667               0.005231701               0.000007786              -0.000703711               0.001978453               0.001274742               0.000000000               0.000000000               0.000000000               0.000000000              -0.000009205               0.004402682              -0.001961323              -0.000553787               0.001652141               0.001098354               0.000000000               0.000000000               0.000000000               0.000000000              -0.000983179               0.005739393              -0.001965574              -0.001086115               0.002275149               0.001189035               0.000000000               0.000000000               0.000000000               0.000000000              -0.001847059               0.007185668              -0.001777313              -0.001590852               0.002925483               0.001334630               0.000000000               0.000000000               0.000000000               0.000000000              -0.001834947               0.007531344              -0.001448596              -0.001629519               0.003053596               0.001424076               0.000000000               0.000000000               0.000000000               0.000000000              -0.001611324               0.007514412              -0.001176659              -0.001543544               0.003019293               0.001475749               0.000000000               0.000000000               0.000000000               0.000000000              -0.001347976               0.007374860              -0.000972947              -0.001427345               0.002934044               0.001506699               0.000000000               0.000000000               0.000000000               0.000000000              -0.001092614               0.007188818              -0.000823144              -0.001308329               0.002832358               0.001524029               0.000000000               0.000000000               0.000000000               0.000000000              -0.000847729               0.006981584              -0.000702267              -0.001190594               0.002724036               0.001533442               0.000000000               0.000000000               0.000000000               0.000000000              -0.000614572               0.006777188              -0.000596845              -0.001077610               0.002618243               0.001540633               0.000000000               0.000000000               0.000000000               0.000000000              -0.000414124               0.006560513              -0.000499549              -0.000975358               0.002511935               0.001536577               0.000000000               0.000000000               0.000000000               0.000000000              -0.000268105               0.006317928              -0.000405332              -0.000890278               0.002402714               0.001512436               0.000000000               0.000000000               0.000000000               0.000000000              -0.000177894               0.006075479              -0.000314429              -0.000826143               0.002300521               0.001474377               0.000000000               0.000000000               0.000000000               0.000000000              -0.000140752               0.005833858              -0.000223057              -0.000782012               0.002205271               0.001423258               0.000000000               0.000000000               0.000000000               0.000000000              -0.000149897               0.005601222              -0.000137823              -0.000756362               0.002119176               0.001362814               0.000000000               0.000000000               0.000000000               0.000000000              -0.000188561               0.005386055              -0.000070535              -0.000743965               0.002043322               0.001299357               0.000000000               0.000000000               0.000000000               0.000000000              -0.000237344               0.005187346              -0.000023495              -0.000737421               0.001974905               0.001237484               0.000000000               0.000000000               0.000000000               0.000000000              -0.000261301               0.005091265              -0.000004284              -0.000734394               0.001941869               0.001207475               0.000000000               0.000000000               0.000000000               0.000000000              -0.001077257               0.002876902              -0.001269126              -0.000763583               0.001213485               0.000449902               0.000000000               0.000000000               0.000000000               0.000000000              -0.001434797               0.004417861              -0.001778968              -0.001090280               0.001836031               0.000745752               0.000000000               0.000000000               0.000000000               0.000000000              -0.001961058               0.006055596              -0.002052447              -0.001492343               0.002515959               0.001023616               0.000000000               0.000000000               0.000000000               0.000000000              -0.001882083               0.006688390              -0.001844882              -0.001541827               0.002743383               0.001201556               0.000000000               0.000000000               0.000000000               0.000000000              -0.001642326               0.006908370              -0.001576984              -0.001479415               0.002795905               0.001316490               0.000000000               0.000000000               0.000000000               0.000000000              -0.001371278               0.006950176              -0.001343095              -0.001382998               0.002777702               0.001394703               0.000000000               0.000000000               0.000000000               0.000000000              -0.001115493               0.006902241              -0.001156576              -0.001281087               0.002727753               0.001446666               0.000000000               0.000000000               0.000000000               0.000000000              -0.000875454               0.006803173              -0.001003591              -0.001178689               0.002660598               0.001481909               0.000000000               0.000000000               0.000000000               0.000000000              -0.000641841               0.006681451              -0.000869675              -0.001075869               0.002585751               0.001509882               0.000000000               0.000000000               0.000000000               0.000000000              -0.000435106               0.006518723              -0.000746080              -0.000978003               0.002498887               0.001520884               0.000000000               0.000000000               0.000000000               0.000000000              -0.000271128               0.006308197              -0.000627016              -0.000890196               0.002399443               0.001509248               0.000000000               0.000000000               0.000000000               0.000000000              -0.000156192               0.006080353              -0.000509194              -0.000818614               0.002299635               0.001481021               0.000000000               0.000000000               0.000000000               0.000000000              -0.000094840               0.005842739              -0.000387832              -0.000765905               0.002202862               0.001436956               0.000000000               0.000000000               0.000000000               0.000000000              -0.000086849               0.005607245              -0.000268536              -0.000733472               0.002113554               0.001380082               0.000000000               0.000000000               0.000000000               0.000000000              -0.000133872               0.005382404              -0.000162337              -0.000723001               0.002035117               0.001312116               0.000000000               0.000000000               0.000000000               0.000000000              -0.000223819               0.005181456              -0.000072102              -0.000731612               0.001971006               0.001239393               0.000000000               0.000000000               0.000000000               0.000000000              -0.000292895               0.005079076              -0.000024232              -0.000744718               0.001941248               0.001196530               0.000000000               0.000000000               0.000000000               0.000000000              -0.002336569               0.001607491              -0.000615937              -0.001077148               0.000894873              -0.000182275               0.000000000               0.000000000               0.000000000               0.000000000              -0.001990582               0.003170676              -0.001501670              -0.001142801               0.001437814               0.000295014               0.000000000               0.000000000               0.000000000               0.000000000              -0.002028802               0.004800151              -0.002151400              -0.001360817               0.002053639               0.000692822               0.000000000               0.000000000               0.000000000               0.000000000              -0.001827152               0.005640031              -0.002099952              -0.001390183               0.002343385               0.000953202               0.000000000               0.000000000               0.000000000               0.000000000              -0.001562832               0.006080092              -0.001880939              -0.001346071               0.002475367               0.001129296               0.000000000               0.000000000               0.000000000               0.000000000              -0.001293105               0.006311189              -0.001648619              -0.001273811               0.002528312               0.001254501               0.000000000               0.000000000               0.000000000               0.000000000              -0.001039783               0.006421060              -0.001445004              -0.001192549               0.002537848               0.001345299               0.000000000               0.000000000               0.000000000               0.000000000              -0.000805673               0.006452999              -0.001273328              -0.001108750               0.002520561               0.001411811               0.000000000               0.000000000               0.000000000               0.000000000              -0.000584257               0.006437188              -0.001120944              -0.001023743               0.002486955               0.001463213               0.000000000               0.000000000               0.000000000               0.000000000              -0.000383120               0.006357661              -0.000981705              -0.000938376               0.002431991               0.001493615               0.000000000               0.000000000               0.000000000               0.000000000              -0.000207439               0.006211651              -0.000849000              -0.000854244               0.002355277               0.001501033               0.000000000               0.000000000               0.000000000               0.000000000              -0.000068712               0.006024387              -0.000714841              -0.000778813               0.002267713               0.001488900               0.000000000               0.000000000               0.000000000               0.000000000               0.000021090               0.005814384              -0.000574315              -0.000718888               0.002177738               0.001458850               0.000000000               0.000000000               0.000000000               0.000000000               0.000062623               0.005599628              -0.000428711              -0.000676468               0.002092013               0.001415545               0.000000000               0.000000000               0.000000000               0.000000000               0.000044723               0.005380274              -0.000282911              -0.000655761               0.002011994               0.001356232               0.000000000               0.000000000               0.000000000               0.000000000              -0.000040359               0.005177529              -0.000138833              -0.000662324               0.001946600               0.001284276               0.000000000               0.000000000               0.000000000               0.000000000              -0.000126639               0.005067604              -0.000057948              -0.000680938               0.001916164               0.001235226               0.000000000               0.000000000               0.000000000               0.000000000              -0.003690614               0.000659459              -0.000086233              -0.001466411               0.000708619              -0.000757792               0.000000000               0.000000000               0.000000000               0.000000000              -0.002616991               0.002065154              -0.001166610              -0.001239514               0.001101548              -0.000137966               0.000000000               0.000000000               0.000000000               0.000000000              -0.002076972               0.003521529              -0.002048216              -0.001219054               0.001580182               0.000361128               0.000000000               0.000000000               0.000000000               0.000000000              -0.001692572               0.004468321              -0.002142547              -0.001193253               0.001887175               0.000693923               0.000000000               0.000000000               0.000000000               0.000000000              -0.001376736               0.005082072              -0.002000072              -0.001151533               0.002077851               0.000926318               0.000000000               0.000000000               0.000000000               0.000000000              -0.001103547               0.005482734              -0.001802326              -0.001099170               0.002193949               0.001094779               0.000000000               0.000000000               0.000000000               0.000000000              -0.000859626               0.005746374              -0.001610816              -0.001040655               0.002262323               0.001221669               0.000000000               0.000000000               0.000000000               0.000000000              -0.000635067               0.005920860              -0.001438345              -0.000978256               0.002299685               0.001321429               0.000000000               0.000000000               0.000000000               0.000000000              -0.000425520               0.006028856              -0.001281823              -0.000913175               0.002313990               0.001400815               0.000000000               0.000000000               0.000000000               0.000000000              -0.000232936               0.006051533              -0.001142938              -0.000843791               0.002298421               0.001454630               0.000000000               0.000000000               0.000000000               0.000000000              -0.000056502               0.005993705              -0.001010445              -0.000770400               0.002254682               0.001484282               0.000000000               0.000000000               0.000000000               0.000000000               0.000100608               0.005881528              -0.000870199              -0.000697462               0.002192977               0.001495515               0.000000000               0.000000000               0.000000000               0.000000000               0.000225447               0.005728692              -0.000723296              -0.000631543               0.002120059               0.001488517               0.000000000               0.000000000               0.000000000               0.000000000               0.000312906               0.005552406              -0.000568679              -0.000576710               0.002043020               0.001466310               0.000000000               0.000000000               0.000000000               0.000000000               0.000352875               0.005362025              -0.000399083              -0.000537924               0.001966631               0.001428708               0.000000000               0.000000000               0.000000000               0.000000000               0.000330204               0.005174358              -0.000207882              -0.000522967               0.001899091               0.001376124               0.000000000               0.000000000               0.000000000               0.000000000               0.000281171               0.005072278              -0.000100557              -0.000528594               0.001866940               0.001338346               0.000000000               0.000000000               0.000000000               0.000000000              -0.004999709               0.000029935               0.000245710              -0.001878631               0.000636184              -0.001242447               0.000000000               0.000000000               0.000000000               0.000000000              -0.003254023               0.001166884              -0.000819358              -0.001366117               0.000844328              -0.000521790               0.000000000               0.000000000               0.000000000               0.000000000              -0.002123179               0.002341052              -0.001741525              -0.001088822               0.001143282               0.000054461               0.000000000               0.000000000               0.000000000               0.000000000              -0.001515904               0.003300423              -0.001928900              -0.000981015               0.001427134               0.000446119               0.000000000               0.000000000               0.000000000               0.000000000              -0.001121343               0.004023882              -0.001864411              -0.000923488               0.001649109               0.000725621               0.000000000               0.000000000               0.000000000               0.000000000              -0.000828256               0.004558842              -0.001721610              -0.000880450               0.001813082               0.000932632               0.000000000               0.000000000               0.000000000               0.000000000              -0.000590570               0.004959219              -0.001565527              -0.000841365               0.001933511               0.001092146               0.000000000               0.000000000               0.000000000               0.000000000              -0.000382139               0.005266410              -0.001416026              -0.000801602               0.002022653               0.001221051               0.000000000               0.000000000               0.000000000               0.000000000              -0.000183981               0.005493354              -0.001279404              -0.000755661               0.002082986               0.001327326               0.000000000               0.000000000               0.000000000               0.000000000               0.000000306               0.005622633              -0.001156821              -0.000702713               0.002108430               0.001405717               0.000000000               0.000000000               0.000000000               0.000000000               0.000170654               0.005667302              -0.001036563              -0.000644416               0.002103887               0.001459471               0.000000000               0.000000000               0.000000000               0.000000000               0.000335168               0.005647888              -0.000907597              -0.000580297               0.002076043               0.001495746               0.000000000               0.000000000               0.000000000               0.000000000               0.000493225               0.005572562              -0.000771569              -0.000511610               0.002028039               0.001516429               0.000000000               0.000000000               0.000000000               0.000000000               0.000637985               0.005455859              -0.000625389              -0.000442737               0.001966180               0.001523443               0.000000000               0.000000000               0.000000000               0.000000000               0.000760385               0.005313031              -0.000456651              -0.000378984               0.001897321               0.001518337               0.000000000               0.000000000               0.000000000               0.000000000               0.000851963               0.005159561              -0.000248826              -0.000325458               0.001828323               0.001502864               0.000000000               0.000000000               0.000000000               0.000000000               0.000898538               0.005083844              -0.000134262              -0.000298528               0.001794107               0.001495579               0.000000000               0.000000000               0.000000000               0.000000000              -0.006111769              -0.000333775               0.000342080              -0.002250190               0.000638801              -0.001611389               0.000000000               0.000000000               0.000000000               0.000000000              -0.003816887               0.000514871              -0.000504335              -0.001495690               0.000670182              -0.000825508               0.000000000               0.000000000               0.000000000               0.000000000              -0.002169755               0.001384259              -0.001263253              -0.000986689               0.000790310              -0.000196379               0.000000000               0.000000000               0.000000000               0.000000000              -0.001341018               0.002295164              -0.001460812              -0.000789776               0.001028305               0.000238529               0.000000000               0.000000000               0.000000000               0.000000000              -0.000857553               0.003074318              -0.001448718              -0.000705871               0.001260052               0.000554181               0.000000000               0.000000000               0.000000000               0.000000000              -0.000536699               0.003701070              -0.001362240              -0.000663895               0.001454976               0.000791081               0.000000000               0.000000000               0.000000000               0.000000000              -0.000297342               0.004200899              -0.001254860              -0.000636615               0.001612490               0.000975875               0.000000000               0.000000000               0.000000000               0.000000000              -0.000095757               0.004610878              -0.001148385              -0.000612268               0.001741033               0.001128765               0.000000000               0.000000000               0.000000000               0.000000000               0.000091525               0.004937243              -0.001050473              -0.000582833               0.001840009               0.001257176               0.000000000               0.000000000               0.000000000               0.000000000               0.000263007               0.005161698              -0.000958834              -0.000546584               0.001902743               0.001356159               0.000000000               0.000000000               0.000000000               0.000000000               0.000426101               0.005298792              -0.000866347              -0.000502560               0.001933766               0.001431206               0.000000000               0.000000000               0.000000000               0.000000000               0.000595247               0.005365297              -0.000767858              -0.000447444               0.001937562               0.001490119               0.000000000               0.000000000               0.000000000               0.000000000               0.000778309               0.005373479              -0.000663067              -0.000379818               0.001917748               0.001537930               0.000000000               0.000000000               0.000000000               0.000000000               0.000976242               0.005331081              -0.000547784              -0.000300294               0.001877107               0.001576813               0.000000000               0.000000000               0.000000000               0.000000000               0.001191011               0.005247288              -0.000411248              -0.000209281               0.001818839               0.001609557               0.000000000               0.000000000               0.000000000               0.000000000               0.001418888               0.005134073              -0.000231323              -0.000109676               0.001747899               0.001638223               0.000000000               0.000000000               0.000000000               0.000000000               0.001589065               0.005089576              -0.000133574              -0.000040298               0.001709941               0.001669643               0.000000000               0.000000000               0.000000000               0.000000000              -0.006865107              -0.000511966               0.000232476              -0.002510418               0.000666146              -0.001844272               0.000000000               0.000000000               0.000000000               0.000000000              -0.004207276               0.000119136              -0.000235503              -0.001592619               0.000570581              -0.001022038               0.000000000               0.000000000               0.000000000               0.000000000              -0.002206236               0.000757756              -0.000662211              -0.000922057               0.000559933              -0.000362123               0.000000000               0.000000000               0.000000000               0.000000000              -0.001213627               0.001611032              -0.000786179              -0.000656488               0.000755834               0.000099346               0.000000000               0.000000000               0.000000000               0.000000000              -0.000661017               0.002408752              -0.000792679              -0.000548974               0.000985901               0.000436926               0.000000000               0.000000000               0.000000000               0.000000000              -0.000314024               0.003088346              -0.000753635              -0.000503802               0.001197372               0.000693570               0.000000000               0.000000000               0.000000000               0.000000000              -0.000067287               0.003648700              -0.000699780              -0.000481319               0.001376661               0.000895342               0.000000000               0.000000000               0.000000000               0.000000000               0.000134562               0.004120011              -0.000646197              -0.000464540               0.001528170               0.001063630               0.000000000               0.000000000               0.000000000               0.000000000               0.000313464               0.004513149              -0.000595616              -0.000446594               0.001653232               0.001206639               0.000000000               0.000000000               0.000000000               0.000000000               0.000474609               0.004803438              -0.000546430              -0.000422451               0.001741947               0.001319496               0.000000000               0.000000000               0.000000000               0.000000000               0.000632229               0.005000354              -0.000496568              -0.000387958               0.001796087               0.001408129               0.000000000               0.000000000               0.000000000               0.000000000               0.000805719               0.005127920              -0.000443198              -0.000338845               0.001822238               0.001483393               0.000000000               0.000000000               0.000000000               0.000000000               0.001007552               0.005200120              -0.000384782              -0.000272182               0.001824083               0.001551901               0.000000000               0.000000000               0.000000000               0.000000000               0.001245398               0.005219937              -0.000322338              -0.000185468               0.001801784               0.001616317               0.000000000               0.000000000               0.000000000               0.000000000               0.001527884               0.005188979              -0.000246048              -0.000075666               0.001754864               0.001679199               0.000000000               0.000000000               0.000000000               0.000000000               0.001866238               0.005109960              -0.000139010               0.000061093               0.001682939               0.001744032               0.000000000               0.000000000               0.000000000               0.000000000               0.002143153               0.005090099              -0.000082595               0.000167419               0.001640876               0.001808295               0.000000000               0.000000000               0.000000000               0.000000000               0.000000000               0.000000000               0.000000000               0.000000000               0.000000000               0.000000000               0.000000000               0.000000000               0.000000000               0.000000000               0.000000000               0.000000000               0.000000000               0.000000000               0.000000000               0.000000000               0.000000000               0.000000000               0.000000000               0.000000000               0.000000000               0.000000000               0.000000000               0.000000000               0.000000000               0.000000000               0.000000000               0.000000000               0.000000000               0.000000000               0.000000000               0.000000000               0.000000000               0.000000000               0.000000000               0.000000000               0.000000000               0.000000000               0.000000000               0.000000000               0.000000000               0.000000000               0.000000000               0.000000000               0.000000000               0.000000000               0.000000000               0.000000000               0.000000000               0.000000000               0.000000000               0.000000000               0.000000000               0.000000000               0.000000000               0.000000000               0.000000000               0.000000000               0.000000000               0.000000000               0.000000000               0.000000000               0.000000000               0.000000000               0.000000000               0.000000000               0.000000000               0.000000000               0.000000000               0.000000000               0.000000000               0.000000000               0.000000000               0.000000000               0.000000000               0.000000000               0.000000000               0.000000000               0.000000000               0.000000000               0.000000000               0.000000000               0.000000000               0.000000000               0.000000000               0.000000000               0.000000000               0.000000000               0.000000000               0.000000000               0.000000000               0.000000000               0.000000000               0.000000000               0.000000000               0.000000000               0.000000000               0.000000000               0.000000000               0.000000000               0.000000000               0.000000000               0.000000000               0.000000000               0.000000000               0.000000000               0.000000000               0.000000000               0.000000000               0.000000000               0.000000000               0.000000000               0.000000000               0.000000000               0.000000000               0.000000000               0.000000000               0.000000000               0.000000000               0.000000000               0.000000000               0.000000000               0.000000000               0.000000000               0.000000000               0.000000000               0.000000000               0.000000000               0.000000000               0.000000000               0.000000000               0.000000000               0.000000000               0.000000000               0.000000000               0.000000000               0.000000000               0.000000000               0.000000000               0.000000000               0.000000000               0.000000000               0.000000000               0.000000000               0.000000000               0.000000000               0.000000000               0.000000000               0.000000000               0.000000000               0.000000000               0.000000000               0.000000000               0.000000000               0.000000000               0.000000000               0.000000000               0.000000000               0.000000000               0.000000000               0.000000000               0.000000000               0.000000000               0.000000000               0.000000000               0.000000000               0.000000000               0.000000000               0.000000000               0.000000000               0.000000000               0.000000000               0.000000000               0.000000000               0.000000000               0.000000000               0.000000000               0.000000000               0.000000000               0.000000000               0.000000000               0.000000000               0.000000000               0.000000000               0.000000000               0.000000000               0.000000000               0.000000000               0.000000000               0.000000000               0.000000000               0.000000000               0.000000000               0.000000000               0.000000000               0.000000000               0.000000000               0.000000000               0.000000000               0.000000000               0.000000000               0.000000000               0.000000000               0.000000000               0.000000000               0.000000000               0.000000000               0.000000000               0.000000000               0.000000000               0.000000000               0.000000000               0.000000000               0.000000000               0.000000000               0.000000000               0.000000000               0.000000000               0.000000000               0.000000000               0.000000000               0.000000000               0.000000000               0.000000000               0.000000000               0.000000000               0.000000000               0.000000000               0.000000000               0.000000000               0.000000000               0.000000000               0.000000000               0.000000000               0.000000000               0.000000000               0.000000000               0.000000000               0.000000000               0.000000000               0.000000000               0.000000000               0.000000000               0.000000000               0.000000000               0.000000000               0.000000000               0.000000000               0.000000000               0.000000000               0.000000000               0.000000000               0.000000000               0.000000000               0.000000000               0.000000000               0.000000000               0.000000000               0.000000000               0.000000000               0.000000000               0.000000000               0.000000000               0.000000000               0.000000000               0.000000000               0.000000000               0.000000000               0.000000000               0.000000000               0.000000000               0.000000000               0.000000000               0.000000000               0.000000000               0.000000000               0.000000000               0.000000000               0.000000000               0.000000000               0.000000000               0.000000000               0.000000000               0.000000000               0.000000000               0.000000000               0.000000000               0.000000000               0.000000000               0.000000000               0.000000000               0.000000000               0.000000000               0.000000000               0.000000000               0.000000000               0.000000000               0.000000000               0.000000000               0.000000000               0.000000000               0.000000000               0.000000000               0.000000000               0.000000000               0.000000000               0.000000000               0.000000000               0.000000000               0.000000000               0.000000000               0.000000000               0.000000000               0.000000000               0.000000000               0.000000000               0.000000000               0.000000000               0.000000000               0.000000000               0.000000000               0.000000000               0.000000000               0.000000000               0.000000000               0.000000000               0.000000000               0.000000000               0.000000000               0.000000000               0.000000000               0.000000000               0.000000000               0.000000000               0.000000000               0.000000000               0.000000000               0.000000000               0.000000000               0.000000000               0.001860821               0.019481166               0.001374847              -0.001737334               0.007072768               0.005335435               0.000000000               0.000000000               0.000000000               0.000000000               0.001774716               0.015482724               0.000722348              -0.001269819               0.005584129               0.004314310               0.000000000               0.000000000               0.000000000               0.000000000               0.002251468               0.012292218               0.000070306              -0.000692225               0.004328107               0.003635882               0.000000000               0.000000000               0.000000000               0.000000000               0.002137434               0.010513592              -0.000205040              -0.000512660               0.003675382               0.003162722               0.000000000               0.000000000               0.000000000               0.000000000               0.001863574               0.009407184              -0.000317330              -0.000477057               0.003294716               0.002817659               0.000000000               0.000000000               0.000000000               0.000000000               0.001567863               0.008657849              -0.000357863              -0.000494281               0.003050681               0.002556400               0.000000000               0.000000000               0.000000000               0.000000000               0.001290436               0.008109916              -0.000365209              -0.000529825               0.002879886               0.002350062               0.000000000               0.000000000               0.000000000               0.000000000               0.001046343               0.007679295              -0.000357176              -0.000567532               0.002748917               0.002181385               0.000000000               0.000000000               0.000000000               0.000000000               0.000836779               0.007316409              -0.000341310              -0.000600757               0.002639031               0.002038274               0.000000000               0.000000000               0.000000000               0.000000000               0.000654994               0.006994822              -0.000324000              -0.000628728               0.002541160               0.001912432               0.000000000               0.000000000               0.000000000               0.000000000               0.000494576               0.006697765              -0.000307848              -0.000651753               0.002449817               0.001798064               0.000000000               0.000000000               0.000000000               0.000000000               0.000355323               0.006410797              -0.000288425              -0.000668102               0.002359611               0.001691510               0.000000000               0.000000000               0.000000000               0.000000000               0.000236302               0.006118251              -0.000259715              -0.000676167               0.002264785               0.001588619               0.000000000               0.000000000               0.000000000               0.000000000               0.000138225               0.005807671              -0.000220079              -0.000674123               0.002160579               0.001486456               0.000000000               0.000000000               0.000000000               0.000000000               0.000064371               0.005472111              -0.000168532              -0.000659873               0.002043976               0.001384103               0.000000000               0.000000000               0.000000000               0.000000000               0.000020469               0.005103273              -0.000096996              -0.000630232               0.001911151               0.001280920               0.000000000               0.000000000               0.000000000               0.000000000              -0.000021159               0.004828759              -0.000060057              -0.000611528               0.001813413               0.001201885               0.000000000               0.000000000               0.000000000               0.000000000               0.002038872               0.018329718               0.002563581              -0.001526635               0.006618723               0.005092088               0.000000000               0.000000000               0.000000000               0.000000000               0.001686992               0.014731090               0.001349975              -0.001208762               0.005313235               0.004104473               0.000000000               0.000000000               0.000000000               0.000000000               0.001884959               0.011956710               0.000147458              -0.000787727               0.004248106               0.003460378               0.000000000               0.000000000               0.000000000               0.000000000               0.001675053               0.010384909              -0.000345045              -0.000669967               0.003684924               0.003014957               0.000000000               0.000000000               0.000000000               0.000000000               0.001382458               0.009388532              -0.000539587              -0.000655143               0.003347860               0.002692717               0.000000000               0.000000000               0.000000000               0.000000000               0.001105092               0.008696019              -0.000607339              -0.000672591               0.003122841               0.002450250               0.000000000               0.000000000               0.000000000               0.000000000               0.000868738               0.008175934              -0.000616413              -0.000696214               0.002957355               0.002261142               0.000000000               0.000000000               0.000000000               0.000000000               0.000672434               0.007754256              -0.000597844              -0.000717118               0.002823765               0.002106648               0.000000000               0.000000000               0.000000000               0.000000000               0.000512870               0.007394514              -0.000568691              -0.000731986               0.002708809               0.001976823               0.000000000               0.000000000               0.000000000               0.000000000               0.000380150               0.007076139              -0.000539141              -0.000741959               0.002606009               0.001864050               0.000000000               0.000000000               0.000000000               0.000000000               0.000270624               0.006783419              -0.000509552              -0.000746442               0.002509931               0.001763489               0.000000000               0.000000000               0.000000000               0.000000000               0.000181777               0.006502402              -0.000472404              -0.000744632               0.002415656               0.001671024               0.000000000               0.000000000               0.000000000               0.000000000               0.000111046               0.006225489              -0.000421017              -0.000736542               0.002320656               0.001584114               0.000000000               0.000000000               0.000000000               0.000000000               0.000060448               0.005951390              -0.000355285              -0.000721254               0.002224195               0.001502941               0.000000000               0.000000000               0.000000000               0.000000000               0.000025749               0.005681433              -0.000271992              -0.000700521               0.002127299               0.001426778               0.000000000               0.000000000               0.000000000               0.000000000               0.000006424               0.005416852              -0.000156255              -0.000674696               0.002030498               0.001355802               0.000000000               0.000000000               0.000000000               0.000000000              -0.000015272               0.005239886              -0.000094051              -0.000660711               0.001966848               0.001306137               0.000000000               0.000000000               0.000000000               0.000000000               0.002235609               0.016590798               0.003428296              -0.001235496               0.005942042               0.004706546               0.000000000               0.000000000               0.000000000               0.000000000               0.001520176               0.013616314               0.001821121              -0.001131971               0.004916049               0.003784078               0.000000000               0.000000000               0.000000000               0.000000000               0.001330209               0.011461221               0.000248623              -0.000933822               0.004131643               0.003197821               0.000000000               0.000000000               0.000000000               0.000000000               0.001005757               0.010182998              -0.000367342              -0.000895714               0.003692870               0.002797156               0.000000000               0.000000000               0.000000000               0.000000000               0.000716048               0.009334745              -0.000601263              -0.000898323               0.003410991               0.002512669               0.000000000               0.000000000               0.000000000               0.000000000               0.000485015               0.008714688              -0.000678730              -0.000907453               0.003207351               0.002299898               0.000000000               0.000000000               0.000000000               0.000000000               0.000311508               0.008226712              -0.000686171              -0.000911521               0.003046050               0.002134529               0.000000000               0.000000000               0.000000000               0.000000000               0.000186356               0.007817447              -0.000662324              -0.000907295               0.002908221               0.002000926               0.000000000               0.000000000               0.000000000               0.000000000               0.000100829               0.007465811              -0.000628597              -0.000895413               0.002787050               0.001891637               0.000000000               0.000000000               0.000000000               0.000000000               0.000041357               0.007153009              -0.000594247              -0.000878615               0.002677184               0.001798569               0.000000000               0.000000000               0.000000000               0.000000000               0.000000721               0.006864905              -0.000556841              -0.000857841               0.002574226               0.001716385               0.000000000               0.000000000               0.000000000               0.000000000              -0.000021743               0.006593217              -0.000509660              -0.000832304               0.002475152               0.001642848               0.000000000               0.000000000               0.000000000               0.000000000              -0.000029336               0.006339996              -0.000448423              -0.000803499               0.002381144               0.001577645               0.000000000               0.000000000               0.000000000               0.000000000              -0.000024894               0.006112379              -0.000372412              -0.000773381               0.002295233               0.001521852               0.000000000               0.000000000               0.000000000               0.000000000              -0.000014280               0.005916958              -0.000279993              -0.000744973               0.002220624               0.001475651               0.000000000               0.000000000               0.000000000               0.000000000              -0.000007200               0.005765454              -0.000158256              -0.000723380               0.002162926               0.001439545               0.000000000               0.000000000               0.000000000               0.000000000              -0.000008725               0.005690894              -0.000090110              -0.000714632               0.002135156               0.001420525               0.000000000               0.000000000               0.000000000               0.000000000               0.002346338               0.014467903               0.003903761              -0.000928612               0.005132123               0.004203511               0.000000000               0.000000000               0.000000000               0.000000000               0.001254730               0.012280898               0.002118187              -0.001064587               0.004448454               0.003383866               0.000000000               0.000000000               0.000000000               0.000000000               0.000661508               0.010865011               0.000392075              -0.001110058               0.003991653               0.002881595               0.000000000               0.000000000               0.000000000               0.000000000               0.000256758               0.009915056              -0.000251926              -0.001143095               0.003686017               0.002542922               0.000000000               0.000000000               0.000000000               0.000000000               0.000005027               0.009214482              -0.000491343              -0.001149922               0.003454771               0.002304849               0.000000000               0.000000000               0.000000000               0.000000000              -0.000145869               0.008663932              -0.000571676              -0.001137690               0.003267178               0.002129489               0.000000000               0.000000000               0.000000000               0.000000000              -0.000233976               0.008209233              -0.000582152              -0.001113893               0.003107681               0.001993789               0.000000000               0.000000000               0.000000000               0.000000000              -0.000275433               0.007819015              -0.000561009              -0.001080661               0.002966533               0.001885871               0.000000000               0.000000000               0.000000000               0.000000000              -0.000275280               0.007476911              -0.000531581              -0.001037841               0.002838226               0.001800384               0.000000000               0.000000000               0.000000000               0.000000000              -0.000254287               0.007168884              -0.000499494              -0.000991466               0.002720093               0.001728627               0.000000000               0.000000000               0.000000000               0.000000000              -0.000222552               0.006884726              -0.000460970              -0.000944046               0.002609568               0.001665522               0.000000000               0.000000000               0.000000000               0.000000000              -0.000179188               0.006625971              -0.000412377              -0.000895440               0.002507115               0.001611675               0.000000000               0.000000000               0.000000000               0.000000000              -0.000129990               0.006399966              -0.000353272              -0.000848740               0.002416214               0.001567474               0.000000000               0.000000000               0.000000000               0.000000000              -0.000083025               0.006218274              -0.000281796              -0.000808417               0.002342209               0.001533793               0.000000000               0.000000000               0.000000000               0.000000000              -0.000045390               0.006085742              -0.000200529              -0.000777737               0.002287806               0.001510069               0.000000000               0.000000000               0.000000000               0.000000000              -0.000018843               0.006008561              -0.000106992              -0.000758134               0.002255545               0.001497411               0.000000000               0.000000000               0.000000000               0.000000000              -0.000005525               0.005989080              -0.000054996              -0.000750705               0.002246575               0.001495870               0.000000000               0.000000000               0.000000000               0.000000000               0.002279573               0.012184635               0.003990779              -0.000668242               0.004284251               0.003616009               0.000000000               0.000000000               0.000000000               0.000000000               0.000887090               0.010863995               0.002253384              -0.001025339               0.003963075               0.002937735               0.000000000               0.000000000               0.000000000               0.000000000              -0.000040812               0.010215147               0.000583439              -0.001292195               0.003835746               0.002543552               0.000000000               0.000000000               0.000000000               0.000000000              -0.000457524               0.009576404              -0.000016309              -0.001368619               0.003648309               0.002279691               0.000000000               0.000000000               0.000000000               0.000000000              -0.000628417               0.009009746              -0.000244211              -0.001361871               0.003457176               0.002095304               0.000000000               0.000000000               0.000000000               0.000000000              -0.000677193               0.008522235              -0.000331489              -0.001319223               0.003280458               0.001961234               0.000000000               0.000000000               0.000000000               0.000000000              -0.000664622               0.008099605              -0.000354803              -0.001261681               0.003120402               0.001858721               0.000000000               0.000000000               0.000000000               0.000000000              -0.000616928               0.007728513              -0.000344541              -0.001197409               0.002975281               0.001777872               0.000000000               0.000000000               0.000000000               0.000000000              -0.000541546               0.007395430              -0.000323745              -0.001127506               0.002840954               0.001713448               0.000000000               0.000000000               0.000000000               0.000000000              -0.000449884               0.007093774              -0.000298900              -0.001055426               0.002716376               0.001660951               0.000000000               0.000000000               0.000000000               0.000000000              -0.000351262               0.006818970              -0.000268220              -0.000984092               0.002600998               0.001616906               0.000000000               0.000000000               0.000000000               0.000000000              -0.000254395               0.006579998              -0.000230119              -0.000917896               0.002499276               0.001581380               0.000000000               0.000000000               0.000000000               0.000000000              -0.000171548               0.006386808              -0.000186853              -0.000862679               0.002416474               0.001553795               0.000000000               0.000000000               0.000000000               0.000000000              -0.000107350               0.006240917              -0.000139357              -0.000820369               0.002353741               0.001533372               0.000000000               0.000000000               0.000000000               0.000000000              -0.000062015               0.006137876              -0.000089518              -0.000790488               0.002309434               0.001518946               0.000000000               0.000000000               0.000000000               0.000000000              -0.000028193               0.006070462              -0.000042109              -0.000769378               0.002279927               0.001510548               0.000000000               0.000000000               0.000000000               0.000000000              -0.000018683               0.006036430              -0.000022938              -0.000761558               0.002265976               0.001504418               0.000000000               0.000000000               0.000000000               0.000000000               0.001971204               0.009933643               0.003751153              -0.000502507               0.003478682               0.002976176               0.000000000               0.000000000               0.000000000               0.000000000               0.000430274               0.009476565               0.002263836              -0.001023217               0.003499895               0.002476678               0.000000000               0.000000000               0.000000000               0.000000000              -0.000700708               0.009536659               0.000820924              -0.001454845               0.003663803               0.002208958               0.000000000               0.000000000               0.000000000               0.000000000              -0.001050648               0.009161473               0.000300308              -0.001539173               0.003566852               0.002027678               0.000000000               0.000000000               0.000000000               0.000000000              -0.001103587               0.008715226               0.000082774              -0.001503245               0.003406128               0.001902883               0.000000000               0.000000000               0.000000000               0.000000000              -0.001043742               0.008287970              -0.000018386              -0.001427396               0.003238428               0.001811032               0.000000000               0.000000000               0.000000000               0.000000000              -0.000939771               0.007896492              -0.000063727              -0.001339472               0.003078628               0.001739156               0.000000000               0.000000000               0.000000000               0.000000000              -0.000810726               0.007543911              -0.000074633              -0.001247008               0.002930281               0.001683273               0.000000000               0.000000000               0.000000000               0.000000000              -0.000666789               0.007226651              -0.000072982              -0.001153374               0.002793318               0.001639943               0.000000000               0.000000000               0.000000000               0.000000000              -0.000521383               0.006941917              -0.000067200              -0.001063256               0.002668368               0.001605112               0.000000000               0.000000000               0.000000000               0.000000000              -0.000385852               0.006692216              -0.000055895              -0.000981219               0.002557789               0.001576570               0.000000000               0.000000000               0.000000000               0.000000000              -0.000267671               0.006483870              -0.000044544              -0.000910858               0.002464888               0.001554030               0.000000000               0.000000000               0.000000000               0.000000000              -0.000176410               0.006312695              -0.000035440              -0.000855239               0.002389290               0.001534052               0.000000000               0.000000000               0.000000000               0.000000000              -0.000114232               0.006170396              -0.000026332              -0.000814134               0.002328156               0.001514022               0.000000000               0.000000000               0.000000000               0.000000000              -0.000072340               0.006049738              -0.000019141              -0.000783343               0.002277673               0.001494331               0.000000000               0.000000000               0.000000000               0.000000000              -0.000035858               0.005942492              -0.000011739              -0.000756256               0.002232896               0.001476640               0.000000000               0.000000000               0.000000000               0.000000000              -0.000034691               0.005867008              -0.000016674              -0.000746383               0.002204444               0.001458061               0.000000000               0.000000000               0.000000000               0.000000000               0.001442642               0.007845038               0.003270028              -0.000439641               0.002761533               0.002321891               0.000000000               0.000000000               0.000000000               0.000000000              -0.000088839               0.008198359               0.002191961              -0.001058108               0.003085461               0.002027353               0.000000000               0.000000000               0.000000000               0.000000000              -0.001249766               0.008844227               0.001099680              -0.001574187               0.003472775               0.001898588               0.000000000               0.000000000               0.000000000               0.000000000              -0.001464005               0.008677758               0.000655562              -0.001633718               0.003437130               0.001803412               0.000000000               0.000000000               0.000000000               0.000000000              -0.001386151               0.008338259               0.000433439              -0.001562085               0.003300087               0.001738002               0.000000000               0.000000000               0.000000000               0.000000000              -0.001226428               0.007972865               0.000307408              -0.001456515               0.003143100               0.001686585               0.000000000               0.000000000               0.000000000               0.000000000              -0.001045642               0.007621170               0.000231568              -0.001344758               0.002988617               0.001643859               0.000000000               0.000000000               0.000000000               0.000000000              -0.000854153               0.007295789               0.000188359              -0.001232278               0.002842664               0.001610387               0.000000000               0.000000000               0.000000000               0.000000000              -0.000660746               0.007003601               0.000158740              -0.001123227               0.002708919               0.001585692               0.000000000               0.000000000               0.000000000               0.000000000              -0.000484408               0.006745782               0.000132483              -0.001024873               0.002590196               0.001565323               0.000000000               0.000000000               0.000000000               0.000000000              -0.000337788               0.006518977               0.000108477              -0.000941540               0.002486817               0.001545277               0.000000000               0.000000000               0.000000000               0.000000000              -0.000229666               0.006313032               0.000083186              -0.000875251               0.002396073               0.001520822               0.000000000               0.000000000               0.000000000               0.000000000              -0.000163195               0.006121719               0.000054862              -0.000826411               0.002316023               0.001489612               0.000000000               0.000000000               0.000000000               0.000000000              -0.000123881               0.005945188               0.000026127              -0.000789602               0.002244910               0.001455308               0.000000000               0.000000000               0.000000000               0.000000000              -0.000093964               0.005783106               0.000003879              -0.000758123               0.002180390               0.001422268               0.000000000               0.000000000               0.000000000               0.000000000              -0.000057304               0.005637478              -0.000006952              -0.000726172               0.002121198               0.001395026               0.000000000               0.000000000               0.000000000               0.000000000              -0.000048359               0.005544713              -0.000018239              -0.000711222               0.002085293               0.001374071               0.000000000               0.000000000               0.000000000               0.000000000               0.000790987               0.006069338               0.002641712              -0.000462049               0.002177108               0.001715059               0.000000000               0.000000000               0.000000000               0.000000000              -0.000585722               0.007057019               0.002087051              -0.001101772               0.002719573               0.001617801               0.000000000               0.000000000               0.000000000               0.000000000              -0.001649335               0.008169622               0.001425053              -0.001639700               0.003269746               0.001630047               0.000000000               0.000000000               0.000000000               0.000000000              -0.001714556               0.008215227               0.001032344              -0.001669858               0.003295001               0.001625143               0.000000000               0.000000000               0.000000000               0.000000000              -0.001531696               0.007994182               0.000786659              -0.001573655               0.003189252               0.001615597               0.000000000               0.000000000               0.000000000               0.000000000              -0.001297531               0.007705241               0.000624666              -0.001449726               0.003051630               0.001601904               0.000000000               0.000000000               0.000000000               0.000000000              -0.001058856               0.007407444               0.000514436              -0.001322998               0.002910123               0.001587124               0.000000000               0.000000000               0.000000000               0.000000000              -0.000821232               0.007117689               0.000433256              -0.001197670               0.002771763               0.001574092               0.000000000               0.000000000               0.000000000               0.000000000              -0.000593434               0.006854981               0.000364089              -0.001079408               0.002644773               0.001565366               0.000000000               0.000000000               0.000000000               0.000000000              -0.000397660               0.006616075               0.000300907              -0.000976129               0.002530713               0.001554583               0.000000000               0.000000000               0.000000000               0.000000000              -0.000258548               0.006376142               0.000243046              -0.000893971               0.002423350               0.001529379               0.000000000               0.000000000               0.000000000               0.000000000              -0.000173114               0.006142541               0.000186882              -0.000832733               0.002325071               0.001492338               0.000000000               0.000000000               0.000000000               0.000000000              -0.000132357               0.005921618               0.000127738              -0.000789834               0.002237131               0.001447297               0.000000000               0.000000000               0.000000000               0.000000000              -0.000128488               0.005706818               0.000071044              -0.000761533               0.002156098               0.001394565               0.000000000               0.000000000               0.000000000               0.000000000              -0.000135752               0.005506696               0.000027732              -0.000739242               0.002081961               0.001342719               0.000000000               0.000000000               0.000000000               0.000000000              -0.000136331               0.005327259               0.000002479              -0.000717030               0.002014745               0.001297715               0.000000000               0.000000000               0.000000000               0.000000000              -0.000132667               0.005231701              -0.000007786              -0.000703711               0.001978453               0.001274742               0.000000000               0.000000000               0.000000000               0.000000000              -0.000009205               0.004402682               0.001961323              -0.000553787               0.001652141               0.001098354               0.000000000               0.000000000               0.000000000               0.000000000              -0.000983179               0.005739393               0.001965574              -0.001086115               0.002275149               0.001189035               0.000000000               0.000000000               0.000000000               0.000000000              -0.001847059               0.007185668               0.001777313              -0.001590852               0.002925483               0.001334630               0.000000000               0.000000000               0.000000000               0.000000000              -0.001834947               0.007531344               0.001448596              -0.001629519               0.003053596               0.001424076               0.000000000               0.000000000               0.000000000               0.000000000              -0.001611324               0.007514412               0.001176659              -0.001543544               0.003019293               0.001475749               0.000000000               0.000000000               0.000000000               0.000000000              -0.001347976               0.007374860               0.000972947              -0.001427345               0.002934044               0.001506699               0.000000000               0.000000000               0.000000000               0.000000000              -0.001092614               0.007188818               0.000823144              -0.001308329               0.002832358               0.001524029               0.000000000               0.000000000               0.000000000               0.000000000              -0.000847729               0.006981584               0.000702267              -0.001190594               0.002724036               0.001533442               0.000000000               0.000000000               0.000000000               0.000000000              -0.000614572               0.006777188               0.000596845              -0.001077610               0.002618243               0.001540633               0.000000000               0.000000000               0.000000000               0.000000000              -0.000414124               0.006560513               0.000499549              -0.000975358               0.002511935               0.001536577               0.000000000               0.000000000               0.000000000               0.000000000              -0.000268105               0.006317928               0.000405332              -0.000890278               0.002402714               0.001512436               0.000000000               0.000000000               0.000000000               0.000000000              -0.000177894               0.006075479               0.000314429              -0.000826143               0.002300521               0.001474377               0.000000000               0.000000000               0.000000000               0.000000000              -0.000140752               0.005833858               0.000223057              -0.000782012               0.002205271               0.001423258               0.000000000               0.000000000               0.000000000               0.000000000              -0.000149897               0.005601222               0.000137823              -0.000756362               0.002119176               0.001362814               0.000000000               0.000000000               0.000000000               0.000000000              -0.000188561               0.005386055               0.000070535              -0.000743965               0.002043322               0.001299357               0.000000000               0.000000000               0.000000000               0.000000000              -0.000237344               0.005187346               0.000023495              -0.000737421               0.001974905               0.001237484               0.000000000               0.000000000               0.000000000               0.000000000              -0.000261301               0.005091265               0.000004284              -0.000734394               0.001941869               0.001207475               0.000000000               0.000000000               0.000000000               0.000000000              -0.001077257               0.002876902               0.001269126              -0.000763583               0.001213485               0.000449902               0.000000000               0.000000000               0.000000000               0.000000000              -0.001434797               0.004417861               0.001778968              -0.001090280               0.001836031               0.000745752               0.000000000               0.000000000               0.000000000               0.000000000              -0.001961058               0.006055596               0.002052447              -0.001492343               0.002515959               0.001023616               0.000000000               0.000000000               0.000000000               0.000000000              -0.001882083               0.006688390               0.001844882              -0.001541827               0.002743383               0.001201556               0.000000000               0.000000000               0.000000000               0.000000000              -0.001642326               0.006908370               0.001576984              -0.001479415               0.002795905               0.001316490               0.000000000               0.000000000               0.000000000               0.000000000              -0.001371278               0.006950176               0.001343095              -0.001382998               0.002777702               0.001394703               0.000000000               0.000000000               0.000000000               0.000000000              -0.001115493               0.006902241               0.001156576              -0.001281087               0.002727753               0.001446666               0.000000000               0.000000000               0.000000000               0.000000000              -0.000875454               0.006803173               0.001003591              -0.001178689               0.002660598               0.001481909               0.000000000               0.000000000               0.000000000               0.000000000              -0.000641841               0.006681451               0.000869675              -0.001075869               0.002585751               0.001509882               0.000000000               0.000000000               0.000000000               0.000000000              -0.000435106               0.006518723               0.000746080              -0.000978003               0.002498887               0.001520884               0.000000000               0.000000000               0.000000000               0.000000000              -0.000271128               0.006308197               0.000627016              -0.000890196               0.002399443               0.001509248               0.000000000               0.000000000               0.000000000               0.000000000              -0.000156192               0.006080353               0.000509194              -0.000818614               0.002299635               0.001481021               0.000000000               0.000000000               0.000000000               0.000000000              -0.000094840               0.005842739               0.000387832              -0.000765905               0.002202862               0.001436956               0.000000000               0.000000000               0.000000000               0.000000000              -0.000086849               0.005607245               0.000268536              -0.000733472               0.002113554               0.001380082               0.000000000               0.000000000               0.000000000               0.000000000              -0.000133872               0.005382404               0.000162337              -0.000723001               0.002035117               0.001312116               0.000000000               0.000000000               0.000000000               0.000000000              -0.000223819               0.005181456               0.000072102              -0.000731612               0.001971006               0.001239393               0.000000000               0.000000000               0.000000000               0.000000000              -0.000292895               0.005079076               0.000024232              -0.000744718               0.001941248               0.001196530               0.000000000               0.000000000               0.000000000               0.000000000              -0.002336569               0.001607491               0.000615937              -0.001077148               0.000894873              -0.000182275               0.000000000               0.000000000               0.000000000               0.000000000              -0.001990582               0.003170676               0.001501670              -0.001142801               0.001437814               0.000295014               0.000000000               0.000000000               0.000000000               0.000000000              -0.002028802               0.004800151               0.002151400              -0.001360817               0.002053639               0.000692822               0.000000000               0.000000000               0.000000000               0.000000000              -0.001827152               0.005640031               0.002099952              -0.001390183               0.002343385               0.000953202               0.000000000               0.000000000               0.000000000               0.000000000              -0.001562832               0.006080092               0.001880939              -0.001346071               0.002475367               0.001129296               0.000000000               0.000000000               0.000000000               0.000000000              -0.001293105               0.006311189               0.001648619              -0.001273811               0.002528312               0.001254501               0.000000000               0.000000000               0.000000000               0.000000000              -0.001039783               0.006421060               0.001445004              -0.001192549               0.002537848               0.001345299               0.000000000               0.000000000               0.000000000               0.000000000              -0.000805673               0.006452999               0.001273328              -0.001108750               0.002520561               0.001411811               0.000000000               0.000000000               0.000000000               0.000000000              -0.000584257               0.006437188               0.001120944              -0.001023743               0.002486955               0.001463213               0.000000000               0.000000000               0.000000000               0.000000000              -0.000383120               0.006357661               0.000981705              -0.000938376               0.002431991               0.001493615               0.000000000               0.000000000               0.000000000               0.000000000              -0.000207439               0.006211651               0.000849000              -0.000854244               0.002355277               0.001501033               0.000000000               0.000000000               0.000000000               0.000000000              -0.000068712               0.006024387               0.000714841              -0.000778813               0.002267713               0.001488900               0.000000000               0.000000000               0.000000000               0.000000000               0.000021090               0.005814384               0.000574315              -0.000718888               0.002177738               0.001458850               0.000000000               0.000000000               0.000000000               0.000000000               0.000062623               0.005599628               0.000428711              -0.000676468               0.002092013               0.001415545               0.000000000               0.000000000               0.000000000               0.000000000               0.000044723               0.005380274               0.000282911              -0.000655761               0.002011994               0.001356232               0.000000000               0.000000000               0.000000000               0.000000000              -0.000040359               0.005177529               0.000138833              -0.000662324               0.001946600               0.001284276               0.000000000               0.000000000               0.000000000               0.000000000              -0.000126639               0.005067604               0.000057948              -0.000680938               0.001916164               0.001235226               0.000000000               0.000000000               0.000000000               0.000000000              -0.003690614               0.000659459               0.000086233              -0.001466411               0.000708619              -0.000757792               0.000000000               0.000000000               0.000000000               0.000000000              -0.002616991               0.002065154               0.001166610              -0.001239514               0.001101548              -0.000137966               0.000000000               0.000000000               0.000000000               0.000000000              -0.002076972               0.003521529               0.002048216              -0.001219054               0.001580182               0.000361128               0.000000000               0.000000000               0.000000000               0.000000000              -0.001692572               0.004468321               0.002142547              -0.001193253               0.001887175               0.000693923               0.000000000               0.000000000               0.000000000               0.000000000              -0.001376736               0.005082072               0.002000072              -0.001151533               0.002077851               0.000926318               0.000000000               0.000000000               0.000000000               0.000000000              -0.001103547               0.005482734               0.001802326              -0.001099170               0.002193949               0.001094779               0.000000000               0.000000000               0.000000000               0.000000000              -0.000859626               0.005746374               0.001610816              -0.001040655               0.002262323               0.001221669               0.000000000               0.000000000               0.000000000               0.000000000              -0.000635067               0.005920860               0.001438345              -0.000978256               0.002299685               0.001321429               0.000000000               0.000000000               0.000000000               0.000000000              -0.000425520               0.006028856               0.001281823              -0.000913175               0.002313990               0.001400815               0.000000000               0.000000000               0.000000000               0.000000000              -0.000232936               0.006051533               0.001142938              -0.000843791               0.002298421               0.001454630               0.000000000               0.000000000               0.000000000               0.000000000              -0.000056502               0.005993705               0.001010445              -0.000770400               0.002254682               0.001484282               0.000000000               0.000000000               0.000000000               0.000000000               0.000100608               0.005881528               0.000870199              -0.000697462               0.002192977               0.001495515               0.000000000               0.000000000               0.000000000               0.000000000               0.000225447               0.005728692               0.000723296              -0.000631543               0.002120059               0.001488517               0.000000000               0.000000000               0.000000000               0.000000000               0.000312906               0.005552406               0.000568679              -0.000576710               0.002043020               0.001466310               0.000000000               0.000000000               0.000000000               0.000000000               0.000352875               0.005362025               0.000399083              -0.000537924               0.001966631               0.001428708               0.000000000               0.000000000               0.000000000               0.000000000               0.000330204               0.005174358               0.000207882              -0.000522967               0.001899091               0.001376124               0.000000000               0.000000000               0.000000000               0.000000000               0.000281171               0.005072278               0.000100557              -0.000528594               0.001866940               0.001338346               0.000000000               0.000000000               0.000000000               0.000000000              -0.004999709               0.000029935              -0.000245710              -0.001878631               0.000636184              -0.001242447               0.000000000               0.000000000               0.000000000               0.000000000              -0.003254023               0.001166884               0.000819358              -0.001366117               0.000844328              -0.000521790               0.000000000               0.000000000               0.000000000               0.000000000              -0.002123179               0.002341052               0.001741525              -0.001088822               0.001143282               0.000054461               0.000000000               0.000000000               0.000000000               0.000000000              -0.001515904               0.003300423               0.001928900              -0.000981015               0.001427134               0.000446119               0.000000000               0.000000000               0.000000000               0.000000000              -0.001121343               0.004023882               0.001864411              -0.000923488               0.001649109               0.000725621               0.000000000               0.000000000               0.000000000               0.000000000              -0.000828256               0.004558842               0.001721610              -0.000880450               0.001813082               0.000932632               0.000000000               0.000000000               0.000000000               0.000000000              -0.000590570               0.004959219               0.001565527              -0.000841365               0.001933511               0.001092146               0.000000000               0.000000000               0.000000000               0.000000000              -0.000382139               0.005266410               0.001416026              -0.000801602               0.002022653               0.001221051               0.000000000               0.000000000               0.000000000               0.000000000              -0.000183981               0.005493354               0.001279404              -0.000755661               0.002082986               0.001327326               0.000000000               0.000000000               0.000000000               0.000000000               0.000000306               0.005622633               0.001156821              -0.000702713               0.002108430               0.001405717               0.000000000               0.000000000               0.000000000               0.000000000               0.000170654               0.005667302               0.001036563              -0.000644416               0.002103887               0.001459471               0.000000000               0.000000000               0.000000000               0.000000000               0.000335168               0.005647888               0.000907597              -0.000580297               0.002076043               0.001495746               0.000000000               0.000000000               0.000000000               0.000000000               0.000493225               0.005572562               0.000771569              -0.000511610               0.002028039               0.001516429               0.000000000               0.000000000               0.000000000               0.000000000               0.000637985               0.005455859               0.000625389              -0.000442737               0.001966180               0.001523443               0.000000000               0.000000000               0.000000000               0.000000000               0.000760385               0.005313031               0.000456651              -0.000378984               0.001897321               0.001518337               0.000000000               0.000000000               0.000000000               0.000000000               0.000851963               0.005159561               0.000248826              -0.000325458               0.001828323               0.001502864               0.000000000               0.000000000               0.000000000               0.000000000               0.000898538               0.005083844               0.000134262              -0.000298528               0.001794107               0.001495579               0.000000000               0.000000000               0.000000000               0.000000000              -0.006111769              -0.000333775              -0.000342080              -0.002250190               0.000638801              -0.001611389               0.000000000               0.000000000               0.000000000               0.000000000              -0.003816887               0.000514871               0.000504335              -0.001495690               0.000670182              -0.000825508               0.000000000               0.000000000               0.000000000               0.000000000              -0.002169755               0.001384259               0.001263253              -0.000986689               0.000790310              -0.000196379               0.000000000               0.000000000               0.000000000               0.000000000              -0.001341018               0.002295164               0.001460812              -0.000789776               0.001028305               0.000238529               0.000000000               0.000000000               0.000000000               0.000000000              -0.000857553               0.003074318               0.001448718              -0.000705871               0.001260052               0.000554181               0.000000000               0.000000000               0.000000000               0.000000000              -0.000536699               0.003701070               0.001362240              -0.000663895               0.001454976               0.000791081               0.000000000               0.000000000               0.000000000               0.000000000              -0.000297342               0.004200899               0.001254860              -0.000636615               0.001612490               0.000975875               0.000000000               0.000000000               0.000000000               0.000000000              -0.000095757               0.004610878               0.001148385              -0.000612268               0.001741033               0.001128765               0.000000000               0.000000000               0.000000000               0.000000000               0.000091525               0.004937243               0.001050473              -0.000582833               0.001840009               0.001257176               0.000000000               0.000000000               0.000000000               0.000000000               0.000263007               0.005161698               0.000958834              -0.000546584               0.001902743               0.001356159               0.000000000               0.000000000               0.000000000               0.000000000               0.000426101               0.005298792               0.000866347              -0.000502560               0.001933766               0.001431206               0.000000000               0.000000000               0.000000000               0.000000000               0.000595247               0.005365297               0.000767858              -0.000447444               0.001937562               0.001490119               0.000000000               0.000000000               0.000000000               0.000000000               0.000778309               0.005373479               0.000663067              -0.000379818               0.001917748               0.001537930               0.000000000               0.000000000               0.000000000               0.000000000               0.000976242               0.005331081               0.000547784              -0.000300294               0.001877107               0.001576813               0.000000000               0.000000000               0.000000000               0.000000000               0.001191011               0.005247288               0.000411248              -0.000209281               0.001818839               0.001609557               0.000000000               0.000000000               0.000000000               0.000000000               0.001418888               0.005134073               0.000231323              -0.000109676               0.001747899               0.001638223               0.000000000               0.000000000               0.000000000               0.000000000               0.001589065               0.005089576               0.000133574              -0.000040298               0.001709941               0.001669643               0.000000000               0.000000000               0.000000000               0.000000000              -0.006865107              -0.000511966              -0.000232476              -0.002510418               0.000666146              -0.001844272               0.000000000               0.000000000               0.000000000               0.000000000              -0.004207276               0.000119136               0.000235503              -0.001592619               0.000570581              -0.001022038               0.000000000               0.000000000               0.000000000               0.000000000              -0.002206236               0.000757756               0.000662211              -0.000922057               0.000559933              -0.000362123               0.000000000               0.000000000               0.000000000               0.000000000              -0.001213627               0.001611032               0.000786179              -0.000656488               0.000755834               0.000099346               0.000000000               0.000000000               0.000000000               0.000000000              -0.000661017               0.002408752               0.000792679              -0.000548974               0.000985901               0.000436926               0.000000000               0.000000000               0.000000000               0.000000000              -0.000314024               0.003088346               0.000753635              -0.000503802               0.001197372               0.000693570               0.000000000               0.000000000               0.000000000               0.000000000              -0.000067287               0.003648700               0.000699780              -0.000481319               0.001376661               0.000895342               0.000000000               0.000000000               0.000000000               0.000000000               0.000134562               0.004120011               0.000646197              -0.000464540               0.001528170               0.001063630               0.000000000               0.000000000               0.000000000               0.000000000               0.000313464               0.004513149               0.000595616              -0.000446594               0.001653232               0.001206639               0.000000000               0.000000000               0.000000000               0.000000000               0.000474609               0.004803438               0.000546430              -0.000422451               0.001741947               0.001319496               0.000000000               0.000000000               0.000000000               0.000000000               0.000632229               0.005000354               0.000496568              -0.000387958               0.001796087               0.001408129               0.000000000               0.000000000               0.000000000               0.000000000               0.000805719               0.005127920               0.000443198              -0.000338845               0.001822238               0.001483393               0.000000000               0.000000000               0.000000000               0.000000000               0.001007552               0.005200120               0.000384782              -0.000272182               0.001824083               0.001551901               0.000000000               0.000000000               0.000000000               0.000000000               0.001245398               0.005219937               0.000322338              -0.000185468               0.001801784               0.001616317               0.000000000               0.000000000               0.000000000               0.000000000               0.001527884               0.005188979               0.000246048              -0.000075666               0.001754864               0.001679199               0.000000000               0.000000000               0.000000000               0.000000000               0.001866238               0.005109960               0.000139010               0.000061093               0.001682939               0.001744032               0.000000000               0.000000000               0.000000000               0.000000000               0.002143153               0.005090099               0.000082595               0.000167419               0.001640876               0.001808295               0.000000000               0.000000000               0.000000000               0.000000000               0.000000000               0.000000000               0.000000000               0.000000000               0.000000000               0.000000000               0.000000000               0.000000000               0.000000000               0.000000000               0.000000000               0.000000000               0.000000000               0.000000000               0.000000000               0.000000000               0.000000000               0.000000000               0.000000000               0.000000000               0.000000000               0.000000000               0.000000000               0.000000000               0.000000000               0.000000000               0.000000000               0.000000000               0.000000000               0.000000000               0.000000000               0.000000000               0.000000000               0.000000000               0.000000000               0.000000000               0.000000000               0.000000000               0.000000000               0.000000000               0.000000000               0.000000000               0.000000000               0.000000000               0.000000000               0.000000000               0.000000000               0.000000000               0.000000000               0.000000000               0.000000000               0.000000000               0.000000000               0.000000000               0.000000000               0.000000000               0.000000000               0.000000000               0.000000000               0.000000000               0.000000000               0.000000000               0.000000000               0.000000000               0.000000000               0.000000000               0.000000000               0.000000000               0.000000000               0.000000000               0.000000000               0.000000000               0.000000000               0.000000000               0.000000000               0.000000000               0.000000000               0.000000000               0.000000000               0.000000000               0.000000000               0.000000000               0.000000000               0.000000000               0.000000000               0.000000000               0.000000000               0.000000000               0.000000000               0.000000000               0.000000000               0.000000000               0.000000000               0.000000000               0.000000000               0.000000000               0.000000000               0.000000000               0.000000000               0.000000000               0.000000000               0.000000000               0.000000000               0.000000000               0.000000000               0.000000000               0.000000000               0.000000000               0.000000000               0.000000000               0.000000000               0.000000000               0.000000000               0.000000000               0.000000000               0.000000000               0.000000000               0.000000000               0.000000000               0.000000000               0.000000000               0.000000000               0.000000000               0.000000000               0.000000000               0.000000000               0.000000000               0.000000000               0.000000000               0.000000000               0.000000000               0.000000000               0.000000000               0.000000000               0.000000000               0.000000000               0.000000000               0.000000000               0.000000000               0.000000000               0.000000000               0.000000000               0.000000000               0.000000000               0.000000000               0.000000000               0.000000000               0.000000000               0.000000000               0.000000000               0.000000000               0.000000000               0.000000000               0.000000000               0.000000000               0.000000000               0.000000000               0.000000000               0.000000000               0.000000000               0.000000000               0.000000000               0.000000000               0.000000000               0.000000000               0.000000000               0.000000000               0.000000000               0.000000000               0.000000000 </DataArray>
</PointData>
</Piece>
</UnstructuredGrid> </VTKFile>
