<?xml version="1.0"?>
<VTKFile type="UnstructuredGrid" version="0.1">
<UnstructuredGrid>
<Piece NumberOfPoints="      1156" NumberOfCells="      1024">
<Points>
<DataArray type="Float64"                                    Name="coordinates"                                                      NumberOfComponents=" 3" format="ascii">
              0.133000000               0.000000000               0.000000000               0.155937500               0.000000000               0.000000000               0.178875000               0.000000000               0.000000000               0.201812500               0.000000000               0.000000000               0.224750000               0.000000000               0.000000000               0.247687500               0.000000000               0.000000000               0.270625000               0.000000000               0.000000000               0.293562500               0.000000000               0.000000000               0.316500000               0.000000000               0.000000000               0.339437500               0.000000000               0.000000000               0.362375000               0.000000000               0.000000000               0.385312500               0.000000000               0.000000000               0.408250000               0.000000000               0.000000000               0.431187500               0.000000000               0.000000000               0.454125000               0.000000000               0.000000000               0.477062500               0.000000000               0.000000000               0.500000000               0.000000000               0.000000000               0.132359569               0.013036280               0.000000000               0.155337096               0.016127762               0.000000000               0.178314623               0.019219245               0.000000000               0.201292150               0.022310727               0.000000000               0.224269676               0.025402210               0.000000000               0.247247203               0.028493692               0.000000000               0.270224730               0.031585175               0.000000000               0.293202257               0.034676657               0.000000000               0.316179784               0.037768140               0.000000000               0.339157311               0.040859622               0.000000000               0.362134838               0.043951105               0.000000000               0.385112365               0.047042587               0.000000000               0.408089892               0.050134070               0.000000000               0.431067419               0.053225552               0.000000000               0.454044946               0.056317035               0.000000000               0.477022473               0.059408517               0.000000000               0.500000000               0.062500000               0.000000000               0.130444442               0.025947013               0.000000000               0.153541665               0.032137825               0.000000000               0.176638887               0.038328636               0.000000000               0.199736109               0.044519448               0.000000000               0.222833332               0.050710260               0.000000000               0.245930554               0.056901071               0.000000000               0.269027776               0.063091883               0.000000000               0.292124999               0.069282695               0.000000000               0.315222221               0.075473506               0.000000000               0.338319444               0.081664318               0.000000000               0.361416666               0.087855130               0.000000000               0.384513888               0.094045942               0.000000000               0.407611111               0.100236753               0.000000000               0.430708333               0.106427565               0.000000000               0.453805555               0.112618377               0.000000000               0.476902778               0.118809188               0.000000000               0.500000000               0.125000000               0.000000000               0.127273065               0.038607862               0.000000000               0.150568498               0.047913621               0.000000000               0.173863932               0.057219379               0.000000000               0.197159365               0.066525138               0.000000000               0.220454798               0.075830897               0.000000000               0.243750232               0.085136655               0.000000000               0.267045665               0.094442414               0.000000000               0.290341099               0.103748172               0.000000000               0.313636532               0.113053931               0.000000000               0.336931966               0.122359690               0.000000000               0.360227399               0.131665448               0.000000000               0.383522833               0.140971207               0.000000000               0.406818266               0.150276966               0.000000000               0.430113700               0.159582724               0.000000000               0.453409133               0.168888483               0.000000000               0.476704567               0.178194241               0.000000000               0.500000000               0.187500000               0.000000000               0.122875978               0.050896897               0.000000000               0.146446229               0.063340840               0.000000000               0.170016481               0.075784784               0.000000000               0.193586732               0.088228728               0.000000000               0.217156983               0.100672672               0.000000000               0.240727235               0.113116616               0.000000000               0.264297486               0.125560560               0.000000000               0.287867738               0.138004504               0.000000000               0.311437989               0.150448448               0.000000000               0.335008240               0.162892392               0.000000000               0.358578492               0.175336336               0.000000000               0.382148743               0.187780280               0.000000000               0.405718994               0.200224224               0.000000000               0.429289246               0.212668168               0.000000000               0.452859497               0.225112112               0.000000000               0.476429749               0.237556056               0.000000000               0.500000000               0.250000000               0.000000000               0.117295528               0.062695766               0.000000000               0.141214558               0.078308531               0.000000000               0.165133587               0.093921295               0.000000000               0.189052617               0.109534060               0.000000000               0.212971646               0.125146824               0.000000000               0.236890676               0.140759589               0.000000000               0.260809705               0.156372354               0.000000000               0.284728735               0.171985118               0.000000000               0.308647764               0.187597883               0.000000000               0.332566794               0.203210648               0.000000000               0.356485823               0.218823412               0.000000000               0.380404853               0.234436177               0.000000000               0.404323882               0.250048941               0.000000000               0.428242912               0.265661706               0.000000000               0.452161941               0.281274471               0.000000000               0.476080971               0.296887235               0.000000000               0.500000000               0.312500000               0.000000000               0.110585458               0.073890841               0.000000000               0.134923867               0.092710163               0.000000000               0.159262276               0.111529486               0.000000000               0.183600685               0.130348808               0.000000000               0.207939094               0.149168131               0.000000000               0.232277503               0.167987453               0.000000000               0.256615912               0.186806776               0.000000000               0.280954320               0.205626098               0.000000000               0.305292729               0.224445420               0.000000000               0.329631138               0.243264743               0.000000000               0.353969547               0.262084065               0.000000000               0.378307956               0.280903388               0.000000000               0.402646365               0.299722710               0.000000000               0.426984773               0.318542033               0.000000000               0.451323182               0.337361355               0.000000000               0.475661591               0.356180678               0.000000000               0.500000000               0.375000000               0.000000000               0.102810390               0.084374307               0.000000000               0.127634741               0.106444663               0.000000000               0.152459092               0.128515018               0.000000000               0.177283442               0.150585374               0.000000000               0.202107793               0.172655730               0.000000000               0.226932143               0.194726086               0.000000000               0.251756494               0.216796442               0.000000000               0.276580845               0.238866798               0.000000000               0.301405195               0.260937153               0.000000000               0.326229546               0.283007509               0.000000000               0.351053896               0.305077865               0.000000000               0.375878247               0.327148221               0.000000000               0.400702598               0.349218577               0.000000000               0.425526948               0.371288933               0.000000000               0.450351299               0.393359288               0.000000000               0.475175649               0.415429644               0.000000000               0.500000000               0.437500000               0.000000000               0.094045202               0.094045202               0.000000000               0.119417377               0.119417377               0.000000000               0.144789552               0.144789552               0.000000000               0.170161727               0.170161727               0.000000000               0.195533901               0.195533901               0.000000000               0.220906076               0.220906076               0.000000000               0.246278251               0.246278251               0.000000000               0.271650426               0.271650426               0.000000000               0.297022601               0.297022601               0.000000000               0.322394776               0.322394776               0.000000000               0.347766951               0.347766951               0.000000000               0.373139126               0.373139126               0.000000000               0.398511300               0.398511300               0.000000000               0.423883475               0.423883475               0.000000000               0.449255650               0.449255650               0.000000000               0.474627825               0.474627825               0.000000000               0.500000000               0.500000000               0.000000000               0.084374307               0.102810390               0.000000000               0.106444663               0.127634741               0.000000000               0.128515018               0.152459092               0.000000000               0.150585374               0.177283442               0.000000000               0.172655730               0.202107793               0.000000000               0.194726086               0.226932143               0.000000000               0.216796442               0.251756494               0.000000000               0.238866798               0.276580845               0.000000000               0.260937153               0.301405195               0.000000000               0.283007509               0.326229546               0.000000000               0.305077865               0.351053896               0.000000000               0.327148221               0.375878247               0.000000000               0.349218577               0.400702598               0.000000000               0.371288933               0.425526948               0.000000000               0.393359288               0.450351299               0.000000000               0.415429644               0.475175649               0.000000000               0.437500000               0.500000000               0.000000000               0.073890841               0.110585458               0.000000000               0.092710163               0.134923867               0.000000000               0.111529486               0.159262276               0.000000000               0.130348808               0.183600685               0.000000000               0.149168131               0.207939094               0.000000000               0.167987453               0.232277503               0.000000000               0.186806776               0.256615912               0.000000000               0.205626098               0.280954320               0.000000000               0.224445420               0.305292729               0.000000000               0.243264743               0.329631138               0.000000000               0.262084065               0.353969547               0.000000000               0.280903388               0.378307956               0.000000000               0.299722710               0.402646365               0.000000000               0.318542033               0.426984773               0.000000000               0.337361355               0.451323182               0.000000000               0.356180678               0.475661591               0.000000000               0.375000000               0.500000000               0.000000000               0.062695766               0.117295528               0.000000000               0.078308531               0.141214558               0.000000000               0.093921295               0.165133587               0.000000000               0.109534060               0.189052617               0.000000000               0.125146824               0.212971646               0.000000000               0.140759589               0.236890676               0.000000000               0.156372354               0.260809705               0.000000000               0.171985118               0.284728735               0.000000000               0.187597883               0.308647764               0.000000000               0.203210648               0.332566794               0.000000000               0.218823412               0.356485823               0.000000000               0.234436177               0.380404853               0.000000000               0.250048941               0.404323882               0.000000000               0.265661706               0.428242912               0.000000000               0.281274471               0.452161941               0.000000000               0.296887235               0.476080971               0.000000000               0.312500000               0.500000000               0.000000000               0.050896897               0.122875978               0.000000000               0.063340840               0.146446229               0.000000000               0.075784784               0.170016481               0.000000000               0.088228728               0.193586732               0.000000000               0.100672672               0.217156983               0.000000000               0.113116616               0.240727235               0.000000000               0.125560560               0.264297486               0.000000000               0.138004504               0.287867738               0.000000000               0.150448448               0.311437989               0.000000000               0.162892392               0.335008240               0.000000000               0.175336336               0.358578492               0.000000000               0.187780280               0.382148743               0.000000000               0.200224224               0.405718994               0.000000000               0.212668168               0.429289246               0.000000000               0.225112112               0.452859497               0.000000000               0.237556056               0.476429749               0.000000000               0.250000000               0.500000000               0.000000000               0.038607862               0.127273065               0.000000000               0.047913621               0.150568498               0.000000000               0.057219379               0.173863932               0.000000000               0.066525138               0.197159365               0.000000000               0.075830897               0.220454798               0.000000000               0.085136655               0.243750232               0.000000000               0.094442414               0.267045665               0.000000000               0.103748172               0.290341099               0.000000000               0.113053931               0.313636532               0.000000000               0.122359690               0.336931966               0.000000000               0.131665448               0.360227399               0.000000000               0.140971207               0.383522833               0.000000000               0.150276966               0.406818266               0.000000000               0.159582724               0.430113700               0.000000000               0.168888483               0.453409133               0.000000000               0.178194241               0.476704567               0.000000000               0.187500000               0.500000000               0.000000000               0.025947013               0.130444442               0.000000000               0.032137825               0.153541665               0.000000000               0.038328636               0.176638887               0.000000000               0.044519448               0.199736109               0.000000000               0.050710260               0.222833332               0.000000000               0.056901071               0.245930554               0.000000000               0.063091883               0.269027776               0.000000000               0.069282695               0.292124999               0.000000000               0.075473506               0.315222221               0.000000000               0.081664318               0.338319444               0.000000000               0.087855130               0.361416666               0.000000000               0.094045942               0.384513888               0.000000000               0.100236753               0.407611111               0.000000000               0.106427565               0.430708333               0.000000000               0.112618377               0.453805555               0.000000000               0.118809188               0.476902778               0.000000000               0.125000000               0.500000000               0.000000000               0.013036280               0.132359569               0.000000000               0.016127762               0.155337096               0.000000000               0.019219245               0.178314623               0.000000000               0.022310727               0.201292150               0.000000000               0.025402210               0.224269676               0.000000000               0.028493692               0.247247203               0.000000000               0.031585175               0.270224730               0.000000000               0.034676657               0.293202257               0.000000000               0.037768140               0.316179784               0.000000000               0.040859622               0.339157311               0.000000000               0.043951105               0.362134838               0.000000000               0.047042587               0.385112365               0.000000000               0.050134070               0.408089892               0.000000000               0.053225552               0.431067419               0.000000000               0.056317035               0.454044946               0.000000000               0.059408517               0.477022473               0.000000000               0.062500000               0.500000000               0.000000000               0.000000000               0.133000000               0.000000000               0.000000000               0.155937500               0.000000000               0.000000000               0.178875000               0.000000000               0.000000000               0.201812500               0.000000000               0.000000000               0.224750000               0.000000000               0.000000000               0.247687500               0.000000000               0.000000000               0.270625000               0.000000000               0.000000000               0.293562500               0.000000000               0.000000000               0.316500000               0.000000000               0.000000000               0.339437500               0.000000000               0.000000000               0.362375000               0.000000000               0.000000000               0.385312500               0.000000000               0.000000000               0.408250000               0.000000000               0.000000000               0.431187500               0.000000000               0.000000000               0.454125000               0.000000000               0.000000000               0.477062500               0.000000000               0.000000000               0.500000000               0.000000000               0.133000000               0.000000000               0.000000000               0.155937500               0.000000000               0.000000000               0.178875000               0.000000000               0.000000000               0.201812500               0.000000000               0.000000000               0.224750000               0.000000000               0.000000000               0.247687500               0.000000000               0.000000000               0.270625000               0.000000000               0.000000000               0.293562500               0.000000000               0.000000000               0.316500000               0.000000000               0.000000000               0.339437500               0.000000000               0.000000000               0.362375000               0.000000000               0.000000000               0.385312500               0.000000000               0.000000000               0.408250000               0.000000000               0.000000000               0.431187500               0.000000000               0.000000000               0.454125000               0.000000000               0.000000000               0.477062500               0.000000000               0.000000000               0.500000000               0.000000000               0.000000000               0.132359569              -0.013036280               0.000000000               0.155337096              -0.016127762               0.000000000               0.178314623              -0.019219245               0.000000000               0.201292150              -0.022310727               0.000000000               0.224269676              -0.025402210               0.000000000               0.247247203              -0.028493692               0.000000000               0.270224730              -0.031585175               0.000000000               0.293202257              -0.034676657               0.000000000               0.316179784              -0.037768140               0.000000000               0.339157311              -0.040859622               0.000000000               0.362134838              -0.043951105               0.000000000               0.385112365              -0.047042587               0.000000000               0.408089892              -0.050134070               0.000000000               0.431067419              -0.053225552               0.000000000               0.454044946              -0.056317035               0.000000000               0.477022473              -0.059408517               0.000000000               0.500000000              -0.062500000               0.000000000               0.130444442              -0.025947013               0.000000000               0.153541665              -0.032137825               0.000000000               0.176638887              -0.038328636               0.000000000               0.199736109              -0.044519448               0.000000000               0.222833332              -0.050710260               0.000000000               0.245930554              -0.056901071               0.000000000               0.269027776              -0.063091883               0.000000000               0.292124999              -0.069282695               0.000000000               0.315222221              -0.075473506               0.000000000               0.338319444              -0.081664318               0.000000000               0.361416666              -0.087855130               0.000000000               0.384513888              -0.094045942               0.000000000               0.407611111              -0.100236753               0.000000000               0.430708333              -0.106427565               0.000000000               0.453805555              -0.112618377               0.000000000               0.476902778              -0.118809188               0.000000000               0.500000000              -0.125000000               0.000000000               0.127273065              -0.038607862               0.000000000               0.150568498              -0.047913621               0.000000000               0.173863932              -0.057219379               0.000000000               0.197159365              -0.066525138               0.000000000               0.220454798              -0.075830897               0.000000000               0.243750232              -0.085136655               0.000000000               0.267045665              -0.094442414               0.000000000               0.290341099              -0.103748172               0.000000000               0.313636532              -0.113053931               0.000000000               0.336931966              -0.122359690               0.000000000               0.360227399              -0.131665448               0.000000000               0.383522833              -0.140971207               0.000000000               0.406818266              -0.150276966               0.000000000               0.430113700              -0.159582724               0.000000000               0.453409133              -0.168888483               0.000000000               0.476704567              -0.178194241               0.000000000               0.500000000              -0.187500000               0.000000000               0.122875978              -0.050896897               0.000000000               0.146446229              -0.063340840               0.000000000               0.170016481              -0.075784784               0.000000000               0.193586732              -0.088228728               0.000000000               0.217156983              -0.100672672               0.000000000               0.240727235              -0.113116616               0.000000000               0.264297486              -0.125560560               0.000000000               0.287867738              -0.138004504               0.000000000               0.311437989              -0.150448448               0.000000000               0.335008240              -0.162892392               0.000000000               0.358578492              -0.175336336               0.000000000               0.382148743              -0.187780280               0.000000000               0.405718994              -0.200224224               0.000000000               0.429289246              -0.212668168               0.000000000               0.452859497              -0.225112112               0.000000000               0.476429749              -0.237556056               0.000000000               0.500000000              -0.250000000               0.000000000               0.117295528              -0.062695766               0.000000000               0.141214558              -0.078308531               0.000000000               0.165133587              -0.093921295               0.000000000               0.189052617              -0.109534060               0.000000000               0.212971646              -0.125146824               0.000000000               0.236890676              -0.140759589               0.000000000               0.260809705              -0.156372354               0.000000000               0.284728735              -0.171985118               0.000000000               0.308647764              -0.187597883               0.000000000               0.332566794              -0.203210648               0.000000000               0.356485823              -0.218823412               0.000000000               0.380404853              -0.234436177               0.000000000               0.404323882              -0.250048941               0.000000000               0.428242912              -0.265661706               0.000000000               0.452161941              -0.281274471               0.000000000               0.476080971              -0.296887235               0.000000000               0.500000000              -0.312500000               0.000000000               0.110585458              -0.073890841               0.000000000               0.134923867              -0.092710163               0.000000000               0.159262276              -0.111529486               0.000000000               0.183600685              -0.130348808               0.000000000               0.207939094              -0.149168131               0.000000000               0.232277503              -0.167987453               0.000000000               0.256615912              -0.186806776               0.000000000               0.280954320              -0.205626098               0.000000000               0.305292729              -0.224445420               0.000000000               0.329631138              -0.243264743               0.000000000               0.353969547              -0.262084065               0.000000000               0.378307956              -0.280903388               0.000000000               0.402646365              -0.299722710               0.000000000               0.426984773              -0.318542033               0.000000000               0.451323182              -0.337361355               0.000000000               0.475661591              -0.356180678               0.000000000               0.500000000              -0.375000000               0.000000000               0.102810390              -0.084374307               0.000000000               0.127634741              -0.106444663               0.000000000               0.152459092              -0.128515018               0.000000000               0.177283442              -0.150585374               0.000000000               0.202107793              -0.172655730               0.000000000               0.226932143              -0.194726086               0.000000000               0.251756494              -0.216796442               0.000000000               0.276580845              -0.238866798               0.000000000               0.301405195              -0.260937153               0.000000000               0.326229546              -0.283007509               0.000000000               0.351053896              -0.305077865               0.000000000               0.375878247              -0.327148221               0.000000000               0.400702598              -0.349218577               0.000000000               0.425526948              -0.371288933               0.000000000               0.450351299              -0.393359288               0.000000000               0.475175649              -0.415429644               0.000000000               0.500000000              -0.437500000               0.000000000               0.094045202              -0.094045202               0.000000000               0.119417377              -0.119417377               0.000000000               0.144789552              -0.144789552               0.000000000               0.170161727              -0.170161727               0.000000000               0.195533901              -0.195533901               0.000000000               0.220906076              -0.220906076               0.000000000               0.246278251              -0.246278251               0.000000000               0.271650426              -0.271650426               0.000000000               0.297022601              -0.297022601               0.000000000               0.322394776              -0.322394776               0.000000000               0.347766951              -0.347766951               0.000000000               0.373139126              -0.373139126               0.000000000               0.398511300              -0.398511300               0.000000000               0.423883475              -0.423883475               0.000000000               0.449255650              -0.449255650               0.000000000               0.474627825              -0.474627825               0.000000000               0.500000000              -0.500000000               0.000000000               0.084374307              -0.102810390               0.000000000               0.106444663              -0.127634741               0.000000000               0.128515018              -0.152459092               0.000000000               0.150585374              -0.177283442               0.000000000               0.172655730              -0.202107793               0.000000000               0.194726086              -0.226932143               0.000000000               0.216796442              -0.251756494               0.000000000               0.238866798              -0.276580845               0.000000000               0.260937153              -0.301405195               0.000000000               0.283007509              -0.326229546               0.000000000               0.305077865              -0.351053896               0.000000000               0.327148221              -0.375878247               0.000000000               0.349218577              -0.400702598               0.000000000               0.371288933              -0.425526948               0.000000000               0.393359288              -0.450351299               0.000000000               0.415429644              -0.475175649               0.000000000               0.437500000              -0.500000000               0.000000000               0.073890841              -0.110585458               0.000000000               0.092710163              -0.134923867               0.000000000               0.111529486              -0.159262276               0.000000000               0.130348808              -0.183600685               0.000000000               0.149168131              -0.207939094               0.000000000               0.167987453              -0.232277503               0.000000000               0.186806776              -0.256615912               0.000000000               0.205626098              -0.280954320               0.000000000               0.224445420              -0.305292729               0.000000000               0.243264743              -0.329631138               0.000000000               0.262084065              -0.353969547               0.000000000               0.280903388              -0.378307956               0.000000000               0.299722710              -0.402646365               0.000000000               0.318542033              -0.426984773               0.000000000               0.337361355              -0.451323182               0.000000000               0.356180678              -0.475661591               0.000000000               0.375000000              -0.500000000               0.000000000               0.062695766              -0.117295528               0.000000000               0.078308531              -0.141214558               0.000000000               0.093921295              -0.165133587               0.000000000               0.109534060              -0.189052617               0.000000000               0.125146824              -0.212971646               0.000000000               0.140759589              -0.236890676               0.000000000               0.156372354              -0.260809705               0.000000000               0.171985118              -0.284728735               0.000000000               0.187597883              -0.308647764               0.000000000               0.203210648              -0.332566794               0.000000000               0.218823412              -0.356485823               0.000000000               0.234436177              -0.380404853               0.000000000               0.250048941              -0.404323882               0.000000000               0.265661706              -0.428242912               0.000000000               0.281274471              -0.452161941               0.000000000               0.296887235              -0.476080971               0.000000000               0.312500000              -0.500000000               0.000000000               0.050896897              -0.122875978               0.000000000               0.063340840              -0.146446229               0.000000000               0.075784784              -0.170016481               0.000000000               0.088228728              -0.193586732               0.000000000               0.100672672              -0.217156983               0.000000000               0.113116616              -0.240727235               0.000000000               0.125560560              -0.264297486               0.000000000               0.138004504              -0.287867738               0.000000000               0.150448448              -0.311437989               0.000000000               0.162892392              -0.335008240               0.000000000               0.175336336              -0.358578492               0.000000000               0.187780280              -0.382148743               0.000000000               0.200224224              -0.405718994               0.000000000               0.212668168              -0.429289246               0.000000000               0.225112112              -0.452859497               0.000000000               0.237556056              -0.476429749               0.000000000               0.250000000              -0.500000000               0.000000000               0.038607862              -0.127273065               0.000000000               0.047913621              -0.150568498               0.000000000               0.057219379              -0.173863932               0.000000000               0.066525138              -0.197159365               0.000000000               0.075830897              -0.220454798               0.000000000               0.085136655              -0.243750232               0.000000000               0.094442414              -0.267045665               0.000000000               0.103748172              -0.290341099               0.000000000               0.113053931              -0.313636532               0.000000000               0.122359690              -0.336931966               0.000000000               0.131665448              -0.360227399               0.000000000               0.140971207              -0.383522833               0.000000000               0.150276966              -0.406818266               0.000000000               0.159582724              -0.430113700               0.000000000               0.168888483              -0.453409133               0.000000000               0.178194241              -0.476704567               0.000000000               0.187500000              -0.500000000               0.000000000               0.025947013              -0.130444442               0.000000000               0.032137825              -0.153541665               0.000000000               0.038328636              -0.176638887               0.000000000               0.044519448              -0.199736109               0.000000000               0.050710260              -0.222833332               0.000000000               0.056901071              -0.245930554               0.000000000               0.063091883              -0.269027776               0.000000000               0.069282695              -0.292124999               0.000000000               0.075473506              -0.315222221               0.000000000               0.081664318              -0.338319444               0.000000000               0.087855130              -0.361416666               0.000000000               0.094045942              -0.384513888               0.000000000               0.100236753              -0.407611111               0.000000000               0.106427565              -0.430708333               0.000000000               0.112618377              -0.453805555               0.000000000               0.118809188              -0.476902778               0.000000000               0.125000000              -0.500000000               0.000000000               0.013036280              -0.132359569               0.000000000               0.016127762              -0.155337096               0.000000000               0.019219245              -0.178314623               0.000000000               0.022310727              -0.201292150               0.000000000               0.025402210              -0.224269676               0.000000000               0.028493692              -0.247247203               0.000000000               0.031585175              -0.270224730               0.000000000               0.034676657              -0.293202257               0.000000000               0.037768140              -0.316179784               0.000000000               0.040859622              -0.339157311               0.000000000               0.043951105              -0.362134838               0.000000000               0.047042587              -0.385112365               0.000000000               0.050134070              -0.408089892               0.000000000               0.053225552              -0.431067419               0.000000000               0.056317035              -0.454044946               0.000000000               0.059408517              -0.477022473               0.000000000               0.062500000              -0.500000000               0.000000000               0.000000000              -0.133000000               0.000000000               0.000000000              -0.155937500               0.000000000               0.000000000              -0.178875000               0.000000000               0.000000000              -0.201812500               0.000000000               0.000000000              -0.224750000               0.000000000               0.000000000              -0.247687500               0.000000000               0.000000000              -0.270625000               0.000000000               0.000000000              -0.293562500               0.000000000               0.000000000              -0.316500000               0.000000000               0.000000000              -0.339437500               0.000000000               0.000000000              -0.362375000               0.000000000               0.000000000              -0.385312500               0.000000000               0.000000000              -0.408250000               0.000000000               0.000000000              -0.431187500               0.000000000               0.000000000              -0.454125000               0.000000000               0.000000000              -0.477062500               0.000000000               0.000000000              -0.500000000               0.000000000              -0.133000000               0.000000000               0.000000000              -0.155937500               0.000000000               0.000000000              -0.178875000               0.000000000               0.000000000              -0.201812500               0.000000000               0.000000000              -0.224750000               0.000000000               0.000000000              -0.247687500               0.000000000               0.000000000              -0.270625000               0.000000000               0.000000000              -0.293562500               0.000000000               0.000000000              -0.316500000               0.000000000               0.000000000              -0.339437500               0.000000000               0.000000000              -0.362375000               0.000000000               0.000000000              -0.385312500               0.000000000               0.000000000              -0.408250000               0.000000000               0.000000000              -0.431187500               0.000000000               0.000000000              -0.454125000               0.000000000               0.000000000              -0.477062500               0.000000000               0.000000000              -0.500000000               0.000000000               0.000000000              -0.132359569              -0.013036280               0.000000000              -0.155337096              -0.016127762               0.000000000              -0.178314623              -0.019219245               0.000000000              -0.201292150              -0.022310727               0.000000000              -0.224269676              -0.025402210               0.000000000              -0.247247203              -0.028493692               0.000000000              -0.270224730              -0.031585175               0.000000000              -0.293202257              -0.034676657               0.000000000              -0.316179784              -0.037768140               0.000000000              -0.339157311              -0.040859622               0.000000000              -0.362134838              -0.043951105               0.000000000              -0.385112365              -0.047042587               0.000000000              -0.408089892              -0.050134070               0.000000000              -0.431067419              -0.053225552               0.000000000              -0.454044946              -0.056317035               0.000000000              -0.477022473              -0.059408517               0.000000000              -0.500000000              -0.062500000               0.000000000              -0.130444442              -0.025947013               0.000000000              -0.153541665              -0.032137825               0.000000000              -0.176638887              -0.038328636               0.000000000              -0.199736109              -0.044519448               0.000000000              -0.222833332              -0.050710260               0.000000000              -0.245930554              -0.056901071               0.000000000              -0.269027776              -0.063091883               0.000000000              -0.292124999              -0.069282695               0.000000000              -0.315222221              -0.075473506               0.000000000              -0.338319444              -0.081664318               0.000000000              -0.361416666              -0.087855130               0.000000000              -0.384513888              -0.094045942               0.000000000              -0.407611111              -0.100236753               0.000000000              -0.430708333              -0.106427565               0.000000000              -0.453805555              -0.112618377               0.000000000              -0.476902778              -0.118809188               0.000000000              -0.500000000              -0.125000000               0.000000000              -0.127273065              -0.038607862               0.000000000              -0.150568498              -0.047913621               0.000000000              -0.173863932              -0.057219379               0.000000000              -0.197159365              -0.066525138               0.000000000              -0.220454798              -0.075830897               0.000000000              -0.243750232              -0.085136655               0.000000000              -0.267045665              -0.094442414               0.000000000              -0.290341099              -0.103748172               0.000000000              -0.313636532              -0.113053931               0.000000000              -0.336931966              -0.122359690               0.000000000              -0.360227399              -0.131665448               0.000000000              -0.383522833              -0.140971207               0.000000000              -0.406818266              -0.150276966               0.000000000              -0.430113700              -0.159582724               0.000000000              -0.453409133              -0.168888483               0.000000000              -0.476704567              -0.178194241               0.000000000              -0.500000000              -0.187500000               0.000000000              -0.122875978              -0.050896897               0.000000000              -0.146446229              -0.063340840               0.000000000              -0.170016481              -0.075784784               0.000000000              -0.193586732              -0.088228728               0.000000000              -0.217156983              -0.100672672               0.000000000              -0.240727235              -0.113116616               0.000000000              -0.264297486              -0.125560560               0.000000000              -0.287867738              -0.138004504               0.000000000              -0.311437989              -0.150448448               0.000000000              -0.335008240              -0.162892392               0.000000000              -0.358578492              -0.175336336               0.000000000              -0.382148743              -0.187780280               0.000000000              -0.405718994              -0.200224224               0.000000000              -0.429289246              -0.212668168               0.000000000              -0.452859497              -0.225112112               0.000000000              -0.476429749              -0.237556056               0.000000000              -0.500000000              -0.250000000               0.000000000              -0.117295528              -0.062695766               0.000000000              -0.141214558              -0.078308531               0.000000000              -0.165133587              -0.093921295               0.000000000              -0.189052617              -0.109534060               0.000000000              -0.212971646              -0.125146824               0.000000000              -0.236890676              -0.140759589               0.000000000              -0.260809705              -0.156372354               0.000000000              -0.284728735              -0.171985118               0.000000000              -0.308647764              -0.187597883               0.000000000              -0.332566794              -0.203210648               0.000000000              -0.356485823              -0.218823412               0.000000000              -0.380404853              -0.234436177               0.000000000              -0.404323882              -0.250048941               0.000000000              -0.428242912              -0.265661706               0.000000000              -0.452161941              -0.281274471               0.000000000              -0.476080971              -0.296887235               0.000000000              -0.500000000              -0.312500000               0.000000000              -0.110585458              -0.073890841               0.000000000              -0.134923867              -0.092710163               0.000000000              -0.159262276              -0.111529486               0.000000000              -0.183600685              -0.130348808               0.000000000              -0.207939094              -0.149168131               0.000000000              -0.232277503              -0.167987453               0.000000000              -0.256615912              -0.186806776               0.000000000              -0.280954320              -0.205626098               0.000000000              -0.305292729              -0.224445420               0.000000000              -0.329631138              -0.243264743               0.000000000              -0.353969547              -0.262084065               0.000000000              -0.378307956              -0.280903388               0.000000000              -0.402646365              -0.299722710               0.000000000              -0.426984773              -0.318542033               0.000000000              -0.451323182              -0.337361355               0.000000000              -0.475661591              -0.356180678               0.000000000              -0.500000000              -0.375000000               0.000000000              -0.102810390              -0.084374307               0.000000000              -0.127634741              -0.106444663               0.000000000              -0.152459092              -0.128515018               0.000000000              -0.177283442              -0.150585374               0.000000000              -0.202107793              -0.172655730               0.000000000              -0.226932143              -0.194726086               0.000000000              -0.251756494              -0.216796442               0.000000000              -0.276580845              -0.238866798               0.000000000              -0.301405195              -0.260937153               0.000000000              -0.326229546              -0.283007509               0.000000000              -0.351053896              -0.305077865               0.000000000              -0.375878247              -0.327148221               0.000000000              -0.400702598              -0.349218577               0.000000000              -0.425526948              -0.371288933               0.000000000              -0.450351299              -0.393359288               0.000000000              -0.475175649              -0.415429644               0.000000000              -0.500000000              -0.437500000               0.000000000              -0.094045202              -0.094045202               0.000000000              -0.119417377              -0.119417377               0.000000000              -0.144789552              -0.144789552               0.000000000              -0.170161727              -0.170161727               0.000000000              -0.195533901              -0.195533901               0.000000000              -0.220906076              -0.220906076               0.000000000              -0.246278251              -0.246278251               0.000000000              -0.271650426              -0.271650426               0.000000000              -0.297022601              -0.297022601               0.000000000              -0.322394776              -0.322394776               0.000000000              -0.347766951              -0.347766951               0.000000000              -0.373139126              -0.373139126               0.000000000              -0.398511300              -0.398511300               0.000000000              -0.423883475              -0.423883475               0.000000000              -0.449255650              -0.449255650               0.000000000              -0.474627825              -0.474627825               0.000000000              -0.500000000              -0.500000000               0.000000000              -0.084374307              -0.102810390               0.000000000              -0.106444663              -0.127634741               0.000000000              -0.128515018              -0.152459092               0.000000000              -0.150585374              -0.177283442               0.000000000              -0.172655730              -0.202107793               0.000000000              -0.194726086              -0.226932143               0.000000000              -0.216796442              -0.251756494               0.000000000              -0.238866798              -0.276580845               0.000000000              -0.260937153              -0.301405195               0.000000000              -0.283007509              -0.326229546               0.000000000              -0.305077865              -0.351053896               0.000000000              -0.327148221              -0.375878247               0.000000000              -0.349218577              -0.400702598               0.000000000              -0.371288933              -0.425526948               0.000000000              -0.393359288              -0.450351299               0.000000000              -0.415429644              -0.475175649               0.000000000              -0.437500000              -0.500000000               0.000000000              -0.073890841              -0.110585458               0.000000000              -0.092710163              -0.134923867               0.000000000              -0.111529486              -0.159262276               0.000000000              -0.130348808              -0.183600685               0.000000000              -0.149168131              -0.207939094               0.000000000              -0.167987453              -0.232277503               0.000000000              -0.186806776              -0.256615912               0.000000000              -0.205626098              -0.280954320               0.000000000              -0.224445420              -0.305292729               0.000000000              -0.243264743              -0.329631138               0.000000000              -0.262084065              -0.353969547               0.000000000              -0.280903388              -0.378307956               0.000000000              -0.299722710              -0.402646365               0.000000000              -0.318542033              -0.426984773               0.000000000              -0.337361355              -0.451323182               0.000000000              -0.356180678              -0.475661591               0.000000000              -0.375000000              -0.500000000               0.000000000              -0.062695766              -0.117295528               0.000000000              -0.078308531              -0.141214558               0.000000000              -0.093921295              -0.165133587               0.000000000              -0.109534060              -0.189052617               0.000000000              -0.125146824              -0.212971646               0.000000000              -0.140759589              -0.236890676               0.000000000              -0.156372354              -0.260809705               0.000000000              -0.171985118              -0.284728735               0.000000000              -0.187597883              -0.308647764               0.000000000              -0.203210648              -0.332566794               0.000000000              -0.218823412              -0.356485823               0.000000000              -0.234436177              -0.380404853               0.000000000              -0.250048941              -0.404323882               0.000000000              -0.265661706              -0.428242912               0.000000000              -0.281274471              -0.452161941               0.000000000              -0.296887235              -0.476080971               0.000000000              -0.312500000              -0.500000000               0.000000000              -0.050896897              -0.122875978               0.000000000              -0.063340840              -0.146446229               0.000000000              -0.075784784              -0.170016481               0.000000000              -0.088228728              -0.193586732               0.000000000              -0.100672672              -0.217156983               0.000000000              -0.113116616              -0.240727235               0.000000000              -0.125560560              -0.264297486               0.000000000              -0.138004504              -0.287867738               0.000000000              -0.150448448              -0.311437989               0.000000000              -0.162892392              -0.335008240               0.000000000              -0.175336336              -0.358578492               0.000000000              -0.187780280              -0.382148743               0.000000000              -0.200224224              -0.405718994               0.000000000              -0.212668168              -0.429289246               0.000000000              -0.225112112              -0.452859497               0.000000000              -0.237556056              -0.476429749               0.000000000              -0.250000000              -0.500000000               0.000000000              -0.038607862              -0.127273065               0.000000000              -0.047913621              -0.150568498               0.000000000              -0.057219379              -0.173863932               0.000000000              -0.066525138              -0.197159365               0.000000000              -0.075830897              -0.220454798               0.000000000              -0.085136655              -0.243750232               0.000000000              -0.094442414              -0.267045665               0.000000000              -0.103748172              -0.290341099               0.000000000              -0.113053931              -0.313636532               0.000000000              -0.122359690              -0.336931966               0.000000000              -0.131665448              -0.360227399               0.000000000              -0.140971207              -0.383522833               0.000000000              -0.150276966              -0.406818266               0.000000000              -0.159582724              -0.430113700               0.000000000              -0.168888483              -0.453409133               0.000000000              -0.178194241              -0.476704567               0.000000000              -0.187500000              -0.500000000               0.000000000              -0.025947013              -0.130444442               0.000000000              -0.032137825              -0.153541665               0.000000000              -0.038328636              -0.176638887               0.000000000              -0.044519448              -0.199736109               0.000000000              -0.050710260              -0.222833332               0.000000000              -0.056901071              -0.245930554               0.000000000              -0.063091883              -0.269027776               0.000000000              -0.069282695              -0.292124999               0.000000000              -0.075473506              -0.315222221               0.000000000              -0.081664318              -0.338319444               0.000000000              -0.087855130              -0.361416666               0.000000000              -0.094045942              -0.384513888               0.000000000              -0.100236753              -0.407611111               0.000000000              -0.106427565              -0.430708333               0.000000000              -0.112618377              -0.453805555               0.000000000              -0.118809188              -0.476902778               0.000000000              -0.125000000              -0.500000000               0.000000000              -0.013036280              -0.132359569               0.000000000              -0.016127762              -0.155337096               0.000000000              -0.019219245              -0.178314623               0.000000000              -0.022310727              -0.201292150               0.000000000              -0.025402210              -0.224269676               0.000000000              -0.028493692              -0.247247203               0.000000000              -0.031585175              -0.270224730               0.000000000              -0.034676657              -0.293202257               0.000000000              -0.037768140              -0.316179784               0.000000000              -0.040859622              -0.339157311               0.000000000              -0.043951105              -0.362134838               0.000000000              -0.047042587              -0.385112365               0.000000000              -0.050134070              -0.408089892               0.000000000              -0.053225552              -0.431067419               0.000000000              -0.056317035              -0.454044946               0.000000000              -0.059408517              -0.477022473               0.000000000              -0.062500000              -0.500000000               0.000000000               0.000000000              -0.133000000               0.000000000               0.000000000              -0.155937500               0.000000000               0.000000000              -0.178875000               0.000000000               0.000000000              -0.201812500               0.000000000               0.000000000              -0.224750000               0.000000000               0.000000000              -0.247687500               0.000000000               0.000000000              -0.270625000               0.000000000               0.000000000              -0.293562500               0.000000000               0.000000000              -0.316500000               0.000000000               0.000000000              -0.339437500               0.000000000               0.000000000              -0.362375000               0.000000000               0.000000000              -0.385312500               0.000000000               0.000000000              -0.408250000               0.000000000               0.000000000              -0.431187500               0.000000000               0.000000000              -0.454125000               0.000000000               0.000000000              -0.477062500               0.000000000               0.000000000              -0.500000000               0.000000000              -0.133000000               0.000000000               0.000000000              -0.155937500               0.000000000               0.000000000              -0.178875000               0.000000000               0.000000000              -0.201812500               0.000000000               0.000000000              -0.224750000               0.000000000               0.000000000              -0.247687500               0.000000000               0.000000000              -0.270625000               0.000000000               0.000000000              -0.293562500               0.000000000               0.000000000              -0.316500000               0.000000000               0.000000000              -0.339437500               0.000000000               0.000000000              -0.362375000               0.000000000               0.000000000              -0.385312500               0.000000000               0.000000000              -0.408250000               0.000000000               0.000000000              -0.431187500               0.000000000               0.000000000              -0.454125000               0.000000000               0.000000000              -0.477062500               0.000000000               0.000000000              -0.500000000               0.000000000               0.000000000              -0.132359569               0.013036280               0.000000000              -0.155337096               0.016127762               0.000000000              -0.178314623               0.019219245               0.000000000              -0.201292150               0.022310727               0.000000000              -0.224269676               0.025402210               0.000000000              -0.247247203               0.028493692               0.000000000              -0.270224730               0.031585175               0.000000000              -0.293202257               0.034676657               0.000000000              -0.316179784               0.037768140               0.000000000              -0.339157311               0.040859622               0.000000000              -0.362134838               0.043951105               0.000000000              -0.385112365               0.047042587               0.000000000              -0.408089892               0.050134070               0.000000000              -0.431067419               0.053225552               0.000000000              -0.454044946               0.056317035               0.000000000              -0.477022473               0.059408517               0.000000000              -0.500000000               0.062500000               0.000000000              -0.130444442               0.025947013               0.000000000              -0.153541665               0.032137825               0.000000000              -0.176638887               0.038328636               0.000000000              -0.199736109               0.044519448               0.000000000              -0.222833332               0.050710260               0.000000000              -0.245930554               0.056901071               0.000000000              -0.269027776               0.063091883               0.000000000              -0.292124999               0.069282695               0.000000000              -0.315222221               0.075473506               0.000000000              -0.338319444               0.081664318               0.000000000              -0.361416666               0.087855130               0.000000000              -0.384513888               0.094045942               0.000000000              -0.407611111               0.100236753               0.000000000              -0.430708333               0.106427565               0.000000000              -0.453805555               0.112618377               0.000000000              -0.476902778               0.118809188               0.000000000              -0.500000000               0.125000000               0.000000000              -0.127273065               0.038607862               0.000000000              -0.150568498               0.047913621               0.000000000              -0.173863932               0.057219379               0.000000000              -0.197159365               0.066525138               0.000000000              -0.220454798               0.075830897               0.000000000              -0.243750232               0.085136655               0.000000000              -0.267045665               0.094442414               0.000000000              -0.290341099               0.103748172               0.000000000              -0.313636532               0.113053931               0.000000000              -0.336931966               0.122359690               0.000000000              -0.360227399               0.131665448               0.000000000              -0.383522833               0.140971207               0.000000000              -0.406818266               0.150276966               0.000000000              -0.430113700               0.159582724               0.000000000              -0.453409133               0.168888483               0.000000000              -0.476704567               0.178194241               0.000000000              -0.500000000               0.187500000               0.000000000              -0.122875978               0.050896897               0.000000000              -0.146446229               0.063340840               0.000000000              -0.170016481               0.075784784               0.000000000              -0.193586732               0.088228728               0.000000000              -0.217156983               0.100672672               0.000000000              -0.240727235               0.113116616               0.000000000              -0.264297486               0.125560560               0.000000000              -0.287867738               0.138004504               0.000000000              -0.311437989               0.150448448               0.000000000              -0.335008240               0.162892392               0.000000000              -0.358578492               0.175336336               0.000000000              -0.382148743               0.187780280               0.000000000              -0.405718994               0.200224224               0.000000000              -0.429289246               0.212668168               0.000000000              -0.452859497               0.225112112               0.000000000              -0.476429749               0.237556056               0.000000000              -0.500000000               0.250000000               0.000000000              -0.117295528               0.062695766               0.000000000              -0.141214558               0.078308531               0.000000000              -0.165133587               0.093921295               0.000000000              -0.189052617               0.109534060               0.000000000              -0.212971646               0.125146824               0.000000000              -0.236890676               0.140759589               0.000000000              -0.260809705               0.156372354               0.000000000              -0.284728735               0.171985118               0.000000000              -0.308647764               0.187597883               0.000000000              -0.332566794               0.203210648               0.000000000              -0.356485823               0.218823412               0.000000000              -0.380404853               0.234436177               0.000000000              -0.404323882               0.250048941               0.000000000              -0.428242912               0.265661706               0.000000000              -0.452161941               0.281274471               0.000000000              -0.476080971               0.296887235               0.000000000              -0.500000000               0.312500000               0.000000000              -0.110585458               0.073890841               0.000000000              -0.134923867               0.092710163               0.000000000              -0.159262276               0.111529486               0.000000000              -0.183600685               0.130348808               0.000000000              -0.207939094               0.149168131               0.000000000              -0.232277503               0.167987453               0.000000000              -0.256615912               0.186806776               0.000000000              -0.280954320               0.205626098               0.000000000              -0.305292729               0.224445420               0.000000000              -0.329631138               0.243264743               0.000000000              -0.353969547               0.262084065               0.000000000              -0.378307956               0.280903388               0.000000000              -0.402646365               0.299722710               0.000000000              -0.426984773               0.318542033               0.000000000              -0.451323182               0.337361355               0.000000000              -0.475661591               0.356180678               0.000000000              -0.500000000               0.375000000               0.000000000              -0.102810390               0.084374307               0.000000000              -0.127634741               0.106444663               0.000000000              -0.152459092               0.128515018               0.000000000              -0.177283442               0.150585374               0.000000000              -0.202107793               0.172655730               0.000000000              -0.226932143               0.194726086               0.000000000              -0.251756494               0.216796442               0.000000000              -0.276580845               0.238866798               0.000000000              -0.301405195               0.260937153               0.000000000              -0.326229546               0.283007509               0.000000000              -0.351053896               0.305077865               0.000000000              -0.375878247               0.327148221               0.000000000              -0.400702598               0.349218577               0.000000000              -0.425526948               0.371288933               0.000000000              -0.450351299               0.393359288               0.000000000              -0.475175649               0.415429644               0.000000000              -0.500000000               0.437500000               0.000000000              -0.094045202               0.094045202               0.000000000              -0.119417377               0.119417377               0.000000000              -0.144789552               0.144789552               0.000000000              -0.170161727               0.170161727               0.000000000              -0.195533901               0.195533901               0.000000000              -0.220906076               0.220906076               0.000000000              -0.246278251               0.246278251               0.000000000              -0.271650426               0.271650426               0.000000000              -0.297022601               0.297022601               0.000000000              -0.322394776               0.322394776               0.000000000              -0.347766951               0.347766951               0.000000000              -0.373139126               0.373139126               0.000000000              -0.398511300               0.398511300               0.000000000              -0.423883475               0.423883475               0.000000000              -0.449255650               0.449255650               0.000000000              -0.474627825               0.474627825               0.000000000              -0.500000000               0.500000000               0.000000000              -0.084374307               0.102810390               0.000000000              -0.106444663               0.127634741               0.000000000              -0.128515018               0.152459092               0.000000000              -0.150585374               0.177283442               0.000000000              -0.172655730               0.202107793               0.000000000              -0.194726086               0.226932143               0.000000000              -0.216796442               0.251756494               0.000000000              -0.238866798               0.276580845               0.000000000              -0.260937153               0.301405195               0.000000000              -0.283007509               0.326229546               0.000000000              -0.305077865               0.351053896               0.000000000              -0.327148221               0.375878247               0.000000000              -0.349218577               0.400702598               0.000000000              -0.371288933               0.425526948               0.000000000              -0.393359288               0.450351299               0.000000000              -0.415429644               0.475175649               0.000000000              -0.437500000               0.500000000               0.000000000              -0.073890841               0.110585458               0.000000000              -0.092710163               0.134923867               0.000000000              -0.111529486               0.159262276               0.000000000              -0.130348808               0.183600685               0.000000000              -0.149168131               0.207939094               0.000000000              -0.167987453               0.232277503               0.000000000              -0.186806776               0.256615912               0.000000000              -0.205626098               0.280954320               0.000000000              -0.224445420               0.305292729               0.000000000              -0.243264743               0.329631138               0.000000000              -0.262084065               0.353969547               0.000000000              -0.280903388               0.378307956               0.000000000              -0.299722710               0.402646365               0.000000000              -0.318542033               0.426984773               0.000000000              -0.337361355               0.451323182               0.000000000              -0.356180678               0.475661591               0.000000000              -0.375000000               0.500000000               0.000000000              -0.062695766               0.117295528               0.000000000              -0.078308531               0.141214558               0.000000000              -0.093921295               0.165133587               0.000000000              -0.109534060               0.189052617               0.000000000              -0.125146824               0.212971646               0.000000000              -0.140759589               0.236890676               0.000000000              -0.156372354               0.260809705               0.000000000              -0.171985118               0.284728735               0.000000000              -0.187597883               0.308647764               0.000000000              -0.203210648               0.332566794               0.000000000              -0.218823412               0.356485823               0.000000000              -0.234436177               0.380404853               0.000000000              -0.250048941               0.404323882               0.000000000              -0.265661706               0.428242912               0.000000000              -0.281274471               0.452161941               0.000000000              -0.296887235               0.476080971               0.000000000              -0.312500000               0.500000000               0.000000000              -0.050896897               0.122875978               0.000000000              -0.063340840               0.146446229               0.000000000              -0.075784784               0.170016481               0.000000000              -0.088228728               0.193586732               0.000000000              -0.100672672               0.217156983               0.000000000              -0.113116616               0.240727235               0.000000000              -0.125560560               0.264297486               0.000000000              -0.138004504               0.287867738               0.000000000              -0.150448448               0.311437989               0.000000000              -0.162892392               0.335008240               0.000000000              -0.175336336               0.358578492               0.000000000              -0.187780280               0.382148743               0.000000000              -0.200224224               0.405718994               0.000000000              -0.212668168               0.429289246               0.000000000              -0.225112112               0.452859497               0.000000000              -0.237556056               0.476429749               0.000000000              -0.250000000               0.500000000               0.000000000              -0.038607862               0.127273065               0.000000000              -0.047913621               0.150568498               0.000000000              -0.057219379               0.173863932               0.000000000              -0.066525138               0.197159365               0.000000000              -0.075830897               0.220454798               0.000000000              -0.085136655               0.243750232               0.000000000              -0.094442414               0.267045665               0.000000000              -0.103748172               0.290341099               0.000000000              -0.113053931               0.313636532               0.000000000              -0.122359690               0.336931966               0.000000000              -0.131665448               0.360227399               0.000000000              -0.140971207               0.383522833               0.000000000              -0.150276966               0.406818266               0.000000000              -0.159582724               0.430113700               0.000000000              -0.168888483               0.453409133               0.000000000              -0.178194241               0.476704567               0.000000000              -0.187500000               0.500000000               0.000000000              -0.025947013               0.130444442               0.000000000              -0.032137825               0.153541665               0.000000000              -0.038328636               0.176638887               0.000000000              -0.044519448               0.199736109               0.000000000              -0.050710260               0.222833332               0.000000000              -0.056901071               0.245930554               0.000000000              -0.063091883               0.269027776               0.000000000              -0.069282695               0.292124999               0.000000000              -0.075473506               0.315222221               0.000000000              -0.081664318               0.338319444               0.000000000              -0.087855130               0.361416666               0.000000000              -0.094045942               0.384513888               0.000000000              -0.100236753               0.407611111               0.000000000              -0.106427565               0.430708333               0.000000000              -0.112618377               0.453805555               0.000000000              -0.118809188               0.476902778               0.000000000              -0.125000000               0.500000000               0.000000000              -0.013036280               0.132359569               0.000000000              -0.016127762               0.155337096               0.000000000              -0.019219245               0.178314623               0.000000000              -0.022310727               0.201292150               0.000000000              -0.025402210               0.224269676               0.000000000              -0.028493692               0.247247203               0.000000000              -0.031585175               0.270224730               0.000000000              -0.034676657               0.293202257               0.000000000              -0.037768140               0.316179784               0.000000000              -0.040859622               0.339157311               0.000000000              -0.043951105               0.362134838               0.000000000              -0.047042587               0.385112365               0.000000000              -0.050134070               0.408089892               0.000000000              -0.053225552               0.431067419               0.000000000              -0.056317035               0.454044946               0.000000000              -0.059408517               0.477022473               0.000000000              -0.062500000               0.500000000               0.000000000               0.000000000               0.133000000               0.000000000               0.000000000               0.155937500               0.000000000               0.000000000               0.178875000               0.000000000               0.000000000               0.201812500               0.000000000               0.000000000               0.224750000               0.000000000               0.000000000               0.247687500               0.000000000               0.000000000               0.270625000               0.000000000               0.000000000               0.293562500               0.000000000               0.000000000               0.316500000               0.000000000               0.000000000               0.339437500               0.000000000               0.000000000               0.362375000               0.000000000               0.000000000               0.385312500               0.000000000               0.000000000               0.408250000               0.000000000               0.000000000               0.431187500               0.000000000               0.000000000               0.454125000               0.000000000               0.000000000               0.477062500               0.000000000               0.000000000               0.500000000               0.000000000 </DataArray>
</Points>
<Cells>
<DataArray type="Int32"                                    Name="connectivity"                                                      NumberOfComponents=" 1" format="ascii">
         0          1         18         17          1          2         19         18          2          3         20         19          3          4         21         20          4          5         22         21          5          6         23         22          6          7         24         23          7          8         25         24          8          9         26         25          9         10         27         26         10         11         28         27         11         12         29         28         12         13         30         29         13         14         31         30         14         15         32         31         15         16         33         32         17         18         35         34         18         19         36         35         19         20         37         36         20         21         38         37         21         22         39         38         22         23         40         39         23         24         41         40         24         25         42         41         25         26         43         42         26         27         44         43         27         28         45         44         28         29         46         45         29         30         47         46         30         31         48         47         31         32         49         48         32         33         50         49         34         35         52         51         35         36         53         52         36         37         54         53         37         38         55         54         38         39         56         55         39         40         57         56         40         41         58         57         41         42         59         58         42         43         60         59         43         44         61         60         44         45         62         61         45         46         63         62         46         47         64         63         47         48         65         64         48         49         66         65         49         50         67         66         51         52         69         68         52         53         70         69         53         54         71         70         54         55         72         71         55         56         73         72         56         57         74         73         57         58         75         74         58         59         76         75         59         60         77         76         60         61         78         77         61         62         79         78         62         63         80         79         63         64         81         80         64         65         82         81         65         66         83         82         66         67         84         83         68         69         86         85         69         70         87         86         70         71         88         87         71         72         89         88         72         73         90         89         73         74         91         90         74         75         92         91         75         76         93         92         76         77         94         93         77         78         95         94         78         79         96         95         79         80         97         96         80         81         98         97         81         82         99         98         82         83        100         99         83         84        101        100         85         86        103        102         86         87        104        103         87         88        105        104         88         89        106        105         89         90        107        106         90         91        108        107         91         92        109        108         92         93        110        109         93         94        111        110         94         95        112        111         95         96        113        112         96         97        114        113         97         98        115        114         98         99        116        115         99        100        117        116        100        101        118        117        102        103        120        119        103        104        121        120        104        105        122        121        105        106        123        122        106        107        124        123        107        108        125        124        108        109        126        125        109        110        127        126        110        111        128        127        111        112        129        128        112        113        130        129        113        114        131        130        114        115        132        131        115        116        133        132        116        117        134        133        117        118        135        134        119        120        137        136        120        121        138        137        121        122        139        138        122        123        140        139        123        124        141        140        124        125        142        141        125        126        143        142        126        127        144        143        127        128        145        144        128        129        146        145        129        130        147        146        130        131        148        147        131        132        149        148        132        133        150        149        133        134        151        150        134        135        152        151        136        137        154        153        137        138        155        154        138        139        156        155        139        140        157        156        140        141        158        157        141        142        159        158        142        143        160        159        143        144        161        160        144        145        162        161        145        146        163        162        146        147        164        163        147        148        165        164        148        149        166        165        149        150        167        166        150        151        168        167        151        152        169        168        153        154        171        170        154        155        172        171        155        156        173        172        156        157        174        173        157        158        175        174        158        159        176        175        159        160        177        176        160        161        178        177        161        162        179        178        162        163        180        179        163        164        181        180        164        165        182        181        165        166        183        182        166        167        184        183        167        168        185        184        168        169        186        185        170        171        188        187        171        172        189        188        172        173        190        189        173        174        191        190        174        175        192        191        175        176        193        192        176        177        194        193        177        178        195        194        178        179        196        195        179        180        197        196        180        181        198        197        181        182        199        198        182        183        200        199        183        184        201        200        184        185        202        201        185        186        203        202        187        188        205        204        188        189        206        205        189        190        207        206        190        191        208        207        191        192        209        208        192        193        210        209        193        194        211        210        194        195        212        211        195        196        213        212        196        197        214        213        197        198        215        214        198        199        216        215        199        200        217        216        200        201        218        217        201        202        219        218        202        203        220        219        204        205        222        221        205        206        223        222        206        207        224        223        207        208        225        224        208        209        226        225        209        210        227        226        210        211        228        227        211        212        229        228        212        213        230        229        213        214        231        230        214        215        232        231        215        216        233        232        216        217        234        233        217        218        235        234        218        219        236        235        219        220        237        236        221        222        239        238        222        223        240        239        223        224        241        240        224        225        242        241        225        226        243        242        226        227        244        243        227        228        245        244        228        229        246        245        229        230        247        246        230        231        248        247        231        232        249        248        232        233        250        249        233        234        251        250        234        235        252        251        235        236        253        252        236        237        254        253        238        239        256        255        239        240        257        256        240        241        258        257        241        242        259        258        242        243        260        259        243        244        261        260        244        245        262        261        245        246        263        262        246        247        264        263        247        248        265        264        248        249        266        265        249        250        267        266        250        251        268        267        251        252        269        268        252        253        270        269        253        254        271        270        255        256        273        272        256        257        274        273        257        258        275        274        258        259        276        275        259        260        277        276        260        261        278        277        261        262        279        278        262        263        280        279        263        264        281        280        264        265        282        281        265        266        283        282        266        267        284        283        267        268        285        284        268        269        286        285        269        270        287        286        270        271        288        287        306        307          1          0        307        308          2          1        308        309          3          2        309        310          4          3        310        311          5          4        311        312          6          5        312        313          7          6        313        314          8          7        314        315          9          8        315        316         10          9        316        317         11         10        317        318         12         11        318        319         13         12        319        320         14         13        320        321         15         14        321        322         16         15        323        324        307        306        324        325        308        307        325        326        309        308        326        327        310        309        327        328        311        310        328        329        312        311        329        330        313        312        330        331        314        313        331        332        315        314        332        333        316        315        333        334        317        316        334        335        318        317        335        336        319        318        336        337        320        319        337        338        321        320        338        339        322        321        340        341        324        323        341        342        325        324        342        343        326        325        343        344        327        326        344        345        328        327        345        346        329        328        346        347        330        329        347        348        331        330        348        349        332        331        349        350        333        332        350        351        334        333        351        352        335        334        352        353        336        335        353        354        337        336        354        355        338        337        355        356        339        338        357        358        341        340        358        359        342        341        359        360        343        342        360        361        344        343        361        362        345        344        362        363        346        345        363        364        347        346        364        365        348        347        365        366        349        348        366        367        350        349        367        368        351        350        368        369        352        351        369        370        353        352        370        371        354        353        371        372        355        354        372        373        356        355        374        375        358        357        375        376        359        358        376        377        360        359        377        378        361        360        378        379        362        361        379        380        363        362        380        381        364        363        381        382        365        364        382        383        366        365        383        384        367        366        384        385        368        367        385        386        369        368        386        387        370        369        387        388        371        370        388        389        372        371        389        390        373        372        391        392        375        374        392        393        376        375        393        394        377        376        394        395        378        377        395        396        379        378        396        397        380        379        397        398        381        380        398        399        382        381        399        400        383        382        400        401        384        383        401        402        385        384        402        403        386        385        403        404        387        386        404        405        388        387        405        406        389        388        406        407        390        389        408        409        392        391        409        410        393        392        410        411        394        393        411        412        395        394        412        413        396        395        413        414        397        396        414        415        398        397        415        416        399        398        416        417        400        399        417        418        401        400        418        419        402        401        419        420        403        402        420        421        404        403        421        422        405        404        422        423        406        405        423        424        407        406        425        426        409        408        426        427        410        409        427        428        411        410        428        429        412        411        429        430        413        412        430        431        414        413        431        432        415        414        432        433        416        415        433        434        417        416        434        435        418        417        435        436        419        418        436        437        420        419        437        438        421        420        438        439        422        421        439        440        423        422        440        441        424        423        442        443        426        425        443        444        427        426        444        445        428        427        445        446        429        428        446        447        430        429        447        448        431        430        448        449        432        431        449        450        433        432        450        451        434        433        451        452        435        434        452        453        436        435        453        454        437        436        454        455        438        437        455        456        439        438        456        457        440        439        457        458        441        440        459        460        443        442        460        461        444        443        461        462        445        444        462        463        446        445        463        464        447        446        464        465        448        447        465        466        449        448        466        467        450        449        467        468        451        450        468        469        452        451        469        470        453        452        470        471        454        453        471        472        455        454        472        473        456        455        473        474        457        456        474        475        458        457        476        477        460        459        477        478        461        460        478        479        462        461        479        480        463        462        480        481        464        463        481        482        465        464        482        483        466        465        483        484        467        466        484        485        468        467        485        486        469        468        486        487        470        469        487        488        471        470        488        489        472        471        489        490        473        472        490        491        474        473        491        492        475        474        493        494        477        476        494        495        478        477        495        496        479        478        496        497        480        479        497        498        481        480        498        499        482        481        499        500        483        482        500        501        484        483        501        502        485        484        502        503        486        485        503        504        487        486        504        505        488        487        505        506        489        488        506        507        490        489        507        508        491        490        508        509        492        491        510        511        494        493        511        512        495        494        512        513        496        495        513        514        497        496        514        515        498        497        515        516        499        498        516        517        500        499        517        518        501        500        518        519        502        501        519        520        503        502        520        521        504        503        521        522        505        504        522        523        506        505        523        524        507        506        524        525        508        507        525        526        509        508        527        528        511        510        528        529        512        511        529        530        513        512        530        531        514        513        531        532        515        514        532        533        516        515        533        534        517        516        534        535        518        517        535        536        519        518        536        537        520        519        537        538        521        520        538        539        522        521        539        540        523        522        540        541        524        523        541        542        525        524        542        543        526        525        544        545        528        527        545        546        529        528        546        547        530        529        547        548        531        530        548        549        532        531        549        550        533        532        550        551        534        533        551        552        535        534        552        553        536        535        553        554        537        536        554        555        538        537        555        556        539        538        556        557        540        539        557        558        541        540        558        559        542        541        559        560        543        542        561        562        545        544        562        563        546        545        563        564        547        546        564        565        548        547        565        566        549        548        566        567        550        549        567        568        551        550        568        569        552        551        569        570        553        552        570        571        554        553        571        572        555        554        572        573        556        555        573        574        557        556        574        575        558        557        575        576        559        558        576        577        560        559        578        579        596        595        579        580        597        596        580        581        598        597        581        582        599        598        582        583        600        599        583        584        601        600        584        585        602        601        585        586        603        602        586        587        604        603        587        588        605        604        588        589        606        605        589        590        607        606        590        591        608        607        591        592        609        608        592        593        610        609        593        594        611        610        595        596        613        612        596        597        614        613        597        598        615        614        598        599        616        615        599        600        617        616        600        601        618        617        601        602        619        618        602        603        620        619        603        604        621        620        604        605        622        621        605        606        623        622        606        607        624        623        607        608        625        624        608        609        626        625        609        610        627        626        610        611        628        627        612        613        630        629        613        614        631        630        614        615        632        631        615        616        633        632        616        617        634        633        617        618        635        634        618        619        636        635        619        620        637        636        620        621        638        637        621        622        639        638        622        623        640        639        623        624        641        640        624        625        642        641        625        626        643        642        626        627        644        643        627        628        645        644        629        630        647        646        630        631        648        647        631        632        649        648        632        633        650        649        633        634        651        650        634        635        652        651        635        636        653        652        636        637        654        653        637        638        655        654        638        639        656        655        639        640        657        656        640        641        658        657        641        642        659        658        642        643        660        659        643        644        661        660        644        645        662        661        646        647        664        663        647        648        665        664        648        649        666        665        649        650        667        666        650        651        668        667        651        652        669        668        652        653        670        669        653        654        671        670        654        655        672        671        655        656        673        672        656        657        674        673        657        658        675        674        658        659        676        675        659        660        677        676        660        661        678        677        661        662        679        678        663        664        681        680        664        665        682        681        665        666        683        682        666        667        684        683        667        668        685        684        668        669        686        685        669        670        687        686        670        671        688        687        671        672        689        688        672        673        690        689        673        674        691        690        674        675        692        691        675        676        693        692        676        677        694        693        677        678        695        694        678        679        696        695        680        681        698        697        681        682        699        698        682        683        700        699        683        684        701        700        684        685        702        701        685        686        703        702        686        687        704        703        687        688        705        704        688        689        706        705        689        690        707        706        690        691        708        707        691        692        709        708        692        693        710        709        693        694        711        710        694        695        712        711        695        696        713        712        697        698        715        714        698        699        716        715        699        700        717        716        700        701        718        717        701        702        719        718        702        703        720        719        703        704        721        720        704        705        722        721        705        706        723        722        706        707        724        723        707        708        725        724        708        709        726        725        709        710        727        726        710        711        728        727        711        712        729        728        712        713        730        729        714        715        732        731        715        716        733        732        716        717        734        733        717        718        735        734        718        719        736        735        719        720        737        736        720        721        738        737        721        722        739        738        722        723        740        739        723        724        741        740        724        725        742        741        725        726        743        742        726        727        744        743        727        728        745        744        728        729        746        745        729        730        747        746        731        732        749        748        732        733        750        749        733        734        751        750        734        735        752        751        735        736        753        752        736        737        754        753        737        738        755        754        738        739        756        755        739        740        757        756        740        741        758        757        741        742        759        758        742        743        760        759        743        744        761        760        744        745        762        761        745        746        763        762        746        747        764        763        748        749        766        765        749        750        767        766        750        751        768        767        751        752        769        768        752        753        770        769        753        754        771        770        754        755        772        771        755        756        773        772        756        757        774        773        757        758        775        774        758        759        776        775        759        760        777        776        760        761        778        777        761        762        779        778        762        763        780        779        763        764        781        780        765        766        783        782        766        767        784        783        767        768        785        784        768        769        786        785        769        770        787        786        770        771        788        787        771        772        789        788        772        773        790        789        773        774        791        790        774        775        792        791        775        776        793        792        776        777        794        793        777        778        795        794        778        779        796        795        779        780        797        796        780        781        798        797        782        783        800        799        783        784        801        800        784        785        802        801        785        786        803        802        786        787        804        803        787        788        805        804        788        789        806        805        789        790        807        806        790        791        808        807        791        792        809        808        792        793        810        809        793        794        811        810        794        795        812        811        795        796        813        812        796        797        814        813        797        798        815        814        799        800        817        816        800        801        818        817        801        802        819        818        802        803        820        819        803        804        821        820        804        805        822        821        805        806        823        822        806        807        824        823        807        808        825        824        808        809        826        825        809        810        827        826        810        811        828        827        811        812        829        828        812        813        830        829        813        814        831        830        814        815        832        831        816        817        834        833        817        818        835        834        818        819        836        835        819        820        837        836        820        821        838        837        821        822        839        838        822        823        840        839        823        824        841        840        824        825        842        841        825        826        843        842        826        827        844        843        827        828        845        844        828        829        846        845        829        830        847        846        830        831        848        847        831        832        849        848        833        834        562        561        834        835        563        562        835        836        564        563        836        837        565        564        837        838        566        565        838        839        567        566        839        840        568        567        840        841        569        568        841        842        570        569        842        843        571        570        843        844        572        571        844        845        573        572        845        846        574        573        846        847        575        574        847        848        576        575        848        849        577        576        884        885        579        578        885        886        580        579        886        887        581        580        887        888        582        581        888        889        583        582        889        890        584        583        890        891        585        584        891        892        586        585        892        893        587        586        893        894        588        587        894        895        589        588        895        896        590        589        896        897        591        590        897        898        592        591        898        899        593        592        899        900        594        593        901        902        885        884        902        903        886        885        903        904        887        886        904        905        888        887        905        906        889        888        906        907        890        889        907        908        891        890        908        909        892        891        909        910        893        892        910        911        894        893        911        912        895        894        912        913        896        895        913        914        897        896        914        915        898        897        915        916        899        898        916        917        900        899        918        919        902        901        919        920        903        902        920        921        904        903        921        922        905        904        922        923        906        905        923        924        907        906        924        925        908        907        925        926        909        908        926        927        910        909        927        928        911        910        928        929        912        911        929        930        913        912        930        931        914        913        931        932        915        914        932        933        916        915        933        934        917        916        935        936        919        918        936        937        920        919        937        938        921        920        938        939        922        921        939        940        923        922        940        941        924        923        941        942        925        924        942        943        926        925        943        944        927        926        944        945        928        927        945        946        929        928        946        947        930        929        947        948        931        930        948        949        932        931        949        950        933        932        950        951        934        933        952        953        936        935        953        954        937        936        954        955        938        937        955        956        939        938        956        957        940        939        957        958        941        940        958        959        942        941        959        960        943        942        960        961        944        943        961        962        945        944        962        963        946        945        963        964        947        946        964        965        948        947        965        966        949        948        966        967        950        949        967        968        951        950        969        970        953        952        970        971        954        953        971        972        955        954        972        973        956        955        973        974        957        956        974        975        958        957        975        976        959        958        976        977        960        959        977        978        961        960        978        979        962        961        979        980        963        962        980        981        964        963        981        982        965        964        982        983        966        965        983        984        967        966        984        985        968        967        986        987        970        969        987        988        971        970        988        989        972        971        989        990        973        972        990        991        974        973        991        992        975        974        992        993        976        975        993        994        977        976        994        995        978        977        995        996        979        978        996        997        980        979        997        998        981        980        998        999        982        981        999       1000        983        982       1000       1001        984        983       1001       1002        985        984       1003       1004        987        986       1004       1005        988        987       1005       1006        989        988       1006       1007        990        989       1007       1008        991        990       1008       1009        992        991       1009       1010        993        992       1010       1011        994        993       1011       1012        995        994       1012       1013        996        995       1013       1014        997        996       1014       1015        998        997       1015       1016        999        998       1016       1017       1000        999       1017       1018       1001       1000       1018       1019       1002       1001       1020       1021       1004       1003       1021       1022       1005       1004       1022       1023       1006       1005       1023       1024       1007       1006       1024       1025       1008       1007       1025       1026       1009       1008       1026       1027       1010       1009       1027       1028       1011       1010       1028       1029       1012       1011       1029       1030       1013       1012       1030       1031       1014       1013       1031       1032       1015       1014       1032       1033       1016       1015       1033       1034       1017       1016       1034       1035       1018       1017       1035       1036       1019       1018       1037       1038       1021       1020       1038       1039       1022       1021       1039       1040       1023       1022       1040       1041       1024       1023       1041       1042       1025       1024       1042       1043       1026       1025       1043       1044       1027       1026       1044       1045       1028       1027       1045       1046       1029       1028       1046       1047       1030       1029       1047       1048       1031       1030       1048       1049       1032       1031       1049       1050       1033       1032       1050       1051       1034       1033       1051       1052       1035       1034       1052       1053       1036       1035       1054       1055       1038       1037       1055       1056       1039       1038       1056       1057       1040       1039       1057       1058       1041       1040       1058       1059       1042       1041       1059       1060       1043       1042       1060       1061       1044       1043       1061       1062       1045       1044       1062       1063       1046       1045       1063       1064       1047       1046       1064       1065       1048       1047       1065       1066       1049       1048       1066       1067       1050       1049       1067       1068       1051       1050       1068       1069       1052       1051       1069       1070       1053       1052       1071       1072       1055       1054       1072       1073       1056       1055       1073       1074       1057       1056       1074       1075       1058       1057       1075       1076       1059       1058       1076       1077       1060       1059       1077       1078       1061       1060       1078       1079       1062       1061       1079       1080       1063       1062       1080       1081       1064       1063       1081       1082       1065       1064       1082       1083       1066       1065       1083       1084       1067       1066       1084       1085       1068       1067       1085       1086       1069       1068       1086       1087       1070       1069       1088       1089       1072       1071       1089       1090       1073       1072       1090       1091       1074       1073       1091       1092       1075       1074       1092       1093       1076       1075       1093       1094       1077       1076       1094       1095       1078       1077       1095       1096       1079       1078       1096       1097       1080       1079       1097       1098       1081       1080       1098       1099       1082       1081       1099       1100       1083       1082       1100       1101       1084       1083       1101       1102       1085       1084       1102       1103       1086       1085       1103       1104       1087       1086       1105       1106       1089       1088       1106       1107       1090       1089       1107       1108       1091       1090       1108       1109       1092       1091       1109       1110       1093       1092       1110       1111       1094       1093       1111       1112       1095       1094       1112       1113       1096       1095       1113       1114       1097       1096       1114       1115       1098       1097       1115       1116       1099       1098       1116       1117       1100       1099       1117       1118       1101       1100       1118       1119       1102       1101       1119       1120       1103       1102       1120       1121       1104       1103       1122       1123       1106       1105       1123       1124       1107       1106       1124       1125       1108       1107       1125       1126       1109       1108       1126       1127       1110       1109       1127       1128       1111       1110       1128       1129       1112       1111       1129       1130       1113       1112       1130       1131       1114       1113       1131       1132       1115       1114       1132       1133       1116       1115       1133       1134       1117       1116       1134       1135       1118       1117       1135       1136       1119       1118       1136       1137       1120       1119       1137       1138       1121       1120        272        273       1123       1122        273        274       1124       1123        274        275       1125       1124        275        276       1126       1125        276        277       1127       1126        277        278       1128       1127        278        279       1129       1128        279        280       1130       1129        280        281       1131       1130        281        282       1132       1131        282        283       1133       1132        283        284       1134       1133        284        285       1135       1134        285        286       1136       1135        286        287       1137       1136        287        288       1138       1137 </DataArray>
<DataArray type="Int32"                                    Name="offsets"                                                      NumberOfComponents=" 1" format="ascii">
         4          8         12         16         20         24         28         32         36         40         44         48         52         56         60         64         68         72         76         80         84         88         92         96        100        104        108        112        116        120        124        128        132        136        140        144        148        152        156        160        164        168        172        176        180        184        188        192        196        200        204        208        212        216        220        224        228        232        236        240        244        248        252        256        260        264        268        272        276        280        284        288        292        296        300        304        308        312        316        320        324        328        332        336        340        344        348        352        356        360        364        368        372        376        380        384        388        392        396        400        404        408        412        416        420        424        428        432        436        440        444        448        452        456        460        464        468        472        476        480        484        488        492        496        500        504        508        512        516        520        524        528        532        536        540        544        548        552        556        560        564        568        572        576        580        584        588        592        596        600        604        608        612        616        620        624        628        632        636        640        644        648        652        656        660        664        668        672        676        680        684        688        692        696        700        704        708        712        716        720        724        728        732        736        740        744        748        752        756        760        764        768        772        776        780        784        788        792        796        800        804        808        812        816        820        824        828        832        836        840        844        848        852        856        860        864        868        872        876        880        884        888        892        896        900        904        908        912        916        920        924        928        932        936        940        944        948        952        956        960        964        968        972        976        980        984        988        992        996       1000       1004       1008       1012       1016       1020       1024       1028       1032       1036       1040       1044       1048       1052       1056       1060       1064       1068       1072       1076       1080       1084       1088       1092       1096       1100       1104       1108       1112       1116       1120       1124       1128       1132       1136       1140       1144       1148       1152       1156       1160       1164       1168       1172       1176       1180       1184       1188       1192       1196       1200       1204       1208       1212       1216       1220       1224       1228       1232       1236       1240       1244       1248       1252       1256       1260       1264       1268       1272       1276       1280       1284       1288       1292       1296       1300       1304       1308       1312       1316       1320       1324       1328       1332       1336       1340       1344       1348       1352       1356       1360       1364       1368       1372       1376       1380       1384       1388       1392       1396       1400       1404       1408       1412       1416       1420       1424       1428       1432       1436       1440       1444       1448       1452       1456       1460       1464       1468       1472       1476       1480       1484       1488       1492       1496       1500       1504       1508       1512       1516       1520       1524       1528       1532       1536       1540       1544       1548       1552       1556       1560       1564       1568       1572       1576       1580       1584       1588       1592       1596       1600       1604       1608       1612       1616       1620       1624       1628       1632       1636       1640       1644       1648       1652       1656       1660       1664       1668       1672       1676       1680       1684       1688       1692       1696       1700       1704       1708       1712       1716       1720       1724       1728       1732       1736       1740       1744       1748       1752       1756       1760       1764       1768       1772       1776       1780       1784       1788       1792       1796       1800       1804       1808       1812       1816       1820       1824       1828       1832       1836       1840       1844       1848       1852       1856       1860       1864       1868       1872       1876       1880       1884       1888       1892       1896       1900       1904       1908       1912       1916       1920       1924       1928       1932       1936       1940       1944       1948       1952       1956       1960       1964       1968       1972       1976       1980       1984       1988       1992       1996       2000       2004       2008       2012       2016       2020       2024       2028       2032       2036       2040       2044       2048       2052       2056       2060       2064       2068       2072       2076       2080       2084       2088       2092       2096       2100       2104       2108       2112       2116       2120       2124       2128       2132       2136       2140       2144       2148       2152       2156       2160       2164       2168       2172       2176       2180       2184       2188       2192       2196       2200       2204       2208       2212       2216       2220       2224       2228       2232       2236       2240       2244       2248       2252       2256       2260       2264       2268       2272       2276       2280       2284       2288       2292       2296       2300       2304       2308       2312       2316       2320       2324       2328       2332       2336       2340       2344       2348       2352       2356       2360       2364       2368       2372       2376       2380       2384       2388       2392       2396       2400       2404       2408       2412       2416       2420       2424       2428       2432       2436       2440       2444       2448       2452       2456       2460       2464       2468       2472       2476       2480       2484       2488       2492       2496       2500       2504       2508       2512       2516       2520       2524       2528       2532       2536       2540       2544       2548       2552       2556       2560       2564       2568       2572       2576       2580       2584       2588       2592       2596       2600       2604       2608       2612       2616       2620       2624       2628       2632       2636       2640       2644       2648       2652       2656       2660       2664       2668       2672       2676       2680       2684       2688       2692       2696       2700       2704       2708       2712       2716       2720       2724       2728       2732       2736       2740       2744       2748       2752       2756       2760       2764       2768       2772       2776       2780       2784       2788       2792       2796       2800       2804       2808       2812       2816       2820       2824       2828       2832       2836       2840       2844       2848       2852       2856       2860       2864       2868       2872       2876       2880       2884       2888       2892       2896       2900       2904       2908       2912       2916       2920       2924       2928       2932       2936       2940       2944       2948       2952       2956       2960       2964       2968       2972       2976       2980       2984       2988       2992       2996       3000       3004       3008       3012       3016       3020       3024       3028       3032       3036       3040       3044       3048       3052       3056       3060       3064       3068       3072       3076       3080       3084       3088       3092       3096       3100       3104       3108       3112       3116       3120       3124       3128       3132       3136       3140       3144       3148       3152       3156       3160       3164       3168       3172       3176       3180       3184       3188       3192       3196       3200       3204       3208       3212       3216       3220       3224       3228       3232       3236       3240       3244       3248       3252       3256       3260       3264       3268       3272       3276       3280       3284       3288       3292       3296       3300       3304       3308       3312       3316       3320       3324       3328       3332       3336       3340       3344       3348       3352       3356       3360       3364       3368       3372       3376       3380       3384       3388       3392       3396       3400       3404       3408       3412       3416       3420       3424       3428       3432       3436       3440       3444       3448       3452       3456       3460       3464       3468       3472       3476       3480       3484       3488       3492       3496       3500       3504       3508       3512       3516       3520       3524       3528       3532       3536       3540       3544       3548       3552       3556       3560       3564       3568       3572       3576       3580       3584       3588       3592       3596       3600       3604       3608       3612       3616       3620       3624       3628       3632       3636       3640       3644       3648       3652       3656       3660       3664       3668       3672       3676       3680       3684       3688       3692       3696       3700       3704       3708       3712       3716       3720       3724       3728       3732       3736       3740       3744       3748       3752       3756       3760       3764       3768       3772       3776       3780       3784       3788       3792       3796       3800       3804       3808       3812       3816       3820       3824       3828       3832       3836       3840       3844       3848       3852       3856       3860       3864       3868       3872       3876       3880       3884       3888       3892       3896       3900       3904       3908       3912       3916       3920       3924       3928       3932       3936       3940       3944       3948       3952       3956       3960       3964       3968       3972       3976       3980       3984       3988       3992       3996       4000       4004       4008       4012       4016       4020       4024       4028       4032       4036       4040       4044       4048       4052       4056       4060       4064       4068       4072       4076       4080       4084       4088       4092       4096 </DataArray>
<DataArray type="UInt8"                                    Name="types"                                                      NumberOfComponents=" 1" format="ascii">
         9          9          9          9          9          9          9          9          9          9          9          9          9          9          9          9          9          9          9          9          9          9          9          9          9          9          9          9          9          9          9          9          9          9          9          9          9          9          9          9          9          9          9          9          9          9          9          9          9          9          9          9          9          9          9          9          9          9          9          9          9          9          9          9          9          9          9          9          9          9          9          9          9          9          9          9          9          9          9          9          9          9          9          9          9          9          9          9          9          9          9          9          9          9          9          9          9          9          9          9          9          9          9          9          9          9          9          9          9          9          9          9          9          9          9          9          9          9          9          9          9          9          9          9          9          9          9          9          9          9          9          9          9          9          9          9          9          9          9          9          9          9          9          9          9          9          9          9          9          9          9          9          9          9          9          9          9          9          9          9          9          9          9          9          9          9          9          9          9          9          9          9          9          9          9          9          9          9          9          9          9          9          9          9          9          9          9          9          9          9          9          9          9          9          9          9          9          9          9          9          9          9          9          9          9          9          9          9          9          9          9          9          9          9          9          9          9          9          9          9          9          9          9          9          9          9          9          9          9          9          9          9          9          9          9          9          9          9          9          9          9          9          9          9          9          9          9          9          9          9          9          9          9          9          9          9          9          9          9          9          9          9          9          9          9          9          9          9          9          9          9          9          9          9          9          9          9          9          9          9          9          9          9          9          9          9          9          9          9          9          9          9          9          9          9          9          9          9          9          9          9          9          9          9          9          9          9          9          9          9          9          9          9          9          9          9          9          9          9          9          9          9          9          9          9          9          9          9          9          9          9          9          9          9          9          9          9          9          9          9          9          9          9          9          9          9          9          9          9          9          9          9          9          9          9          9          9          9          9          9          9          9          9          9          9          9          9          9          9          9          9          9          9          9          9          9          9          9          9          9          9          9          9          9          9          9          9          9          9          9          9          9          9          9          9          9          9          9          9          9          9          9          9          9          9          9          9          9          9          9          9          9          9          9          9          9          9          9          9          9          9          9          9          9          9          9          9          9          9          9          9          9          9          9          9          9          9          9          9          9          9          9          9          9          9          9          9          9          9          9          9          9          9          9          9          9          9          9          9          9          9          9          9          9          9          9          9          9          9          9          9          9          9          9          9          9          9          9          9          9          9          9          9          9          9          9          9          9          9          9          9          9          9          9          9          9          9          9          9          9          9          9          9          9          9          9          9          9          9          9          9          9          9          9          9          9          9          9          9          9          9          9          9          9          9          9          9          9          9          9          9          9          9          9          9          9          9          9          9          9          9          9          9          9          9          9          9          9          9          9          9          9          9          9          9          9          9          9          9          9          9          9          9          9          9          9          9          9          9          9          9          9          9          9          9          9          9          9          9          9          9          9          9          9          9          9          9          9          9          9          9          9          9          9          9          9          9          9          9          9          9          9          9          9          9          9          9          9          9          9          9          9          9          9          9          9          9          9          9          9          9          9          9          9          9          9          9          9          9          9          9          9          9          9          9          9          9          9          9          9          9          9          9          9          9          9          9          9          9          9          9          9          9          9          9          9          9          9          9          9          9          9          9          9          9          9          9          9          9          9          9          9          9          9          9          9          9          9          9          9          9          9          9          9          9          9          9          9          9          9          9          9          9          9          9          9          9          9          9          9          9          9          9          9          9          9          9          9          9          9          9          9          9          9          9          9          9          9          9          9          9          9          9          9          9          9          9          9          9          9          9          9          9          9          9          9          9          9          9          9          9          9          9          9          9          9          9          9          9          9          9          9          9          9          9          9          9          9          9          9          9          9          9          9          9          9          9          9          9          9          9          9          9          9          9          9          9          9          9          9          9          9          9          9          9          9          9          9          9          9          9          9          9          9          9          9          9          9          9          9          9          9          9          9          9          9          9          9          9          9          9          9          9          9          9          9          9          9          9          9          9          9          9          9          9          9          9          9          9          9          9          9          9          9          9          9          9          9          9          9          9          9          9          9          9          9          9          9          9          9          9          9          9          9          9          9          9          9          9          9          9          9          9          9          9          9          9          9          9          9          9          9          9          9          9          9          9          9          9          9          9          9          9          9          9          9          9          9          9          9          9          9          9          9          9          9          9          9          9          9          9          9          9          9          9          9          9          9          9          9          9          9          9          9          9          9          9          9          9          9          9          9          9          9          9          9          9          9          9          9          9          9          9          9          9          9          9          9          9          9          9          9          9          9          9          9          9          9          9          9          9          9          9          9          9          9          9          9          9          9          9          9          9          9          9          9          9          9          9          9          9          9          9          9          9          9          9          9          9          9          9          9          9          9          9          9          9          9          9          9          9          9          9          9          9          9          9          9          9          9          9          9          9          9          9          9          9          9          9          9          9          9          9          9          9          9          9          9          9          9          9          9          9          9 </DataArray>
</Cells>
<CellData>
<DataArray type="Int32"                                    Name="material"                                                      NumberOfComponents=" 1" format="ascii">
         1          1          1          1          1          1          1          1          1          1          1          1          1          1          1          1          1          1          1          1          1          1          1          1          1          1          1          1          1          1          1          1          1          1          1          1          1          1          1          1          1          1          1          1          1          1          1          1          1          1          1          1          1          1          1          1          1          1          1          1          1          1          1          1          1          1          1          1          1          1          1          1          1          1          1          1          1          1          1          1          1          1          1          1          1          1          1          1          1          1          1          1          1          1          1          1          1          1          1          1          1          1          1          1          1          1          1          1          1          1          1          1          1          1          1          1          1          1          1          1          1          1          1          1          1          1          1          1          1          1          1          1          1          1          1          1          1          1          1          1          1          1          1          1          1          1          1          1          1          1          1          1          1          1          1          1          1          1          1          1          1          1          1          1          1          1          1          1          1          1          1          1          1          1          1          1          1          1          1          1          1          1          1          1          1          1          1          1          1          1          1          1          1          1          1          1          1          1          1          1          1          1          1          1          1          1          1          1          1          1          1          1          1          1          1          1          1          1          1          1          1          1          1          1          1          1          1          1          1          1          1          1          1          1          1          1          1          1          1          1          1          1          1          1          1          1          1          1          1          1          1          1          1          1          1          1          1          1          1          1          1          1          1          1          1          1          1          1          1          1          1          1          1          1          1          1          1          1          1          1          1          1          1          1          1          1          1          1          1          1          1          1          1          1          1          1          1          1          1          1          1          1          1          1          1          1          1          1          1          1          1          1          1          1          1          1          1          1          1          1          1          1          1          1          1          1          1          1          1          1          1          1          1          1          1          1          1          1          1          1          1          1          1          1          1          1          1          1          1          1          1          1          1          1          1          1          1          1          1          1          1          1          1          1          1          1          1          1          1          1          1          1          1          1          1          1          1          1          1          1          1          1          1          1          1          1          1          1          1          1          1          1          1          1          1          1          1          1          1          1          1          1          1          1          1          1          1          1          1          1          1          1          1          1          1          1          1          1          1          1          1          1          1          1          1          1          1          1          1          1          1          1          1          1          1          1          1          1          1          1          1          1          1          1          1          1          1          1          1          1          1          1          1          1          1          1          1          1          1          1          1          1          1          1          1          1          1          1          1          1          1          1          1          1          1          1          1          1          1          1          1          1          1          1          1          1          1          1          1          1          1          1          1          1          1          1          1          1          1          1          1          1          1          1          1          1          1          1          1          1          1          1          1          1          1          1          1          1          1          1          1          1          1          1          1          1          1          1          1          1          1          1          1          1          1          1          1          1          1          1          1          1          1          1          1          1          1          1          1          1          1          1          1          1          1          1          1          1          1          1          1          1          1          1          1          1          1          1          1          1          1          1          1          1          1          1          1          1          1          1          1          1          1          1          1          1          1          1          1          1          1          1          1          1          1          1          1          1          1          1          1          1          1          1          1          1          1          1          1          1          1          1          1          1          1          1          1          1          1          1          1          1          1          1          1          1          1          1          1          1          1          1          1          1          1          1          1          1          1          1          1          1          1          1          1          1          1          1          1          1          1          1          1          1          1          1          1          1          1          1          1          1          1          1          1          1          1          1          1          1          1          1          1          1          1          1          1          1          1          1          1          1          1          1          1          1          1          1          1          1          1          1          1          1          1          1          1          1          1          1          1          1          1          1          1          1          1          1          1          1          1          1          1          1          1          1          1          1          1          1          1          1          1          1          1          1          1          1          1          1          1          1          1          1          1          1          1          1          1          1          1          1          1          1          1          1          1          1          1          1          1          1          1          1          1          1          1          1          1          1          1          1          1          1          1          1          1          1          1          1          1          1          1          1          1          1          1          1          1          1          1          1          1          1          1          1          1          1          1          1          1          1          1          1          1          1          1          1          1          1          1          1          1          1          1          1          1          1          1          1          1          1          1          1          1          1          1          1          1          1          1          1          1          1          1          1          1          1          1          1          1          1          1          1          1          1          1          1          1          1          1          1          1          1          1          1          1          1          1          1          1          1          1          1          1          1          1          1          1          1          1          1          1          1          1          1          1          1          1          1          1          1          1          1          1          1          1          1          1          1          1          1          1          1          1          1          1          1          1          1          1          1          1          1          1          1          1          1          1          1          1          1          1          1          1          1          1          1          1          1          1          1          1          1          1          1          1          1          1          1          1          1          1          1          1          1          1          1          1          1          1          1          1          1          1          1          1          1          1          1          1          1          1          1          1          1          1          1          1          1          1          1          1          1          1          1          1          1          1          1          1          1          1          1          1          1          1          1          1          1          1          1          1          1          1          1          1          1          1          1          1          1          1          1          1          1          1          1          1          1          1          1          1          1          1          1          1          1          1          1          1          1          1          1          1          1          1          1          1          1          1          1          1          1          1          1          1          1          1          1          1          1          1          1 </DataArray>
</CellData>
<PointData>
<DataArray type="Float64"                                    Name="u"                                                      NumberOfComponents=" 3" format="ascii">
             -0.000000594              -0.000000000               0.999999997              -0.000012680               0.000000000               0.999999997              -0.000018744               0.000000000               0.999999997              -0.000022491              -0.000000000               0.999999997              -0.000025513               0.000000000               0.999999997              -0.000028470              -0.000000000               0.999999997              -0.000031703              -0.000000000               0.999999997              -0.000035329               0.000000000               0.999999997              -0.000039400               0.000000000               0.999999997              -0.000043923               0.000000000               0.999999997              -0.000048930              -0.000000000               0.999999997              -0.000054428               0.000000000               0.999999997              -0.000060400              -0.000000000               0.999999997              -0.000066882              -0.000000000               0.999999997              -0.000073868              -0.000000000               0.999999997              -0.000081383              -0.000000000               0.999999997              -0.000089455              -0.000000000               0.999999997              -0.000000647               0.000029636               0.999999997              -0.000012306               0.000026651               0.999999997              -0.000018130               0.000026021               0.999999997              -0.000021749               0.000026746               0.999999997              -0.000024727               0.000028293               0.999999997              -0.000027688               0.000030469               0.999999997              -0.000030991               0.000032973               0.999999997              -0.000034757               0.000035746               0.999999997              -0.000038952               0.000038795               0.999999997              -0.000043629               0.000042006               0.999999997              -0.000048800               0.000045455               0.999999997              -0.000054470               0.000049024               0.999999997              -0.000060591               0.000052685               0.999999997              -0.000067170               0.000056488               0.999999997              -0.000074267               0.000060464               0.999999997              -0.000081912               0.000064465               0.999999997              -0.000090125               0.000068476               0.999999997              -0.000000815               0.000058945               0.999999997              -0.000011193               0.000052963               0.999999997              -0.000016320               0.000051773               0.999999997              -0.000019620               0.000053294               0.999999997              -0.000022516               0.000056515               0.999999997              -0.000025630               0.000060837               0.999999997              -0.000029170               0.000065924               0.999999997              -0.000033199               0.000071558               0.999999997              -0.000037753               0.000077663               0.999999997              -0.000042885               0.000084131               0.999999997              -0.000048547               0.000090975               0.999999997              -0.000054699               0.000098145               0.999999997              -0.000061290               0.000105391               0.999999997              -0.000068327               0.000113009               0.999999997              -0.000075868               0.000121044               0.999999997              -0.000083954               0.000129328               0.999999997              -0.000092605               0.000137681               0.999999997              -0.000001029               0.000087633               0.999999997              -0.000009337               0.000078618               0.999999997              -0.000013432               0.000077072               0.999999997              -0.000016409               0.000079614               0.999999997              -0.000019381               0.000084650               0.999999997              -0.000022754               0.000091234               0.999999997              -0.000026734               0.000098905               0.999999997              -0.000031365               0.000107463               0.999999997              -0.000036626               0.000116688               0.999999997              -0.000042506               0.000126448               0.999999997              -0.000048877               0.000136716               0.999999997              -0.000055726               0.000147372               0.999999997              -0.000063128               0.000158323               0.999999997              -0.000071039               0.000169734               0.999999997              -0.000079457               0.000181843               0.999999997              -0.000088377               0.000194465               0.999999997              -0.000097753               0.000207299               0.999999997              -0.000001231               0.000115442               0.999999997              -0.000006839               0.000103434               0.999999997              -0.000009809               0.000101818               0.999999997              -0.000012536               0.000105627               0.999999997              -0.000015773               0.000112545               0.999999997              -0.000019703               0.000121500               0.999999997              -0.000024438               0.000131890               0.999999997              -0.000029995               0.000143363               0.999999997              -0.000036251               0.000155732               0.999999997              -0.000043105               0.000168735               0.999999997              -0.000050513               0.000182329               0.999999997              -0.000058477               0.000196561               0.999999997              -0.000066976               0.000211203               0.999999997              -0.000076030               0.000226437               0.999999997              -0.000085576               0.000242499               0.999999997              -0.000095516               0.000259176               0.999999997              -0.000105763               0.000276140               0.999999997              -0.000001458               0.000142091               0.999999997              -0.000003821               0.000127344               0.999999997              -0.000005785               0.000125937               0.999999997              -0.000008551               0.000131093               0.999999997              -0.000012334               0.000140011               0.999999997              -0.000017167               0.000151370               0.999999997              -0.000022958               0.000164527               0.999999997              -0.000029640               0.000178988               0.999999997              -0.000037046               0.000194440               0.999999997              -0.000045117               0.000210736               0.999999997              -0.000053776               0.000227634               0.999999997              -0.000062961               0.000245266               0.999999997              -0.000072740               0.000263597               0.999999997              -0.000083025               0.000282603               0.999999997              -0.000093719               0.000302390               0.999999997              -0.000104680               0.000322825               0.999999997              -0.000115799               0.000343480               0.999999997              -0.000001673               0.000167325               0.999999997              -0.000000468               0.000150254               0.999999997              -0.000001732               0.000149275               0.999999997              -0.000004878               0.000155878               0.999999997              -0.000009554               0.000166841               0.999999997              -0.000015513               0.000180675               0.999999997              -0.000022546               0.000196588               0.999999997              -0.000030494               0.000213904               0.999999997              -0.000039262               0.000232392               0.999999997              -0.000048652               0.000251887               0.999999997              -0.000058619               0.000272163               0.999999997              -0.000069067               0.000293300               0.999999997              -0.000079986               0.000315486               0.999999997              -0.000091356               0.000338287               0.999999997              -0.000103061               0.000361835               0.999999997              -0.000114965               0.000385911               0.999999997              -0.000127072               0.000410335               0.999999997              -0.000001789               0.000190902               0.999999997               0.000002953               0.000172077               0.999999997               0.000002009               0.000171695               0.999999997              -0.000001860               0.000179772               0.999999997              -0.000007655               0.000192779               0.999999997              -0.000014894               0.000209052               0.999999997              -0.000023284               0.000227694               0.999999997              -0.000032643               0.000247881               0.999999997              -0.000042753               0.000269429               0.999999997              -0.000053339               0.000292240               0.999999997              -0.000064443               0.000316120               0.999999997              -0.000076001               0.000341097               0.999999997              -0.000088077               0.000367103               0.999999997              -0.000100505               0.000393847               0.999999997              -0.000113216               0.000421210               0.999999997              -0.000126084               0.000449003               0.999999997              -0.000139126               0.000477206               0.999999997              -0.000001963               0.000212377               0.999999997               0.000006251               0.000192803               0.999999997               0.000005140               0.000193072               0.999999997               0.000000327               0.000202575               0.999999997              -0.000006690               0.000217638               0.999999997              -0.000015243               0.000236436               0.999999997              -0.000025099               0.000257803               0.999999997              -0.000035767               0.000280935               0.999999997              -0.000046999               0.000305724               0.999999997              -0.000058696               0.000332061               0.999999997              -0.000070879               0.000359762               0.999999997              -0.000083614               0.000388756               0.999999997              -0.000096700               0.000418808               0.999999997              -0.000110026               0.000449600               0.999999997              -0.000123513               0.000480884               0.999999997              -0.000137128               0.000512525               0.999999997              -0.000150824               0.000544528               0.999999997              -0.000002422               0.000232449               0.999999997               0.000008387               0.000214352               0.999999997               0.000008520               0.000212510               0.999999997               0.000004606               0.000219509               0.999999997              -0.000001487               0.000232024               0.999999997              -0.000009138               0.000248342               0.999999997              -0.000017920               0.000267414               0.999999997              -0.000027432               0.000288411               0.999999997              -0.000037463               0.000310958               0.999999997              -0.000047914               0.000334953               0.999999997              -0.000058666               0.000360325               0.999999997              -0.000069820               0.000387072               0.999999997              -0.000081255               0.000415007               0.999999997              -0.000092929               0.000443884               0.999999997              -0.000104692               0.000473473               0.999999997              -0.000116427               0.000503554               0.999999997              -0.000128245               0.000534017               0.999999997              -0.000002600               0.000250596               0.999999997               0.000009570               0.000234947               0.999999997               0.000010984               0.000232149               0.999999997               0.000008139               0.000237176               0.999999997               0.000003095               0.000247443               0.999999997              -0.000003503               0.000261537               0.999999997              -0.000011098               0.000278448               0.999999997              -0.000019419               0.000297437               0.999999997              -0.000028242               0.000317947               0.999999997              -0.000037518               0.000339848               0.999999997              -0.000046953               0.000362976               0.999999997              -0.000056524               0.000387479               0.999999997              -0.000066215               0.000413287               0.999999997              -0.000076104               0.000440163               0.999999997              -0.000086083               0.000467780               0.999999997              -0.000095981               0.000496045               0.999999997              -0.000105817               0.000524828               0.999999997              -0.000002585               0.000266450               0.999999997               0.000009824               0.000254083               0.999999997               0.000012266               0.000251203               0.999999997               0.000010514               0.000254986               0.999999997               0.000006612               0.000263502               0.999999997               0.000001260               0.000275643               0.999999997              -0.000005089               0.000290649               0.999999997              -0.000012077               0.000307850               0.999999997              -0.000019723               0.000326633               0.999999997              -0.000027727               0.000346694               0.999999997              -0.000035832               0.000368034               0.999999997              -0.000043800               0.000390583               0.999999997              -0.000051798               0.000414372               0.999999997              -0.000059860               0.000439298               0.999999997              -0.000067851               0.000465020               0.999999997              -0.000075603               0.000491424               0.999999997              -0.000083164               0.000518385               0.999999997              -0.000002382               0.000279747               0.999999997               0.000009141               0.000271039               0.999999997               0.000012177               0.000268820               0.999999997               0.000011367               0.000271963               0.999999997               0.000008644               0.000279328               0.999999997               0.000004575               0.000289943               0.999999997              -0.000000410               0.000303390               0.999999997              -0.000006093               0.000318981               0.999999997              -0.000012338               0.000336310               0.999999997              -0.000019056               0.000354983               0.999999997              -0.000025768               0.000374854               0.999999997              -0.000032228               0.000395867               0.999999997              -0.000038487               0.000418083               0.999999997              -0.000044712               0.000441367               0.999999997              -0.000050792               0.000465561               0.999999997              -0.000056232               0.000490451               0.999999997              -0.000060930               0.000515897               0.999999997              -0.000001984               0.000290289               0.999999997               0.000007606               0.000285059               0.999999997               0.000010685               0.000283963               0.999999997               0.000010574               0.000287057               0.999999997               0.000008812               0.000293678               0.999999997               0.000005986               0.000303295               0.999999997               0.000002362               0.000315464               0.999999997              -0.000001928               0.000329855               0.999999997              -0.000006691               0.000345987               0.999999997              -0.000011911               0.000363509               0.999999997              -0.000017179               0.000382298               0.999999997              -0.000022174               0.000402266               0.999999997              -0.000026768               0.000423408               0.999999997              -0.000031201               0.000445511               0.999999997              -0.000035261               0.000468570               0.999999997              -0.000038685               0.000492412               0.999999997              -0.000041139               0.000516790               0.999999997              -0.000001416               0.000297879               0.999999997               0.000005441               0.000295572               0.999999997               0.000007932               0.000295615               0.999999997               0.000008141               0.000298927               0.999999997               0.000007173               0.000305299               0.999999997               0.000005420               0.000314326               0.999999997               0.000003088               0.000325661               0.999999997               0.000000223               0.000339138               0.999999997              -0.000003067               0.000354341               0.999999997              -0.000006551               0.000371111               0.999999997              -0.000010069               0.000389302               0.999999997              -0.000013504               0.000408702               0.999999997              -0.000016632               0.000429227               0.999999997              -0.000019311               0.000450768               0.999999997              -0.000021640               0.000473133               0.999999997              -0.000023565               0.000496189               0.999999997              -0.000024526               0.000519868               0.999999997              -0.000000740               0.000302428               0.999999997               0.000002842               0.000302040               0.999999997               0.000004225               0.000303003               0.999999997               0.000004442               0.000306573               0.999999997               0.000004008               0.000312855               0.999999997               0.000003153               0.000321598               0.999999997               0.000001998               0.000332503               0.999999997               0.000000567               0.000345436               0.999999997              -0.000001104               0.000360194               0.999999997              -0.000002784               0.000376623               0.999999997              -0.000004496               0.000394432               0.999999997              -0.000006351               0.000413460               0.999999997              -0.000007867               0.000433625               0.999999997              -0.000009026               0.000454846               0.999999997              -0.000010269               0.000476934               0.999999997              -0.000011151               0.000499791               0.999999997              -0.000011148               0.000523265               0.999999997               0.000000000               0.000304000               0.999999997               0.000000000               0.000304251               0.999999997               0.000000000               0.000305516               0.999999997              -0.000000000               0.000309186               0.999999997              -0.000000000               0.000315485               0.999999997              -0.000000000               0.000324212               0.999999997               0.000000000               0.000334955               0.999999997               0.000000000               0.000347644               0.999999997              -0.000000000               0.000362355               0.999999997              -0.000000000               0.000378737               0.999999997               0.000000000               0.000396355               0.999999997              -0.000000000               0.000415206               0.999999997              -0.000000000               0.000435192               0.999999997              -0.000000000               0.000456258               0.999999997               0.000000000               0.000478322               0.999999997               0.000000000               0.000501281               0.999999997               0.000000000               0.000524790               0.999999997              -0.000000594              -0.000000000               0.999999997              -0.000012680               0.000000000               0.999999997              -0.000018744               0.000000000               0.999999997              -0.000022491              -0.000000000               0.999999997              -0.000025513               0.000000000               0.999999997              -0.000028470              -0.000000000               0.999999997              -0.000031703              -0.000000000               0.999999997              -0.000035329               0.000000000               0.999999997              -0.000039400               0.000000000               0.999999997              -0.000043923               0.000000000               0.999999997              -0.000048930              -0.000000000               0.999999997              -0.000054428               0.000000000               0.999999997              -0.000060400              -0.000000000               0.999999997              -0.000066882              -0.000000000               0.999999997              -0.000073868              -0.000000000               0.999999997              -0.000081383              -0.000000000               0.999999997              -0.000089455              -0.000000000               0.999999997              -0.000000647              -0.000029636               0.999999997              -0.000012306              -0.000026651               0.999999997              -0.000018130              -0.000026021               0.999999997              -0.000021749              -0.000026746               0.999999997              -0.000024727              -0.000028293               0.999999997              -0.000027688              -0.000030469               0.999999997              -0.000030991              -0.000032973               0.999999997              -0.000034757              -0.000035746               0.999999997              -0.000038952              -0.000038795               0.999999997              -0.000043629              -0.000042006               0.999999997              -0.000048800              -0.000045455               0.999999997              -0.000054470              -0.000049024               0.999999997              -0.000060591              -0.000052685               0.999999997              -0.000067170              -0.000056488               0.999999997              -0.000074267              -0.000060464               0.999999997              -0.000081912              -0.000064465               0.999999997              -0.000090125              -0.000068476               0.999999997              -0.000000815              -0.000058945               0.999999997              -0.000011193              -0.000052963               0.999999997              -0.000016320              -0.000051773               0.999999997              -0.000019620              -0.000053294               0.999999997              -0.000022516              -0.000056515               0.999999997              -0.000025630              -0.000060837               0.999999997              -0.000029170              -0.000065924               0.999999997              -0.000033199              -0.000071558               0.999999997              -0.000037753              -0.000077663               0.999999997              -0.000042885              -0.000084131               0.999999997              -0.000048547              -0.000090975               0.999999997              -0.000054699              -0.000098145               0.999999997              -0.000061290              -0.000105391               0.999999997              -0.000068327              -0.000113009               0.999999997              -0.000075868              -0.000121044               0.999999997              -0.000083954              -0.000129328               0.999999997              -0.000092605              -0.000137681               0.999999997              -0.000001029              -0.000087633               0.999999997              -0.000009337              -0.000078618               0.999999997              -0.000013432              -0.000077072               0.999999997              -0.000016409              -0.000079614               0.999999997              -0.000019381              -0.000084650               0.999999997              -0.000022754              -0.000091234               0.999999997              -0.000026734              -0.000098905               0.999999997              -0.000031365              -0.000107463               0.999999997              -0.000036626              -0.000116688               0.999999997              -0.000042506              -0.000126448               0.999999997              -0.000048877              -0.000136716               0.999999997              -0.000055726              -0.000147372               0.999999997              -0.000063128              -0.000158323               0.999999997              -0.000071039              -0.000169734               0.999999997              -0.000079457              -0.000181843               0.999999997              -0.000088377              -0.000194465               0.999999997              -0.000097753              -0.000207299               0.999999997              -0.000001231              -0.000115442               0.999999997              -0.000006839              -0.000103434               0.999999997              -0.000009809              -0.000101818               0.999999997              -0.000012536              -0.000105627               0.999999997              -0.000015773              -0.000112545               0.999999997              -0.000019703              -0.000121500               0.999999997              -0.000024438              -0.000131890               0.999999997              -0.000029995              -0.000143363               0.999999997              -0.000036251              -0.000155732               0.999999997              -0.000043105              -0.000168735               0.999999997              -0.000050513              -0.000182329               0.999999997              -0.000058477              -0.000196561               0.999999997              -0.000066976              -0.000211203               0.999999997              -0.000076030              -0.000226437               0.999999997              -0.000085576              -0.000242499               0.999999997              -0.000095516              -0.000259176               0.999999997              -0.000105763              -0.000276140               0.999999997              -0.000001458              -0.000142091               0.999999997              -0.000003821              -0.000127344               0.999999997              -0.000005785              -0.000125937               0.999999997              -0.000008551              -0.000131093               0.999999997              -0.000012334              -0.000140011               0.999999997              -0.000017167              -0.000151370               0.999999997              -0.000022958              -0.000164527               0.999999997              -0.000029640              -0.000178988               0.999999997              -0.000037046              -0.000194440               0.999999997              -0.000045117              -0.000210736               0.999999997              -0.000053776              -0.000227634               0.999999997              -0.000062961              -0.000245266               0.999999997              -0.000072740              -0.000263597               0.999999997              -0.000083025              -0.000282603               0.999999997              -0.000093719              -0.000302390               0.999999997              -0.000104680              -0.000322825               0.999999997              -0.000115799              -0.000343480               0.999999997              -0.000001673              -0.000167325               0.999999997              -0.000000468              -0.000150254               0.999999997              -0.000001732              -0.000149275               0.999999997              -0.000004878              -0.000155878               0.999999997              -0.000009554              -0.000166841               0.999999997              -0.000015513              -0.000180675               0.999999997              -0.000022546              -0.000196588               0.999999997              -0.000030494              -0.000213904               0.999999997              -0.000039262              -0.000232392               0.999999997              -0.000048652              -0.000251887               0.999999997              -0.000058619              -0.000272163               0.999999997              -0.000069067              -0.000293300               0.999999997              -0.000079986              -0.000315486               0.999999997              -0.000091356              -0.000338287               0.999999997              -0.000103061              -0.000361835               0.999999997              -0.000114965              -0.000385911               0.999999997              -0.000127072              -0.000410335               0.999999997              -0.000001789              -0.000190902               0.999999997               0.000002953              -0.000172077               0.999999997               0.000002009              -0.000171695               0.999999997              -0.000001860              -0.000179772               0.999999997              -0.000007655              -0.000192779               0.999999997              -0.000014894              -0.000209052               0.999999997              -0.000023284              -0.000227694               0.999999997              -0.000032643              -0.000247881               0.999999997              -0.000042753              -0.000269429               0.999999997              -0.000053339              -0.000292240               0.999999997              -0.000064443              -0.000316120               0.999999997              -0.000076001              -0.000341097               0.999999997              -0.000088077              -0.000367103               0.999999997              -0.000100505              -0.000393847               0.999999997              -0.000113216              -0.000421210               0.999999997              -0.000126084              -0.000449003               0.999999997              -0.000139126              -0.000477206               0.999999997              -0.000001963              -0.000212377               0.999999997               0.000006251              -0.000192803               0.999999997               0.000005140              -0.000193072               0.999999997               0.000000327              -0.000202575               0.999999997              -0.000006690              -0.000217638               0.999999997              -0.000015243              -0.000236436               0.999999997              -0.000025099              -0.000257803               0.999999997              -0.000035767              -0.000280935               0.999999997              -0.000046999              -0.000305724               0.999999997              -0.000058696              -0.000332061               0.999999997              -0.000070879              -0.000359762               0.999999997              -0.000083614              -0.000388756               0.999999997              -0.000096700              -0.000418808               0.999999997              -0.000110026              -0.000449600               0.999999997              -0.000123513              -0.000480884               0.999999997              -0.000137128              -0.000512525               0.999999997              -0.000150824              -0.000544528               0.999999997              -0.000002422              -0.000232449               0.999999997               0.000008387              -0.000214352               0.999999997               0.000008520              -0.000212510               0.999999997               0.000004606              -0.000219509               0.999999997              -0.000001487              -0.000232024               0.999999997              -0.000009138              -0.000248342               0.999999997              -0.000017920              -0.000267414               0.999999997              -0.000027432              -0.000288411               0.999999997              -0.000037463              -0.000310958               0.999999997              -0.000047914              -0.000334953               0.999999997              -0.000058666              -0.000360325               0.999999997              -0.000069820              -0.000387072               0.999999997              -0.000081255              -0.000415007               0.999999997              -0.000092929              -0.000443884               0.999999997              -0.000104692              -0.000473473               0.999999997              -0.000116427              -0.000503554               0.999999997              -0.000128245              -0.000534017               0.999999997              -0.000002600              -0.000250596               0.999999997               0.000009570              -0.000234947               0.999999997               0.000010984              -0.000232149               0.999999997               0.000008139              -0.000237176               0.999999997               0.000003095              -0.000247443               0.999999997              -0.000003503              -0.000261537               0.999999997              -0.000011098              -0.000278448               0.999999997              -0.000019419              -0.000297437               0.999999997              -0.000028242              -0.000317947               0.999999997              -0.000037518              -0.000339848               0.999999997              -0.000046953              -0.000362976               0.999999997              -0.000056524              -0.000387479               0.999999997              -0.000066215              -0.000413287               0.999999997              -0.000076104              -0.000440163               0.999999997              -0.000086083              -0.000467780               0.999999997              -0.000095981              -0.000496045               0.999999997              -0.000105817              -0.000524828               0.999999997              -0.000002585              -0.000266450               0.999999997               0.000009824              -0.000254083               0.999999997               0.000012266              -0.000251203               0.999999997               0.000010514              -0.000254986               0.999999997               0.000006612              -0.000263502               0.999999997               0.000001260              -0.000275643               0.999999997              -0.000005089              -0.000290649               0.999999997              -0.000012077              -0.000307850               0.999999997              -0.000019723              -0.000326633               0.999999997              -0.000027727              -0.000346694               0.999999997              -0.000035832              -0.000368034               0.999999997              -0.000043800              -0.000390583               0.999999997              -0.000051798              -0.000414372               0.999999997              -0.000059860              -0.000439298               0.999999997              -0.000067851              -0.000465020               0.999999997              -0.000075603              -0.000491424               0.999999997              -0.000083164              -0.000518385               0.999999997              -0.000002382              -0.000279747               0.999999997               0.000009141              -0.000271039               0.999999997               0.000012177              -0.000268820               0.999999997               0.000011367              -0.000271963               0.999999997               0.000008644              -0.000279328               0.999999997               0.000004575              -0.000289943               0.999999997              -0.000000410              -0.000303390               0.999999997              -0.000006093              -0.000318981               0.999999997              -0.000012338              -0.000336310               0.999999997              -0.000019056              -0.000354983               0.999999997              -0.000025768              -0.000374854               0.999999997              -0.000032228              -0.000395867               0.999999997              -0.000038487              -0.000418083               0.999999997              -0.000044712              -0.000441367               0.999999997              -0.000050792              -0.000465561               0.999999997              -0.000056232              -0.000490451               0.999999997              -0.000060930              -0.000515897               0.999999997              -0.000001984              -0.000290289               0.999999997               0.000007606              -0.000285059               0.999999997               0.000010685              -0.000283963               0.999999997               0.000010574              -0.000287057               0.999999997               0.000008812              -0.000293678               0.999999997               0.000005986              -0.000303295               0.999999997               0.000002362              -0.000315464               0.999999997              -0.000001928              -0.000329855               0.999999997              -0.000006691              -0.000345987               0.999999997              -0.000011911              -0.000363509               0.999999997              -0.000017179              -0.000382298               0.999999997              -0.000022174              -0.000402266               0.999999997              -0.000026768              -0.000423408               0.999999997              -0.000031201              -0.000445511               0.999999997              -0.000035261              -0.000468570               0.999999997              -0.000038685              -0.000492412               0.999999997              -0.000041139              -0.000516790               0.999999997              -0.000001416              -0.000297879               0.999999997               0.000005441              -0.000295572               0.999999997               0.000007932              -0.000295615               0.999999997               0.000008141              -0.000298927               0.999999997               0.000007173              -0.000305299               0.999999997               0.000005420              -0.000314326               0.999999997               0.000003088              -0.000325661               0.999999997               0.000000223              -0.000339138               0.999999997              -0.000003067              -0.000354341               0.999999997              -0.000006551              -0.000371111               0.999999997              -0.000010069              -0.000389302               0.999999997              -0.000013504              -0.000408702               0.999999997              -0.000016632              -0.000429227               0.999999997              -0.000019311              -0.000450768               0.999999997              -0.000021640              -0.000473133               0.999999997              -0.000023565              -0.000496189               0.999999997              -0.000024526              -0.000519868               0.999999997              -0.000000740              -0.000302428               0.999999997               0.000002842              -0.000302040               0.999999997               0.000004225              -0.000303003               0.999999997               0.000004442              -0.000306573               0.999999997               0.000004008              -0.000312855               0.999999997               0.000003153              -0.000321598               0.999999997               0.000001998              -0.000332503               0.999999997               0.000000567              -0.000345436               0.999999997              -0.000001104              -0.000360194               0.999999997              -0.000002784              -0.000376623               0.999999997              -0.000004496              -0.000394432               0.999999997              -0.000006351              -0.000413460               0.999999997              -0.000007867              -0.000433625               0.999999997              -0.000009026              -0.000454846               0.999999997              -0.000010269              -0.000476934               0.999999997              -0.000011151              -0.000499791               0.999999997              -0.000011148              -0.000523265               0.999999997               0.000000000              -0.000304000               0.999999997              -0.000000000              -0.000304251               0.999999997               0.000000000              -0.000305516               0.999999997              -0.000000000              -0.000309186               0.999999997              -0.000000000              -0.000315485               0.999999997               0.000000000              -0.000324212               0.999999997              -0.000000000              -0.000334955               0.999999997              -0.000000000              -0.000347644               0.999999997              -0.000000000              -0.000362355               0.999999997              -0.000000000              -0.000378737               0.999999997              -0.000000000              -0.000396355               0.999999997               0.000000000              -0.000415206               0.999999997               0.000000000              -0.000435192               0.999999997               0.000000000              -0.000456258               0.999999997               0.000000000              -0.000478322               0.999999997               0.000000000              -0.000501281               0.999999997               0.000000000              -0.000524790               0.999999997               0.000000594              -0.000000000               0.999999997               0.000012680              -0.000000000               0.999999997               0.000018744               0.000000000               0.999999997               0.000022491              -0.000000000               0.999999997               0.000025513              -0.000000000               0.999999997               0.000028470              -0.000000000               0.999999997               0.000031703              -0.000000000               0.999999997               0.000035329               0.000000000               0.999999997               0.000039400               0.000000000               0.999999997               0.000043923              -0.000000000               0.999999997               0.000048930              -0.000000000               0.999999997               0.000054428               0.000000000               0.999999997               0.000060400               0.000000000               0.999999997               0.000066882               0.000000000               0.999999997               0.000073868               0.000000000               0.999999997               0.000081383               0.000000000               0.999999997               0.000089455               0.000000000               0.999999997               0.000000647              -0.000029636               0.999999997               0.000012306              -0.000026651               0.999999997               0.000018130              -0.000026021               0.999999997               0.000021749              -0.000026746               0.999999997               0.000024727              -0.000028293               0.999999997               0.000027688              -0.000030469               0.999999997               0.000030991              -0.000032973               0.999999997               0.000034757              -0.000035746               0.999999997               0.000038952              -0.000038795               0.999999997               0.000043629              -0.000042006               0.999999997               0.000048800              -0.000045455               0.999999997               0.000054470              -0.000049024               0.999999997               0.000060591              -0.000052685               0.999999997               0.000067170              -0.000056488               0.999999997               0.000074267              -0.000060464               0.999999997               0.000081912              -0.000064465               0.999999997               0.000090125              -0.000068476               0.999999997               0.000000815              -0.000058945               0.999999997               0.000011193              -0.000052963               0.999999997               0.000016320              -0.000051773               0.999999997               0.000019620              -0.000053294               0.999999997               0.000022516              -0.000056515               0.999999997               0.000025630              -0.000060837               0.999999997               0.000029170              -0.000065924               0.999999997               0.000033199              -0.000071558               0.999999997               0.000037753              -0.000077663               0.999999997               0.000042885              -0.000084131               0.999999997               0.000048547              -0.000090975               0.999999997               0.000054699              -0.000098145               0.999999997               0.000061290              -0.000105391               0.999999997               0.000068327              -0.000113009               0.999999997               0.000075868              -0.000121044               0.999999997               0.000083954              -0.000129328               0.999999997               0.000092605              -0.000137681               0.999999997               0.000001029              -0.000087633               0.999999997               0.000009337              -0.000078618               0.999999997               0.000013432              -0.000077072               0.999999997               0.000016409              -0.000079614               0.999999997               0.000019381              -0.000084650               0.999999997               0.000022754              -0.000091234               0.999999997               0.000026734              -0.000098905               0.999999997               0.000031365              -0.000107463               0.999999997               0.000036626              -0.000116688               0.999999997               0.000042506              -0.000126448               0.999999997               0.000048877              -0.000136716               0.999999997               0.000055726              -0.000147372               0.999999997               0.000063128              -0.000158323               0.999999997               0.000071039              -0.000169734               0.999999997               0.000079457              -0.000181843               0.999999997               0.000088377              -0.000194465               0.999999997               0.000097753              -0.000207299               0.999999997               0.000001231              -0.000115442               0.999999997               0.000006839              -0.000103434               0.999999997               0.000009809              -0.000101818               0.999999997               0.000012536              -0.000105627               0.999999997               0.000015773              -0.000112545               0.999999997               0.000019703              -0.000121500               0.999999997               0.000024438              -0.000131890               0.999999997               0.000029995              -0.000143363               0.999999997               0.000036251              -0.000155732               0.999999997               0.000043105              -0.000168735               0.999999997               0.000050513              -0.000182329               0.999999997               0.000058477              -0.000196561               0.999999997               0.000066976              -0.000211203               0.999999997               0.000076030              -0.000226437               0.999999997               0.000085576              -0.000242499               0.999999997               0.000095516              -0.000259176               0.999999997               0.000105763              -0.000276140               0.999999997               0.000001458              -0.000142091               0.999999997               0.000003821              -0.000127344               0.999999997               0.000005785              -0.000125937               0.999999997               0.000008551              -0.000131093               0.999999997               0.000012334              -0.000140011               0.999999997               0.000017167              -0.000151370               0.999999997               0.000022958              -0.000164527               0.999999997               0.000029640              -0.000178988               0.999999997               0.000037046              -0.000194440               0.999999997               0.000045117              -0.000210736               0.999999997               0.000053776              -0.000227634               0.999999997               0.000062961              -0.000245266               0.999999997               0.000072740              -0.000263597               0.999999997               0.000083025              -0.000282603               0.999999997               0.000093719              -0.000302390               0.999999997               0.000104680              -0.000322825               0.999999997               0.000115799              -0.000343480               0.999999997               0.000001673              -0.000167325               0.999999997               0.000000468              -0.000150254               0.999999997               0.000001732              -0.000149275               0.999999997               0.000004878              -0.000155878               0.999999997               0.000009554              -0.000166841               0.999999997               0.000015513              -0.000180675               0.999999997               0.000022546              -0.000196588               0.999999997               0.000030494              -0.000213904               0.999999997               0.000039262              -0.000232392               0.999999997               0.000048652              -0.000251887               0.999999997               0.000058619              -0.000272163               0.999999997               0.000069067              -0.000293300               0.999999997               0.000079986              -0.000315486               0.999999997               0.000091356              -0.000338287               0.999999997               0.000103061              -0.000361835               0.999999997               0.000114965              -0.000385911               0.999999997               0.000127072              -0.000410335               0.999999997               0.000001789              -0.000190902               0.999999997              -0.000002953              -0.000172077               0.999999997              -0.000002009              -0.000171695               0.999999997               0.000001860              -0.000179772               0.999999997               0.000007655              -0.000192779               0.999999997               0.000014894              -0.000209052               0.999999997               0.000023284              -0.000227694               0.999999997               0.000032643              -0.000247881               0.999999997               0.000042753              -0.000269429               0.999999997               0.000053339              -0.000292240               0.999999997               0.000064443              -0.000316120               0.999999997               0.000076001              -0.000341097               0.999999997               0.000088077              -0.000367103               0.999999997               0.000100505              -0.000393847               0.999999997               0.000113216              -0.000421210               0.999999997               0.000126084              -0.000449003               0.999999997               0.000139126              -0.000477206               0.999999997               0.000001963              -0.000212377               0.999999997              -0.000006251              -0.000192803               0.999999997              -0.000005140              -0.000193072               0.999999997              -0.000000327              -0.000202575               0.999999997               0.000006690              -0.000217638               0.999999997               0.000015243              -0.000236436               0.999999997               0.000025099              -0.000257803               0.999999997               0.000035767              -0.000280935               0.999999997               0.000046999              -0.000305724               0.999999997               0.000058696              -0.000332061               0.999999997               0.000070879              -0.000359762               0.999999997               0.000083614              -0.000388756               0.999999997               0.000096700              -0.000418808               0.999999997               0.000110026              -0.000449600               0.999999997               0.000123513              -0.000480884               0.999999997               0.000137128              -0.000512525               0.999999997               0.000150824              -0.000544528               0.999999997               0.000002422              -0.000232449               0.999999997              -0.000008387              -0.000214352               0.999999997              -0.000008520              -0.000212510               0.999999997              -0.000004606              -0.000219509               0.999999997               0.000001487              -0.000232024               0.999999997               0.000009138              -0.000248342               0.999999997               0.000017920              -0.000267414               0.999999997               0.000027432              -0.000288411               0.999999997               0.000037463              -0.000310958               0.999999997               0.000047914              -0.000334953               0.999999997               0.000058666              -0.000360325               0.999999997               0.000069820              -0.000387072               0.999999997               0.000081255              -0.000415007               0.999999997               0.000092929              -0.000443884               0.999999997               0.000104692              -0.000473473               0.999999997               0.000116427              -0.000503554               0.999999997               0.000128245              -0.000534017               0.999999997               0.000002600              -0.000250596               0.999999997              -0.000009570              -0.000234947               0.999999997              -0.000010984              -0.000232149               0.999999997              -0.000008139              -0.000237176               0.999999997              -0.000003095              -0.000247443               0.999999997               0.000003503              -0.000261537               0.999999997               0.000011098              -0.000278448               0.999999997               0.000019419              -0.000297437               0.999999997               0.000028242              -0.000317947               0.999999997               0.000037518              -0.000339848               0.999999997               0.000046953              -0.000362976               0.999999997               0.000056524              -0.000387479               0.999999997               0.000066215              -0.000413287               0.999999997               0.000076104              -0.000440163               0.999999997               0.000086083              -0.000467780               0.999999997               0.000095981              -0.000496045               0.999999997               0.000105817              -0.000524828               0.999999997               0.000002585              -0.000266450               0.999999997              -0.000009824              -0.000254083               0.999999997              -0.000012266              -0.000251203               0.999999997              -0.000010514              -0.000254986               0.999999997              -0.000006612              -0.000263502               0.999999997              -0.000001260              -0.000275643               0.999999997               0.000005089              -0.000290649               0.999999997               0.000012077              -0.000307850               0.999999997               0.000019723              -0.000326633               0.999999997               0.000027727              -0.000346694               0.999999997               0.000035832              -0.000368034               0.999999997               0.000043800              -0.000390583               0.999999997               0.000051798              -0.000414372               0.999999997               0.000059860              -0.000439298               0.999999997               0.000067851              -0.000465020               0.999999997               0.000075603              -0.000491424               0.999999997               0.000083164              -0.000518385               0.999999997               0.000002382              -0.000279747               0.999999997              -0.000009141              -0.000271039               0.999999997              -0.000012177              -0.000268820               0.999999997              -0.000011367              -0.000271963               0.999999997              -0.000008644              -0.000279328               0.999999997              -0.000004575              -0.000289943               0.999999997               0.000000410              -0.000303390               0.999999997               0.000006093              -0.000318981               0.999999997               0.000012338              -0.000336310               0.999999997               0.000019056              -0.000354983               0.999999997               0.000025768              -0.000374854               0.999999997               0.000032228              -0.000395867               0.999999997               0.000038487              -0.000418083               0.999999997               0.000044712              -0.000441367               0.999999997               0.000050792              -0.000465561               0.999999997               0.000056232              -0.000490451               0.999999997               0.000060930              -0.000515897               0.999999997               0.000001984              -0.000290289               0.999999997              -0.000007606              -0.000285059               0.999999997              -0.000010685              -0.000283963               0.999999997              -0.000010574              -0.000287057               0.999999997              -0.000008812              -0.000293678               0.999999997              -0.000005986              -0.000303295               0.999999997              -0.000002362              -0.000315464               0.999999997               0.000001928              -0.000329855               0.999999997               0.000006691              -0.000345987               0.999999997               0.000011911              -0.000363509               0.999999997               0.000017179              -0.000382298               0.999999997               0.000022174              -0.000402266               0.999999997               0.000026768              -0.000423408               0.999999997               0.000031201              -0.000445511               0.999999997               0.000035261              -0.000468570               0.999999997               0.000038685              -0.000492412               0.999999997               0.000041139              -0.000516790               0.999999997               0.000001416              -0.000297879               0.999999997              -0.000005441              -0.000295572               0.999999997              -0.000007932              -0.000295615               0.999999997              -0.000008141              -0.000298927               0.999999997              -0.000007173              -0.000305299               0.999999997              -0.000005420              -0.000314326               0.999999997              -0.000003088              -0.000325661               0.999999997              -0.000000223              -0.000339138               0.999999997               0.000003067              -0.000354341               0.999999997               0.000006551              -0.000371111               0.999999997               0.000010069              -0.000389302               0.999999997               0.000013504              -0.000408702               0.999999997               0.000016632              -0.000429227               0.999999997               0.000019311              -0.000450768               0.999999997               0.000021640              -0.000473133               0.999999997               0.000023565              -0.000496189               0.999999997               0.000024526              -0.000519868               0.999999997               0.000000740              -0.000302428               0.999999997              -0.000002842              -0.000302040               0.999999997              -0.000004225              -0.000303003               0.999999997              -0.000004442              -0.000306573               0.999999997              -0.000004008              -0.000312855               0.999999997              -0.000003153              -0.000321598               0.999999997              -0.000001998              -0.000332503               0.999999997              -0.000000567              -0.000345436               0.999999997               0.000001104              -0.000360194               0.999999997               0.000002784              -0.000376623               0.999999997               0.000004496              -0.000394432               0.999999997               0.000006351              -0.000413460               0.999999997               0.000007867              -0.000433625               0.999999997               0.000009026              -0.000454846               0.999999997               0.000010269              -0.000476934               0.999999997               0.000011151              -0.000499791               0.999999997               0.000011148              -0.000523265               0.999999997               0.000000000              -0.000304000               0.999999997              -0.000000000              -0.000304251               0.999999997               0.000000000              -0.000305516               0.999999997              -0.000000000              -0.000309186               0.999999997              -0.000000000              -0.000315485               0.999999997               0.000000000              -0.000324212               0.999999997              -0.000000000              -0.000334955               0.999999997              -0.000000000              -0.000347644               0.999999997              -0.000000000              -0.000362355               0.999999997              -0.000000000              -0.000378737               0.999999997              -0.000000000              -0.000396355               0.999999997               0.000000000              -0.000415206               0.999999997               0.000000000              -0.000435192               0.999999997               0.000000000              -0.000456258               0.999999997               0.000000000              -0.000478322               0.999999997               0.000000000              -0.000501281               0.999999997               0.000000000              -0.000524790               0.999999997               0.000000594              -0.000000000               0.999999997               0.000012680              -0.000000000               0.999999997               0.000018744               0.000000000               0.999999997               0.000022491              -0.000000000               0.999999997               0.000025513              -0.000000000               0.999999997               0.000028470              -0.000000000               0.999999997               0.000031703              -0.000000000               0.999999997               0.000035329               0.000000000               0.999999997               0.000039400               0.000000000               0.999999997               0.000043923              -0.000000000               0.999999997               0.000048930              -0.000000000               0.999999997               0.000054428               0.000000000               0.999999997               0.000060400               0.000000000               0.999999997               0.000066882               0.000000000               0.999999997               0.000073868               0.000000000               0.999999997               0.000081383               0.000000000               0.999999997               0.000089455               0.000000000               0.999999997               0.000000647               0.000029636               0.999999997               0.000012306               0.000026651               0.999999997               0.000018130               0.000026021               0.999999997               0.000021749               0.000026746               0.999999997               0.000024727               0.000028293               0.999999997               0.000027688               0.000030469               0.999999997               0.000030991               0.000032973               0.999999997               0.000034757               0.000035746               0.999999997               0.000038952               0.000038795               0.999999997               0.000043629               0.000042006               0.999999997               0.000048800               0.000045455               0.999999997               0.000054470               0.000049024               0.999999997               0.000060591               0.000052685               0.999999997               0.000067170               0.000056488               0.999999997               0.000074267               0.000060464               0.999999997               0.000081912               0.000064465               0.999999997               0.000090125               0.000068476               0.999999997               0.000000815               0.000058945               0.999999997               0.000011193               0.000052963               0.999999997               0.000016320               0.000051773               0.999999997               0.000019620               0.000053294               0.999999997               0.000022516               0.000056515               0.999999997               0.000025630               0.000060837               0.999999997               0.000029170               0.000065924               0.999999997               0.000033199               0.000071558               0.999999997               0.000037753               0.000077663               0.999999997               0.000042885               0.000084131               0.999999997               0.000048547               0.000090975               0.999999997               0.000054699               0.000098145               0.999999997               0.000061290               0.000105391               0.999999997               0.000068327               0.000113009               0.999999997               0.000075868               0.000121044               0.999999997               0.000083954               0.000129328               0.999999997               0.000092605               0.000137681               0.999999997               0.000001029               0.000087633               0.999999997               0.000009337               0.000078618               0.999999997               0.000013432               0.000077072               0.999999997               0.000016409               0.000079614               0.999999997               0.000019381               0.000084650               0.999999997               0.000022754               0.000091234               0.999999997               0.000026734               0.000098905               0.999999997               0.000031365               0.000107463               0.999999997               0.000036626               0.000116688               0.999999997               0.000042506               0.000126448               0.999999997               0.000048877               0.000136716               0.999999997               0.000055726               0.000147372               0.999999997               0.000063128               0.000158323               0.999999997               0.000071039               0.000169734               0.999999997               0.000079457               0.000181843               0.999999997               0.000088377               0.000194465               0.999999997               0.000097753               0.000207299               0.999999997               0.000001231               0.000115442               0.999999997               0.000006839               0.000103434               0.999999997               0.000009809               0.000101818               0.999999997               0.000012536               0.000105627               0.999999997               0.000015773               0.000112545               0.999999997               0.000019703               0.000121500               0.999999997               0.000024438               0.000131890               0.999999997               0.000029995               0.000143363               0.999999997               0.000036251               0.000155732               0.999999997               0.000043105               0.000168735               0.999999997               0.000050513               0.000182329               0.999999997               0.000058477               0.000196561               0.999999997               0.000066976               0.000211203               0.999999997               0.000076030               0.000226437               0.999999997               0.000085576               0.000242499               0.999999997               0.000095516               0.000259176               0.999999997               0.000105763               0.000276140               0.999999997               0.000001458               0.000142091               0.999999997               0.000003821               0.000127344               0.999999997               0.000005785               0.000125937               0.999999997               0.000008551               0.000131093               0.999999997               0.000012334               0.000140011               0.999999997               0.000017167               0.000151370               0.999999997               0.000022958               0.000164527               0.999999997               0.000029640               0.000178988               0.999999997               0.000037046               0.000194440               0.999999997               0.000045117               0.000210736               0.999999997               0.000053776               0.000227634               0.999999997               0.000062961               0.000245266               0.999999997               0.000072740               0.000263597               0.999999997               0.000083025               0.000282603               0.999999997               0.000093719               0.000302390               0.999999997               0.000104680               0.000322825               0.999999997               0.000115799               0.000343480               0.999999997               0.000001673               0.000167325               0.999999997               0.000000468               0.000150254               0.999999997               0.000001732               0.000149275               0.999999997               0.000004878               0.000155878               0.999999997               0.000009554               0.000166841               0.999999997               0.000015513               0.000180675               0.999999997               0.000022546               0.000196588               0.999999997               0.000030494               0.000213904               0.999999997               0.000039262               0.000232392               0.999999997               0.000048652               0.000251887               0.999999997               0.000058619               0.000272163               0.999999997               0.000069067               0.000293300               0.999999997               0.000079986               0.000315486               0.999999997               0.000091356               0.000338287               0.999999997               0.000103061               0.000361835               0.999999997               0.000114965               0.000385911               0.999999997               0.000127072               0.000410335               0.999999997               0.000001789               0.000190902               0.999999997              -0.000002953               0.000172077               0.999999997              -0.000002009               0.000171695               0.999999997               0.000001860               0.000179772               0.999999997               0.000007655               0.000192779               0.999999997               0.000014894               0.000209052               0.999999997               0.000023284               0.000227694               0.999999997               0.000032643               0.000247881               0.999999997               0.000042753               0.000269429               0.999999997               0.000053339               0.000292240               0.999999997               0.000064443               0.000316120               0.999999997               0.000076001               0.000341097               0.999999997               0.000088077               0.000367103               0.999999997               0.000100505               0.000393847               0.999999997               0.000113216               0.000421210               0.999999997               0.000126084               0.000449003               0.999999997               0.000139126               0.000477206               0.999999997               0.000001963               0.000212377               0.999999997              -0.000006251               0.000192803               0.999999997              -0.000005140               0.000193072               0.999999997              -0.000000327               0.000202575               0.999999997               0.000006690               0.000217638               0.999999997               0.000015243               0.000236436               0.999999997               0.000025099               0.000257803               0.999999997               0.000035767               0.000280935               0.999999997               0.000046999               0.000305724               0.999999997               0.000058696               0.000332061               0.999999997               0.000070879               0.000359762               0.999999997               0.000083614               0.000388756               0.999999997               0.000096700               0.000418808               0.999999997               0.000110026               0.000449600               0.999999997               0.000123513               0.000480884               0.999999997               0.000137128               0.000512525               0.999999997               0.000150824               0.000544528               0.999999997               0.000002422               0.000232449               0.999999997              -0.000008387               0.000214352               0.999999997              -0.000008520               0.000212510               0.999999997              -0.000004606               0.000219509               0.999999997               0.000001487               0.000232024               0.999999997               0.000009138               0.000248342               0.999999997               0.000017920               0.000267414               0.999999997               0.000027432               0.000288411               0.999999997               0.000037463               0.000310958               0.999999997               0.000047914               0.000334953               0.999999997               0.000058666               0.000360325               0.999999997               0.000069820               0.000387072               0.999999997               0.000081255               0.000415007               0.999999997               0.000092929               0.000443884               0.999999997               0.000104692               0.000473473               0.999999997               0.000116427               0.000503554               0.999999997               0.000128245               0.000534017               0.999999997               0.000002600               0.000250596               0.999999997              -0.000009570               0.000234947               0.999999997              -0.000010984               0.000232149               0.999999997              -0.000008139               0.000237176               0.999999997              -0.000003095               0.000247443               0.999999997               0.000003503               0.000261537               0.999999997               0.000011098               0.000278448               0.999999997               0.000019419               0.000297437               0.999999997               0.000028242               0.000317947               0.999999997               0.000037518               0.000339848               0.999999997               0.000046953               0.000362976               0.999999997               0.000056524               0.000387479               0.999999997               0.000066215               0.000413287               0.999999997               0.000076104               0.000440163               0.999999997               0.000086083               0.000467780               0.999999997               0.000095981               0.000496045               0.999999997               0.000105817               0.000524828               0.999999997               0.000002585               0.000266450               0.999999997              -0.000009824               0.000254083               0.999999997              -0.000012266               0.000251203               0.999999997              -0.000010514               0.000254986               0.999999997              -0.000006612               0.000263502               0.999999997              -0.000001260               0.000275643               0.999999997               0.000005089               0.000290649               0.999999997               0.000012077               0.000307850               0.999999997               0.000019723               0.000326633               0.999999997               0.000027727               0.000346694               0.999999997               0.000035832               0.000368034               0.999999997               0.000043800               0.000390583               0.999999997               0.000051798               0.000414372               0.999999997               0.000059860               0.000439298               0.999999997               0.000067851               0.000465020               0.999999997               0.000075603               0.000491424               0.999999997               0.000083164               0.000518385               0.999999997               0.000002382               0.000279747               0.999999997              -0.000009141               0.000271039               0.999999997              -0.000012177               0.000268820               0.999999997              -0.000011367               0.000271963               0.999999997              -0.000008644               0.000279328               0.999999997              -0.000004575               0.000289943               0.999999997               0.000000410               0.000303390               0.999999997               0.000006093               0.000318981               0.999999997               0.000012338               0.000336310               0.999999997               0.000019056               0.000354983               0.999999997               0.000025768               0.000374854               0.999999997               0.000032228               0.000395867               0.999999997               0.000038487               0.000418083               0.999999997               0.000044712               0.000441367               0.999999997               0.000050792               0.000465561               0.999999997               0.000056232               0.000490451               0.999999997               0.000060930               0.000515897               0.999999997               0.000001984               0.000290289               0.999999997              -0.000007606               0.000285059               0.999999997              -0.000010685               0.000283963               0.999999997              -0.000010574               0.000287057               0.999999997              -0.000008812               0.000293678               0.999999997              -0.000005986               0.000303295               0.999999997              -0.000002362               0.000315464               0.999999997               0.000001928               0.000329855               0.999999997               0.000006691               0.000345987               0.999999997               0.000011911               0.000363509               0.999999997               0.000017179               0.000382298               0.999999997               0.000022174               0.000402266               0.999999997               0.000026768               0.000423408               0.999999997               0.000031201               0.000445511               0.999999997               0.000035261               0.000468570               0.999999997               0.000038685               0.000492412               0.999999997               0.000041139               0.000516790               0.999999997               0.000001416               0.000297879               0.999999997              -0.000005441               0.000295572               0.999999997              -0.000007932               0.000295615               0.999999997              -0.000008141               0.000298927               0.999999997              -0.000007173               0.000305299               0.999999997              -0.000005420               0.000314326               0.999999997              -0.000003088               0.000325661               0.999999997              -0.000000223               0.000339138               0.999999997               0.000003067               0.000354341               0.999999997               0.000006551               0.000371111               0.999999997               0.000010069               0.000389302               0.999999997               0.000013504               0.000408702               0.999999997               0.000016632               0.000429227               0.999999997               0.000019311               0.000450768               0.999999997               0.000021640               0.000473133               0.999999997               0.000023565               0.000496189               0.999999997               0.000024526               0.000519868               0.999999997               0.000000740               0.000302428               0.999999997              -0.000002842               0.000302040               0.999999997              -0.000004225               0.000303003               0.999999997              -0.000004442               0.000306573               0.999999997              -0.000004008               0.000312855               0.999999997              -0.000003153               0.000321598               0.999999997              -0.000001998               0.000332503               0.999999997              -0.000000567               0.000345436               0.999999997               0.000001104               0.000360194               0.999999997               0.000002784               0.000376623               0.999999997               0.000004496               0.000394432               0.999999997               0.000006351               0.000413460               0.999999997               0.000007867               0.000433625               0.999999997               0.000009026               0.000454846               0.999999997               0.000010269               0.000476934               0.999999997               0.000011151               0.000499791               0.999999997               0.000011148               0.000523265               0.999999997               0.000000000               0.000304000               0.999999997               0.000000000               0.000304251               0.999999997               0.000000000               0.000305516               0.999999997              -0.000000000               0.000309186               0.999999997              -0.000000000               0.000315485               0.999999997              -0.000000000               0.000324212               0.999999997               0.000000000               0.000334955               0.999999997               0.000000000               0.000347644               0.999999997              -0.000000000               0.000362355               0.999999997              -0.000000000               0.000378737               0.999999997               0.000000000               0.000396355               0.999999997              -0.000000000               0.000415206               0.999999997              -0.000000000               0.000435192               0.999999997              -0.000000000               0.000456258               0.999999997               0.000000000               0.000478322               0.999999997               0.000000000               0.000501281               0.999999997               0.000000000               0.000524790               0.999999997 </DataArray>
<DataArray type="Float64"                                    Name="defo"                                                      NumberOfComponents=" 3" format="ascii">
             -0.000000594              -0.000000000               0.999999997              -0.000012680               0.000000000               0.999999997              -0.000018744               0.000000000               0.999999997              -0.000022491              -0.000000000               0.999999997              -0.000025513               0.000000000               0.999999997              -0.000028470              -0.000000000               0.999999997              -0.000031703              -0.000000000               0.999999997              -0.000035329               0.000000000               0.999999997              -0.000039400               0.000000000               0.999999997              -0.000043923               0.000000000               0.999999997              -0.000048930              -0.000000000               0.999999997              -0.000054428               0.000000000               0.999999997              -0.000060400              -0.000000000               0.999999997              -0.000066882              -0.000000000               0.999999997              -0.000073868              -0.000000000               0.999999997              -0.000081383              -0.000000000               0.999999997              -0.000089455              -0.000000000               0.999999997              -0.000000647               0.000029636               0.999999997              -0.000012306               0.000026651               0.999999997              -0.000018130               0.000026021               0.999999997              -0.000021749               0.000026746               0.999999997              -0.000024727               0.000028293               0.999999997              -0.000027688               0.000030469               0.999999997              -0.000030991               0.000032973               0.999999997              -0.000034757               0.000035746               0.999999997              -0.000038952               0.000038795               0.999999997              -0.000043629               0.000042006               0.999999997              -0.000048800               0.000045455               0.999999997              -0.000054470               0.000049024               0.999999997              -0.000060591               0.000052685               0.999999997              -0.000067170               0.000056488               0.999999997              -0.000074267               0.000060464               0.999999997              -0.000081912               0.000064465               0.999999997              -0.000090125               0.000068476               0.999999997              -0.000000815               0.000058945               0.999999997              -0.000011193               0.000052963               0.999999997              -0.000016320               0.000051773               0.999999997              -0.000019620               0.000053294               0.999999997              -0.000022516               0.000056515               0.999999997              -0.000025630               0.000060837               0.999999997              -0.000029170               0.000065924               0.999999997              -0.000033199               0.000071558               0.999999997              -0.000037753               0.000077663               0.999999997              -0.000042885               0.000084131               0.999999997              -0.000048547               0.000090975               0.999999997              -0.000054699               0.000098145               0.999999997              -0.000061290               0.000105391               0.999999997              -0.000068327               0.000113009               0.999999997              -0.000075868               0.000121044               0.999999997              -0.000083954               0.000129328               0.999999997              -0.000092605               0.000137681               0.999999997              -0.000001029               0.000087633               0.999999997              -0.000009337               0.000078618               0.999999997              -0.000013432               0.000077072               0.999999997              -0.000016409               0.000079614               0.999999997              -0.000019381               0.000084650               0.999999997              -0.000022754               0.000091234               0.999999997              -0.000026734               0.000098905               0.999999997              -0.000031365               0.000107463               0.999999997              -0.000036626               0.000116688               0.999999997              -0.000042506               0.000126448               0.999999997              -0.000048877               0.000136716               0.999999997              -0.000055726               0.000147372               0.999999997              -0.000063128               0.000158323               0.999999997              -0.000071039               0.000169734               0.999999997              -0.000079457               0.000181843               0.999999997              -0.000088377               0.000194465               0.999999997              -0.000097753               0.000207299               0.999999997              -0.000001231               0.000115442               0.999999997              -0.000006839               0.000103434               0.999999997              -0.000009809               0.000101818               0.999999997              -0.000012536               0.000105627               0.999999997              -0.000015773               0.000112545               0.999999997              -0.000019703               0.000121500               0.999999997              -0.000024438               0.000131890               0.999999997              -0.000029995               0.000143363               0.999999997              -0.000036251               0.000155732               0.999999997              -0.000043105               0.000168735               0.999999997              -0.000050513               0.000182329               0.999999997              -0.000058477               0.000196561               0.999999997              -0.000066976               0.000211203               0.999999997              -0.000076030               0.000226437               0.999999997              -0.000085576               0.000242499               0.999999997              -0.000095516               0.000259176               0.999999997              -0.000105763               0.000276140               0.999999997              -0.000001458               0.000142091               0.999999997              -0.000003821               0.000127344               0.999999997              -0.000005785               0.000125937               0.999999997              -0.000008551               0.000131093               0.999999997              -0.000012334               0.000140011               0.999999997              -0.000017167               0.000151370               0.999999997              -0.000022958               0.000164527               0.999999997              -0.000029640               0.000178988               0.999999997              -0.000037046               0.000194440               0.999999997              -0.000045117               0.000210736               0.999999997              -0.000053776               0.000227634               0.999999997              -0.000062961               0.000245266               0.999999997              -0.000072740               0.000263597               0.999999997              -0.000083025               0.000282603               0.999999997              -0.000093719               0.000302390               0.999999997              -0.000104680               0.000322825               0.999999997              -0.000115799               0.000343480               0.999999997              -0.000001673               0.000167325               0.999999997              -0.000000468               0.000150254               0.999999997              -0.000001732               0.000149275               0.999999997              -0.000004878               0.000155878               0.999999997              -0.000009554               0.000166841               0.999999997              -0.000015513               0.000180675               0.999999997              -0.000022546               0.000196588               0.999999997              -0.000030494               0.000213904               0.999999997              -0.000039262               0.000232392               0.999999997              -0.000048652               0.000251887               0.999999997              -0.000058619               0.000272163               0.999999997              -0.000069067               0.000293300               0.999999997              -0.000079986               0.000315486               0.999999997              -0.000091356               0.000338287               0.999999997              -0.000103061               0.000361835               0.999999997              -0.000114965               0.000385911               0.999999997              -0.000127072               0.000410335               0.999999997              -0.000001789               0.000190902               0.999999997               0.000002953               0.000172077               0.999999997               0.000002009               0.000171695               0.999999997              -0.000001860               0.000179772               0.999999997              -0.000007655               0.000192779               0.999999997              -0.000014894               0.000209052               0.999999997              -0.000023284               0.000227694               0.999999997              -0.000032643               0.000247881               0.999999997              -0.000042753               0.000269429               0.999999997              -0.000053339               0.000292240               0.999999997              -0.000064443               0.000316120               0.999999997              -0.000076001               0.000341097               0.999999997              -0.000088077               0.000367103               0.999999997              -0.000100505               0.000393847               0.999999997              -0.000113216               0.000421210               0.999999997              -0.000126084               0.000449003               0.999999997              -0.000139126               0.000477206               0.999999997              -0.000001963               0.000212377               0.999999997               0.000006251               0.000192803               0.999999997               0.000005140               0.000193072               0.999999997               0.000000327               0.000202575               0.999999997              -0.000006690               0.000217638               0.999999997              -0.000015243               0.000236436               0.999999997              -0.000025099               0.000257803               0.999999997              -0.000035767               0.000280935               0.999999997              -0.000046999               0.000305724               0.999999997              -0.000058696               0.000332061               0.999999997              -0.000070879               0.000359762               0.999999997              -0.000083614               0.000388756               0.999999997              -0.000096700               0.000418808               0.999999997              -0.000110026               0.000449600               0.999999997              -0.000123513               0.000480884               0.999999997              -0.000137128               0.000512525               0.999999997              -0.000150824               0.000544528               0.999999997              -0.000002422               0.000232449               0.999999997               0.000008387               0.000214352               0.999999997               0.000008520               0.000212510               0.999999997               0.000004606               0.000219509               0.999999997              -0.000001487               0.000232024               0.999999997              -0.000009138               0.000248342               0.999999997              -0.000017920               0.000267414               0.999999997              -0.000027432               0.000288411               0.999999997              -0.000037463               0.000310958               0.999999997              -0.000047914               0.000334953               0.999999997              -0.000058666               0.000360325               0.999999997              -0.000069820               0.000387072               0.999999997              -0.000081255               0.000415007               0.999999997              -0.000092929               0.000443884               0.999999997              -0.000104692               0.000473473               0.999999997              -0.000116427               0.000503554               0.999999997              -0.000128245               0.000534017               0.999999997              -0.000002600               0.000250596               0.999999997               0.000009570               0.000234947               0.999999997               0.000010984               0.000232149               0.999999997               0.000008139               0.000237176               0.999999997               0.000003095               0.000247443               0.999999997              -0.000003503               0.000261537               0.999999997              -0.000011098               0.000278448               0.999999997              -0.000019419               0.000297437               0.999999997              -0.000028242               0.000317947               0.999999997              -0.000037518               0.000339848               0.999999997              -0.000046953               0.000362976               0.999999997              -0.000056524               0.000387479               0.999999997              -0.000066215               0.000413287               0.999999997              -0.000076104               0.000440163               0.999999997              -0.000086083               0.000467780               0.999999997              -0.000095981               0.000496045               0.999999997              -0.000105817               0.000524828               0.999999997              -0.000002585               0.000266450               0.999999997               0.000009824               0.000254083               0.999999997               0.000012266               0.000251203               0.999999997               0.000010514               0.000254986               0.999999997               0.000006612               0.000263502               0.999999997               0.000001260               0.000275643               0.999999997              -0.000005089               0.000290649               0.999999997              -0.000012077               0.000307850               0.999999997              -0.000019723               0.000326633               0.999999997              -0.000027727               0.000346694               0.999999997              -0.000035832               0.000368034               0.999999997              -0.000043800               0.000390583               0.999999997              -0.000051798               0.000414372               0.999999997              -0.000059860               0.000439298               0.999999997              -0.000067851               0.000465020               0.999999997              -0.000075603               0.000491424               0.999999997              -0.000083164               0.000518385               0.999999997              -0.000002382               0.000279747               0.999999997               0.000009141               0.000271039               0.999999997               0.000012177               0.000268820               0.999999997               0.000011367               0.000271963               0.999999997               0.000008644               0.000279328               0.999999997               0.000004575               0.000289943               0.999999997              -0.000000410               0.000303390               0.999999997              -0.000006093               0.000318981               0.999999997              -0.000012338               0.000336310               0.999999997              -0.000019056               0.000354983               0.999999997              -0.000025768               0.000374854               0.999999997              -0.000032228               0.000395867               0.999999997              -0.000038487               0.000418083               0.999999997              -0.000044712               0.000441367               0.999999997              -0.000050792               0.000465561               0.999999997              -0.000056232               0.000490451               0.999999997              -0.000060930               0.000515897               0.999999997              -0.000001984               0.000290289               0.999999997               0.000007606               0.000285059               0.999999997               0.000010685               0.000283963               0.999999997               0.000010574               0.000287057               0.999999997               0.000008812               0.000293678               0.999999997               0.000005986               0.000303295               0.999999997               0.000002362               0.000315464               0.999999997              -0.000001928               0.000329855               0.999999997              -0.000006691               0.000345987               0.999999997              -0.000011911               0.000363509               0.999999997              -0.000017179               0.000382298               0.999999997              -0.000022174               0.000402266               0.999999997              -0.000026768               0.000423408               0.999999997              -0.000031201               0.000445511               0.999999997              -0.000035261               0.000468570               0.999999997              -0.000038685               0.000492412               0.999999997              -0.000041139               0.000516790               0.999999997              -0.000001416               0.000297879               0.999999997               0.000005441               0.000295572               0.999999997               0.000007932               0.000295615               0.999999997               0.000008141               0.000298927               0.999999997               0.000007173               0.000305299               0.999999997               0.000005420               0.000314326               0.999999997               0.000003088               0.000325661               0.999999997               0.000000223               0.000339138               0.999999997              -0.000003067               0.000354341               0.999999997              -0.000006551               0.000371111               0.999999997              -0.000010069               0.000389302               0.999999997              -0.000013504               0.000408702               0.999999997              -0.000016632               0.000429227               0.999999997              -0.000019311               0.000450768               0.999999997              -0.000021640               0.000473133               0.999999997              -0.000023565               0.000496189               0.999999997              -0.000024526               0.000519868               0.999999997              -0.000000740               0.000302428               0.999999997               0.000002842               0.000302040               0.999999997               0.000004225               0.000303003               0.999999997               0.000004442               0.000306573               0.999999997               0.000004008               0.000312855               0.999999997               0.000003153               0.000321598               0.999999997               0.000001998               0.000332503               0.999999997               0.000000567               0.000345436               0.999999997              -0.000001104               0.000360194               0.999999997              -0.000002784               0.000376623               0.999999997              -0.000004496               0.000394432               0.999999997              -0.000006351               0.000413460               0.999999997              -0.000007867               0.000433625               0.999999997              -0.000009026               0.000454846               0.999999997              -0.000010269               0.000476934               0.999999997              -0.000011151               0.000499791               0.999999997              -0.000011148               0.000523265               0.999999997               0.000000000               0.000304000               0.999999997               0.000000000               0.000304251               0.999999997               0.000000000               0.000305516               0.999999997              -0.000000000               0.000309186               0.999999997              -0.000000000               0.000315485               0.999999997              -0.000000000               0.000324212               0.999999997               0.000000000               0.000334955               0.999999997               0.000000000               0.000347644               0.999999997              -0.000000000               0.000362355               0.999999997              -0.000000000               0.000378737               0.999999997               0.000000000               0.000396355               0.999999997              -0.000000000               0.000415206               0.999999997              -0.000000000               0.000435192               0.999999997              -0.000000000               0.000456258               0.999999997               0.000000000               0.000478322               0.999999997               0.000000000               0.000501281               0.999999997               0.000000000               0.000524790               0.999999997              -0.000000594              -0.000000000               0.999999997              -0.000012680               0.000000000               0.999999997              -0.000018744               0.000000000               0.999999997              -0.000022491              -0.000000000               0.999999997              -0.000025513               0.000000000               0.999999997              -0.000028470              -0.000000000               0.999999997              -0.000031703              -0.000000000               0.999999997              -0.000035329               0.000000000               0.999999997              -0.000039400               0.000000000               0.999999997              -0.000043923               0.000000000               0.999999997              -0.000048930              -0.000000000               0.999999997              -0.000054428               0.000000000               0.999999997              -0.000060400              -0.000000000               0.999999997              -0.000066882              -0.000000000               0.999999997              -0.000073868              -0.000000000               0.999999997              -0.000081383              -0.000000000               0.999999997              -0.000089455              -0.000000000               0.999999997              -0.000000647              -0.000029636               0.999999997              -0.000012306              -0.000026651               0.999999997              -0.000018130              -0.000026021               0.999999997              -0.000021749              -0.000026746               0.999999997              -0.000024727              -0.000028293               0.999999997              -0.000027688              -0.000030469               0.999999997              -0.000030991              -0.000032973               0.999999997              -0.000034757              -0.000035746               0.999999997              -0.000038952              -0.000038795               0.999999997              -0.000043629              -0.000042006               0.999999997              -0.000048800              -0.000045455               0.999999997              -0.000054470              -0.000049024               0.999999997              -0.000060591              -0.000052685               0.999999997              -0.000067170              -0.000056488               0.999999997              -0.000074267              -0.000060464               0.999999997              -0.000081912              -0.000064465               0.999999997              -0.000090125              -0.000068476               0.999999997              -0.000000815              -0.000058945               0.999999997              -0.000011193              -0.000052963               0.999999997              -0.000016320              -0.000051773               0.999999997              -0.000019620              -0.000053294               0.999999997              -0.000022516              -0.000056515               0.999999997              -0.000025630              -0.000060837               0.999999997              -0.000029170              -0.000065924               0.999999997              -0.000033199              -0.000071558               0.999999997              -0.000037753              -0.000077663               0.999999997              -0.000042885              -0.000084131               0.999999997              -0.000048547              -0.000090975               0.999999997              -0.000054699              -0.000098145               0.999999997              -0.000061290              -0.000105391               0.999999997              -0.000068327              -0.000113009               0.999999997              -0.000075868              -0.000121044               0.999999997              -0.000083954              -0.000129328               0.999999997              -0.000092605              -0.000137681               0.999999997              -0.000001029              -0.000087633               0.999999997              -0.000009337              -0.000078618               0.999999997              -0.000013432              -0.000077072               0.999999997              -0.000016409              -0.000079614               0.999999997              -0.000019381              -0.000084650               0.999999997              -0.000022754              -0.000091234               0.999999997              -0.000026734              -0.000098905               0.999999997              -0.000031365              -0.000107463               0.999999997              -0.000036626              -0.000116688               0.999999997              -0.000042506              -0.000126448               0.999999997              -0.000048877              -0.000136716               0.999999997              -0.000055726              -0.000147372               0.999999997              -0.000063128              -0.000158323               0.999999997              -0.000071039              -0.000169734               0.999999997              -0.000079457              -0.000181843               0.999999997              -0.000088377              -0.000194465               0.999999997              -0.000097753              -0.000207299               0.999999997              -0.000001231              -0.000115442               0.999999997              -0.000006839              -0.000103434               0.999999997              -0.000009809              -0.000101818               0.999999997              -0.000012536              -0.000105627               0.999999997              -0.000015773              -0.000112545               0.999999997              -0.000019703              -0.000121500               0.999999997              -0.000024438              -0.000131890               0.999999997              -0.000029995              -0.000143363               0.999999997              -0.000036251              -0.000155732               0.999999997              -0.000043105              -0.000168735               0.999999997              -0.000050513              -0.000182329               0.999999997              -0.000058477              -0.000196561               0.999999997              -0.000066976              -0.000211203               0.999999997              -0.000076030              -0.000226437               0.999999997              -0.000085576              -0.000242499               0.999999997              -0.000095516              -0.000259176               0.999999997              -0.000105763              -0.000276140               0.999999997              -0.000001458              -0.000142091               0.999999997              -0.000003821              -0.000127344               0.999999997              -0.000005785              -0.000125937               0.999999997              -0.000008551              -0.000131093               0.999999997              -0.000012334              -0.000140011               0.999999997              -0.000017167              -0.000151370               0.999999997              -0.000022958              -0.000164527               0.999999997              -0.000029640              -0.000178988               0.999999997              -0.000037046              -0.000194440               0.999999997              -0.000045117              -0.000210736               0.999999997              -0.000053776              -0.000227634               0.999999997              -0.000062961              -0.000245266               0.999999997              -0.000072740              -0.000263597               0.999999997              -0.000083025              -0.000282603               0.999999997              -0.000093719              -0.000302390               0.999999997              -0.000104680              -0.000322825               0.999999997              -0.000115799              -0.000343480               0.999999997              -0.000001673              -0.000167325               0.999999997              -0.000000468              -0.000150254               0.999999997              -0.000001732              -0.000149275               0.999999997              -0.000004878              -0.000155878               0.999999997              -0.000009554              -0.000166841               0.999999997              -0.000015513              -0.000180675               0.999999997              -0.000022546              -0.000196588               0.999999997              -0.000030494              -0.000213904               0.999999997              -0.000039262              -0.000232392               0.999999997              -0.000048652              -0.000251887               0.999999997              -0.000058619              -0.000272163               0.999999997              -0.000069067              -0.000293300               0.999999997              -0.000079986              -0.000315486               0.999999997              -0.000091356              -0.000338287               0.999999997              -0.000103061              -0.000361835               0.999999997              -0.000114965              -0.000385911               0.999999997              -0.000127072              -0.000410335               0.999999997              -0.000001789              -0.000190902               0.999999997               0.000002953              -0.000172077               0.999999997               0.000002009              -0.000171695               0.999999997              -0.000001860              -0.000179772               0.999999997              -0.000007655              -0.000192779               0.999999997              -0.000014894              -0.000209052               0.999999997              -0.000023284              -0.000227694               0.999999997              -0.000032643              -0.000247881               0.999999997              -0.000042753              -0.000269429               0.999999997              -0.000053339              -0.000292240               0.999999997              -0.000064443              -0.000316120               0.999999997              -0.000076001              -0.000341097               0.999999997              -0.000088077              -0.000367103               0.999999997              -0.000100505              -0.000393847               0.999999997              -0.000113216              -0.000421210               0.999999997              -0.000126084              -0.000449003               0.999999997              -0.000139126              -0.000477206               0.999999997              -0.000001963              -0.000212377               0.999999997               0.000006251              -0.000192803               0.999999997               0.000005140              -0.000193072               0.999999997               0.000000327              -0.000202575               0.999999997              -0.000006690              -0.000217638               0.999999997              -0.000015243              -0.000236436               0.999999997              -0.000025099              -0.000257803               0.999999997              -0.000035767              -0.000280935               0.999999997              -0.000046999              -0.000305724               0.999999997              -0.000058696              -0.000332061               0.999999997              -0.000070879              -0.000359762               0.999999997              -0.000083614              -0.000388756               0.999999997              -0.000096700              -0.000418808               0.999999997              -0.000110026              -0.000449600               0.999999997              -0.000123513              -0.000480884               0.999999997              -0.000137128              -0.000512525               0.999999997              -0.000150824              -0.000544528               0.999999997              -0.000002422              -0.000232449               0.999999997               0.000008387              -0.000214352               0.999999997               0.000008520              -0.000212510               0.999999997               0.000004606              -0.000219509               0.999999997              -0.000001487              -0.000232024               0.999999997              -0.000009138              -0.000248342               0.999999997              -0.000017920              -0.000267414               0.999999997              -0.000027432              -0.000288411               0.999999997              -0.000037463              -0.000310958               0.999999997              -0.000047914              -0.000334953               0.999999997              -0.000058666              -0.000360325               0.999999997              -0.000069820              -0.000387072               0.999999997              -0.000081255              -0.000415007               0.999999997              -0.000092929              -0.000443884               0.999999997              -0.000104692              -0.000473473               0.999999997              -0.000116427              -0.000503554               0.999999997              -0.000128245              -0.000534017               0.999999997              -0.000002600              -0.000250596               0.999999997               0.000009570              -0.000234947               0.999999997               0.000010984              -0.000232149               0.999999997               0.000008139              -0.000237176               0.999999997               0.000003095              -0.000247443               0.999999997              -0.000003503              -0.000261537               0.999999997              -0.000011098              -0.000278448               0.999999997              -0.000019419              -0.000297437               0.999999997              -0.000028242              -0.000317947               0.999999997              -0.000037518              -0.000339848               0.999999997              -0.000046953              -0.000362976               0.999999997              -0.000056524              -0.000387479               0.999999997              -0.000066215              -0.000413287               0.999999997              -0.000076104              -0.000440163               0.999999997              -0.000086083              -0.000467780               0.999999997              -0.000095981              -0.000496045               0.999999997              -0.000105817              -0.000524828               0.999999997              -0.000002585              -0.000266450               0.999999997               0.000009824              -0.000254083               0.999999997               0.000012266              -0.000251203               0.999999997               0.000010514              -0.000254986               0.999999997               0.000006612              -0.000263502               0.999999997               0.000001260              -0.000275643               0.999999997              -0.000005089              -0.000290649               0.999999997              -0.000012077              -0.000307850               0.999999997              -0.000019723              -0.000326633               0.999999997              -0.000027727              -0.000346694               0.999999997              -0.000035832              -0.000368034               0.999999997              -0.000043800              -0.000390583               0.999999997              -0.000051798              -0.000414372               0.999999997              -0.000059860              -0.000439298               0.999999997              -0.000067851              -0.000465020               0.999999997              -0.000075603              -0.000491424               0.999999997              -0.000083164              -0.000518385               0.999999997              -0.000002382              -0.000279747               0.999999997               0.000009141              -0.000271039               0.999999997               0.000012177              -0.000268820               0.999999997               0.000011367              -0.000271963               0.999999997               0.000008644              -0.000279328               0.999999997               0.000004575              -0.000289943               0.999999997              -0.000000410              -0.000303390               0.999999997              -0.000006093              -0.000318981               0.999999997              -0.000012338              -0.000336310               0.999999997              -0.000019056              -0.000354983               0.999999997              -0.000025768              -0.000374854               0.999999997              -0.000032228              -0.000395867               0.999999997              -0.000038487              -0.000418083               0.999999997              -0.000044712              -0.000441367               0.999999997              -0.000050792              -0.000465561               0.999999997              -0.000056232              -0.000490451               0.999999997              -0.000060930              -0.000515897               0.999999997              -0.000001984              -0.000290289               0.999999997               0.000007606              -0.000285059               0.999999997               0.000010685              -0.000283963               0.999999997               0.000010574              -0.000287057               0.999999997               0.000008812              -0.000293678               0.999999997               0.000005986              -0.000303295               0.999999997               0.000002362              -0.000315464               0.999999997              -0.000001928              -0.000329855               0.999999997              -0.000006691              -0.000345987               0.999999997              -0.000011911              -0.000363509               0.999999997              -0.000017179              -0.000382298               0.999999997              -0.000022174              -0.000402266               0.999999997              -0.000026768              -0.000423408               0.999999997              -0.000031201              -0.000445511               0.999999997              -0.000035261              -0.000468570               0.999999997              -0.000038685              -0.000492412               0.999999997              -0.000041139              -0.000516790               0.999999997              -0.000001416              -0.000297879               0.999999997               0.000005441              -0.000295572               0.999999997               0.000007932              -0.000295615               0.999999997               0.000008141              -0.000298927               0.999999997               0.000007173              -0.000305299               0.999999997               0.000005420              -0.000314326               0.999999997               0.000003088              -0.000325661               0.999999997               0.000000223              -0.000339138               0.999999997              -0.000003067              -0.000354341               0.999999997              -0.000006551              -0.000371111               0.999999997              -0.000010069              -0.000389302               0.999999997              -0.000013504              -0.000408702               0.999999997              -0.000016632              -0.000429227               0.999999997              -0.000019311              -0.000450768               0.999999997              -0.000021640              -0.000473133               0.999999997              -0.000023565              -0.000496189               0.999999997              -0.000024526              -0.000519868               0.999999997              -0.000000740              -0.000302428               0.999999997               0.000002842              -0.000302040               0.999999997               0.000004225              -0.000303003               0.999999997               0.000004442              -0.000306573               0.999999997               0.000004008              -0.000312855               0.999999997               0.000003153              -0.000321598               0.999999997               0.000001998              -0.000332503               0.999999997               0.000000567              -0.000345436               0.999999997              -0.000001104              -0.000360194               0.999999997              -0.000002784              -0.000376623               0.999999997              -0.000004496              -0.000394432               0.999999997              -0.000006351              -0.000413460               0.999999997              -0.000007867              -0.000433625               0.999999997              -0.000009026              -0.000454846               0.999999997              -0.000010269              -0.000476934               0.999999997              -0.000011151              -0.000499791               0.999999997              -0.000011148              -0.000523265               0.999999997               0.000000000              -0.000304000               0.999999997              -0.000000000              -0.000304251               0.999999997               0.000000000              -0.000305516               0.999999997              -0.000000000              -0.000309186               0.999999997              -0.000000000              -0.000315485               0.999999997               0.000000000              -0.000324212               0.999999997              -0.000000000              -0.000334955               0.999999997              -0.000000000              -0.000347644               0.999999997              -0.000000000              -0.000362355               0.999999997              -0.000000000              -0.000378737               0.999999997              -0.000000000              -0.000396355               0.999999997               0.000000000              -0.000415206               0.999999997               0.000000000              -0.000435192               0.999999997               0.000000000              -0.000456258               0.999999997               0.000000000              -0.000478322               0.999999997               0.000000000              -0.000501281               0.999999997               0.000000000              -0.000524790               0.999999997               0.000000594              -0.000000000               0.999999997               0.000012680              -0.000000000               0.999999997               0.000018744               0.000000000               0.999999997               0.000022491              -0.000000000               0.999999997               0.000025513              -0.000000000               0.999999997               0.000028470              -0.000000000               0.999999997               0.000031703              -0.000000000               0.999999997               0.000035329               0.000000000               0.999999997               0.000039400               0.000000000               0.999999997               0.000043923              -0.000000000               0.999999997               0.000048930              -0.000000000               0.999999997               0.000054428               0.000000000               0.999999997               0.000060400               0.000000000               0.999999997               0.000066882               0.000000000               0.999999997               0.000073868               0.000000000               0.999999997               0.000081383               0.000000000               0.999999997               0.000089455               0.000000000               0.999999997               0.000000647              -0.000029636               0.999999997               0.000012306              -0.000026651               0.999999997               0.000018130              -0.000026021               0.999999997               0.000021749              -0.000026746               0.999999997               0.000024727              -0.000028293               0.999999997               0.000027688              -0.000030469               0.999999997               0.000030991              -0.000032973               0.999999997               0.000034757              -0.000035746               0.999999997               0.000038952              -0.000038795               0.999999997               0.000043629              -0.000042006               0.999999997               0.000048800              -0.000045455               0.999999997               0.000054470              -0.000049024               0.999999997               0.000060591              -0.000052685               0.999999997               0.000067170              -0.000056488               0.999999997               0.000074267              -0.000060464               0.999999997               0.000081912              -0.000064465               0.999999997               0.000090125              -0.000068476               0.999999997               0.000000815              -0.000058945               0.999999997               0.000011193              -0.000052963               0.999999997               0.000016320              -0.000051773               0.999999997               0.000019620              -0.000053294               0.999999997               0.000022516              -0.000056515               0.999999997               0.000025630              -0.000060837               0.999999997               0.000029170              -0.000065924               0.999999997               0.000033199              -0.000071558               0.999999997               0.000037753              -0.000077663               0.999999997               0.000042885              -0.000084131               0.999999997               0.000048547              -0.000090975               0.999999997               0.000054699              -0.000098145               0.999999997               0.000061290              -0.000105391               0.999999997               0.000068327              -0.000113009               0.999999997               0.000075868              -0.000121044               0.999999997               0.000083954              -0.000129328               0.999999997               0.000092605              -0.000137681               0.999999997               0.000001029              -0.000087633               0.999999997               0.000009337              -0.000078618               0.999999997               0.000013432              -0.000077072               0.999999997               0.000016409              -0.000079614               0.999999997               0.000019381              -0.000084650               0.999999997               0.000022754              -0.000091234               0.999999997               0.000026734              -0.000098905               0.999999997               0.000031365              -0.000107463               0.999999997               0.000036626              -0.000116688               0.999999997               0.000042506              -0.000126448               0.999999997               0.000048877              -0.000136716               0.999999997               0.000055726              -0.000147372               0.999999997               0.000063128              -0.000158323               0.999999997               0.000071039              -0.000169734               0.999999997               0.000079457              -0.000181843               0.999999997               0.000088377              -0.000194465               0.999999997               0.000097753              -0.000207299               0.999999997               0.000001231              -0.000115442               0.999999997               0.000006839              -0.000103434               0.999999997               0.000009809              -0.000101818               0.999999997               0.000012536              -0.000105627               0.999999997               0.000015773              -0.000112545               0.999999997               0.000019703              -0.000121500               0.999999997               0.000024438              -0.000131890               0.999999997               0.000029995              -0.000143363               0.999999997               0.000036251              -0.000155732               0.999999997               0.000043105              -0.000168735               0.999999997               0.000050513              -0.000182329               0.999999997               0.000058477              -0.000196561               0.999999997               0.000066976              -0.000211203               0.999999997               0.000076030              -0.000226437               0.999999997               0.000085576              -0.000242499               0.999999997               0.000095516              -0.000259176               0.999999997               0.000105763              -0.000276140               0.999999997               0.000001458              -0.000142091               0.999999997               0.000003821              -0.000127344               0.999999997               0.000005785              -0.000125937               0.999999997               0.000008551              -0.000131093               0.999999997               0.000012334              -0.000140011               0.999999997               0.000017167              -0.000151370               0.999999997               0.000022958              -0.000164527               0.999999997               0.000029640              -0.000178988               0.999999997               0.000037046              -0.000194440               0.999999997               0.000045117              -0.000210736               0.999999997               0.000053776              -0.000227634               0.999999997               0.000062961              -0.000245266               0.999999997               0.000072740              -0.000263597               0.999999997               0.000083025              -0.000282603               0.999999997               0.000093719              -0.000302390               0.999999997               0.000104680              -0.000322825               0.999999997               0.000115799              -0.000343480               0.999999997               0.000001673              -0.000167325               0.999999997               0.000000468              -0.000150254               0.999999997               0.000001732              -0.000149275               0.999999997               0.000004878              -0.000155878               0.999999997               0.000009554              -0.000166841               0.999999997               0.000015513              -0.000180675               0.999999997               0.000022546              -0.000196588               0.999999997               0.000030494              -0.000213904               0.999999997               0.000039262              -0.000232392               0.999999997               0.000048652              -0.000251887               0.999999997               0.000058619              -0.000272163               0.999999997               0.000069067              -0.000293300               0.999999997               0.000079986              -0.000315486               0.999999997               0.000091356              -0.000338287               0.999999997               0.000103061              -0.000361835               0.999999997               0.000114965              -0.000385911               0.999999997               0.000127072              -0.000410335               0.999999997               0.000001789              -0.000190902               0.999999997              -0.000002953              -0.000172077               0.999999997              -0.000002009              -0.000171695               0.999999997               0.000001860              -0.000179772               0.999999997               0.000007655              -0.000192779               0.999999997               0.000014894              -0.000209052               0.999999997               0.000023284              -0.000227694               0.999999997               0.000032643              -0.000247881               0.999999997               0.000042753              -0.000269429               0.999999997               0.000053339              -0.000292240               0.999999997               0.000064443              -0.000316120               0.999999997               0.000076001              -0.000341097               0.999999997               0.000088077              -0.000367103               0.999999997               0.000100505              -0.000393847               0.999999997               0.000113216              -0.000421210               0.999999997               0.000126084              -0.000449003               0.999999997               0.000139126              -0.000477206               0.999999997               0.000001963              -0.000212377               0.999999997              -0.000006251              -0.000192803               0.999999997              -0.000005140              -0.000193072               0.999999997              -0.000000327              -0.000202575               0.999999997               0.000006690              -0.000217638               0.999999997               0.000015243              -0.000236436               0.999999997               0.000025099              -0.000257803               0.999999997               0.000035767              -0.000280935               0.999999997               0.000046999              -0.000305724               0.999999997               0.000058696              -0.000332061               0.999999997               0.000070879              -0.000359762               0.999999997               0.000083614              -0.000388756               0.999999997               0.000096700              -0.000418808               0.999999997               0.000110026              -0.000449600               0.999999997               0.000123513              -0.000480884               0.999999997               0.000137128              -0.000512525               0.999999997               0.000150824              -0.000544528               0.999999997               0.000002422              -0.000232449               0.999999997              -0.000008387              -0.000214352               0.999999997              -0.000008520              -0.000212510               0.999999997              -0.000004606              -0.000219509               0.999999997               0.000001487              -0.000232024               0.999999997               0.000009138              -0.000248342               0.999999997               0.000017920              -0.000267414               0.999999997               0.000027432              -0.000288411               0.999999997               0.000037463              -0.000310958               0.999999997               0.000047914              -0.000334953               0.999999997               0.000058666              -0.000360325               0.999999997               0.000069820              -0.000387072               0.999999997               0.000081255              -0.000415007               0.999999997               0.000092929              -0.000443884               0.999999997               0.000104692              -0.000473473               0.999999997               0.000116427              -0.000503554               0.999999997               0.000128245              -0.000534017               0.999999997               0.000002600              -0.000250596               0.999999997              -0.000009570              -0.000234947               0.999999997              -0.000010984              -0.000232149               0.999999997              -0.000008139              -0.000237176               0.999999997              -0.000003095              -0.000247443               0.999999997               0.000003503              -0.000261537               0.999999997               0.000011098              -0.000278448               0.999999997               0.000019419              -0.000297437               0.999999997               0.000028242              -0.000317947               0.999999997               0.000037518              -0.000339848               0.999999997               0.000046953              -0.000362976               0.999999997               0.000056524              -0.000387479               0.999999997               0.000066215              -0.000413287               0.999999997               0.000076104              -0.000440163               0.999999997               0.000086083              -0.000467780               0.999999997               0.000095981              -0.000496045               0.999999997               0.000105817              -0.000524828               0.999999997               0.000002585              -0.000266450               0.999999997              -0.000009824              -0.000254083               0.999999997              -0.000012266              -0.000251203               0.999999997              -0.000010514              -0.000254986               0.999999997              -0.000006612              -0.000263502               0.999999997              -0.000001260              -0.000275643               0.999999997               0.000005089              -0.000290649               0.999999997               0.000012077              -0.000307850               0.999999997               0.000019723              -0.000326633               0.999999997               0.000027727              -0.000346694               0.999999997               0.000035832              -0.000368034               0.999999997               0.000043800              -0.000390583               0.999999997               0.000051798              -0.000414372               0.999999997               0.000059860              -0.000439298               0.999999997               0.000067851              -0.000465020               0.999999997               0.000075603              -0.000491424               0.999999997               0.000083164              -0.000518385               0.999999997               0.000002382              -0.000279747               0.999999997              -0.000009141              -0.000271039               0.999999997              -0.000012177              -0.000268820               0.999999997              -0.000011367              -0.000271963               0.999999997              -0.000008644              -0.000279328               0.999999997              -0.000004575              -0.000289943               0.999999997               0.000000410              -0.000303390               0.999999997               0.000006093              -0.000318981               0.999999997               0.000012338              -0.000336310               0.999999997               0.000019056              -0.000354983               0.999999997               0.000025768              -0.000374854               0.999999997               0.000032228              -0.000395867               0.999999997               0.000038487              -0.000418083               0.999999997               0.000044712              -0.000441367               0.999999997               0.000050792              -0.000465561               0.999999997               0.000056232              -0.000490451               0.999999997               0.000060930              -0.000515897               0.999999997               0.000001984              -0.000290289               0.999999997              -0.000007606              -0.000285059               0.999999997              -0.000010685              -0.000283963               0.999999997              -0.000010574              -0.000287057               0.999999997              -0.000008812              -0.000293678               0.999999997              -0.000005986              -0.000303295               0.999999997              -0.000002362              -0.000315464               0.999999997               0.000001928              -0.000329855               0.999999997               0.000006691              -0.000345987               0.999999997               0.000011911              -0.000363509               0.999999997               0.000017179              -0.000382298               0.999999997               0.000022174              -0.000402266               0.999999997               0.000026768              -0.000423408               0.999999997               0.000031201              -0.000445511               0.999999997               0.000035261              -0.000468570               0.999999997               0.000038685              -0.000492412               0.999999997               0.000041139              -0.000516790               0.999999997               0.000001416              -0.000297879               0.999999997              -0.000005441              -0.000295572               0.999999997              -0.000007932              -0.000295615               0.999999997              -0.000008141              -0.000298927               0.999999997              -0.000007173              -0.000305299               0.999999997              -0.000005420              -0.000314326               0.999999997              -0.000003088              -0.000325661               0.999999997              -0.000000223              -0.000339138               0.999999997               0.000003067              -0.000354341               0.999999997               0.000006551              -0.000371111               0.999999997               0.000010069              -0.000389302               0.999999997               0.000013504              -0.000408702               0.999999997               0.000016632              -0.000429227               0.999999997               0.000019311              -0.000450768               0.999999997               0.000021640              -0.000473133               0.999999997               0.000023565              -0.000496189               0.999999997               0.000024526              -0.000519868               0.999999997               0.000000740              -0.000302428               0.999999997              -0.000002842              -0.000302040               0.999999997              -0.000004225              -0.000303003               0.999999997              -0.000004442              -0.000306573               0.999999997              -0.000004008              -0.000312855               0.999999997              -0.000003153              -0.000321598               0.999999997              -0.000001998              -0.000332503               0.999999997              -0.000000567              -0.000345436               0.999999997               0.000001104              -0.000360194               0.999999997               0.000002784              -0.000376623               0.999999997               0.000004496              -0.000394432               0.999999997               0.000006351              -0.000413460               0.999999997               0.000007867              -0.000433625               0.999999997               0.000009026              -0.000454846               0.999999997               0.000010269              -0.000476934               0.999999997               0.000011151              -0.000499791               0.999999997               0.000011148              -0.000523265               0.999999997               0.000000000              -0.000304000               0.999999997              -0.000000000              -0.000304251               0.999999997               0.000000000              -0.000305516               0.999999997              -0.000000000              -0.000309186               0.999999997              -0.000000000              -0.000315485               0.999999997               0.000000000              -0.000324212               0.999999997              -0.000000000              -0.000334955               0.999999997              -0.000000000              -0.000347644               0.999999997              -0.000000000              -0.000362355               0.999999997              -0.000000000              -0.000378737               0.999999997              -0.000000000              -0.000396355               0.999999997               0.000000000              -0.000415206               0.999999997               0.000000000              -0.000435192               0.999999997               0.000000000              -0.000456258               0.999999997               0.000000000              -0.000478322               0.999999997               0.000000000              -0.000501281               0.999999997               0.000000000              -0.000524790               0.999999997               0.000000594              -0.000000000               0.999999997               0.000012680              -0.000000000               0.999999997               0.000018744               0.000000000               0.999999997               0.000022491              -0.000000000               0.999999997               0.000025513              -0.000000000               0.999999997               0.000028470              -0.000000000               0.999999997               0.000031703              -0.000000000               0.999999997               0.000035329               0.000000000               0.999999997               0.000039400               0.000000000               0.999999997               0.000043923              -0.000000000               0.999999997               0.000048930              -0.000000000               0.999999997               0.000054428               0.000000000               0.999999997               0.000060400               0.000000000               0.999999997               0.000066882               0.000000000               0.999999997               0.000073868               0.000000000               0.999999997               0.000081383               0.000000000               0.999999997               0.000089455               0.000000000               0.999999997               0.000000647               0.000029636               0.999999997               0.000012306               0.000026651               0.999999997               0.000018130               0.000026021               0.999999997               0.000021749               0.000026746               0.999999997               0.000024727               0.000028293               0.999999997               0.000027688               0.000030469               0.999999997               0.000030991               0.000032973               0.999999997               0.000034757               0.000035746               0.999999997               0.000038952               0.000038795               0.999999997               0.000043629               0.000042006               0.999999997               0.000048800               0.000045455               0.999999997               0.000054470               0.000049024               0.999999997               0.000060591               0.000052685               0.999999997               0.000067170               0.000056488               0.999999997               0.000074267               0.000060464               0.999999997               0.000081912               0.000064465               0.999999997               0.000090125               0.000068476               0.999999997               0.000000815               0.000058945               0.999999997               0.000011193               0.000052963               0.999999997               0.000016320               0.000051773               0.999999997               0.000019620               0.000053294               0.999999997               0.000022516               0.000056515               0.999999997               0.000025630               0.000060837               0.999999997               0.000029170               0.000065924               0.999999997               0.000033199               0.000071558               0.999999997               0.000037753               0.000077663               0.999999997               0.000042885               0.000084131               0.999999997               0.000048547               0.000090975               0.999999997               0.000054699               0.000098145               0.999999997               0.000061290               0.000105391               0.999999997               0.000068327               0.000113009               0.999999997               0.000075868               0.000121044               0.999999997               0.000083954               0.000129328               0.999999997               0.000092605               0.000137681               0.999999997               0.000001029               0.000087633               0.999999997               0.000009337               0.000078618               0.999999997               0.000013432               0.000077072               0.999999997               0.000016409               0.000079614               0.999999997               0.000019381               0.000084650               0.999999997               0.000022754               0.000091234               0.999999997               0.000026734               0.000098905               0.999999997               0.000031365               0.000107463               0.999999997               0.000036626               0.000116688               0.999999997               0.000042506               0.000126448               0.999999997               0.000048877               0.000136716               0.999999997               0.000055726               0.000147372               0.999999997               0.000063128               0.000158323               0.999999997               0.000071039               0.000169734               0.999999997               0.000079457               0.000181843               0.999999997               0.000088377               0.000194465               0.999999997               0.000097753               0.000207299               0.999999997               0.000001231               0.000115442               0.999999997               0.000006839               0.000103434               0.999999997               0.000009809               0.000101818               0.999999997               0.000012536               0.000105627               0.999999997               0.000015773               0.000112545               0.999999997               0.000019703               0.000121500               0.999999997               0.000024438               0.000131890               0.999999997               0.000029995               0.000143363               0.999999997               0.000036251               0.000155732               0.999999997               0.000043105               0.000168735               0.999999997               0.000050513               0.000182329               0.999999997               0.000058477               0.000196561               0.999999997               0.000066976               0.000211203               0.999999997               0.000076030               0.000226437               0.999999997               0.000085576               0.000242499               0.999999997               0.000095516               0.000259176               0.999999997               0.000105763               0.000276140               0.999999997               0.000001458               0.000142091               0.999999997               0.000003821               0.000127344               0.999999997               0.000005785               0.000125937               0.999999997               0.000008551               0.000131093               0.999999997               0.000012334               0.000140011               0.999999997               0.000017167               0.000151370               0.999999997               0.000022958               0.000164527               0.999999997               0.000029640               0.000178988               0.999999997               0.000037046               0.000194440               0.999999997               0.000045117               0.000210736               0.999999997               0.000053776               0.000227634               0.999999997               0.000062961               0.000245266               0.999999997               0.000072740               0.000263597               0.999999997               0.000083025               0.000282603               0.999999997               0.000093719               0.000302390               0.999999997               0.000104680               0.000322825               0.999999997               0.000115799               0.000343480               0.999999997               0.000001673               0.000167325               0.999999997               0.000000468               0.000150254               0.999999997               0.000001732               0.000149275               0.999999997               0.000004878               0.000155878               0.999999997               0.000009554               0.000166841               0.999999997               0.000015513               0.000180675               0.999999997               0.000022546               0.000196588               0.999999997               0.000030494               0.000213904               0.999999997               0.000039262               0.000232392               0.999999997               0.000048652               0.000251887               0.999999997               0.000058619               0.000272163               0.999999997               0.000069067               0.000293300               0.999999997               0.000079986               0.000315486               0.999999997               0.000091356               0.000338287               0.999999997               0.000103061               0.000361835               0.999999997               0.000114965               0.000385911               0.999999997               0.000127072               0.000410335               0.999999997               0.000001789               0.000190902               0.999999997              -0.000002953               0.000172077               0.999999997              -0.000002009               0.000171695               0.999999997               0.000001860               0.000179772               0.999999997               0.000007655               0.000192779               0.999999997               0.000014894               0.000209052               0.999999997               0.000023284               0.000227694               0.999999997               0.000032643               0.000247881               0.999999997               0.000042753               0.000269429               0.999999997               0.000053339               0.000292240               0.999999997               0.000064443               0.000316120               0.999999997               0.000076001               0.000341097               0.999999997               0.000088077               0.000367103               0.999999997               0.000100505               0.000393847               0.999999997               0.000113216               0.000421210               0.999999997               0.000126084               0.000449003               0.999999997               0.000139126               0.000477206               0.999999997               0.000001963               0.000212377               0.999999997              -0.000006251               0.000192803               0.999999997              -0.000005140               0.000193072               0.999999997              -0.000000327               0.000202575               0.999999997               0.000006690               0.000217638               0.999999997               0.000015243               0.000236436               0.999999997               0.000025099               0.000257803               0.999999997               0.000035767               0.000280935               0.999999997               0.000046999               0.000305724               0.999999997               0.000058696               0.000332061               0.999999997               0.000070879               0.000359762               0.999999997               0.000083614               0.000388756               0.999999997               0.000096700               0.000418808               0.999999997               0.000110026               0.000449600               0.999999997               0.000123513               0.000480884               0.999999997               0.000137128               0.000512525               0.999999997               0.000150824               0.000544528               0.999999997               0.000002422               0.000232449               0.999999997              -0.000008387               0.000214352               0.999999997              -0.000008520               0.000212510               0.999999997              -0.000004606               0.000219509               0.999999997               0.000001487               0.000232024               0.999999997               0.000009138               0.000248342               0.999999997               0.000017920               0.000267414               0.999999997               0.000027432               0.000288411               0.999999997               0.000037463               0.000310958               0.999999997               0.000047914               0.000334953               0.999999997               0.000058666               0.000360325               0.999999997               0.000069820               0.000387072               0.999999997               0.000081255               0.000415007               0.999999997               0.000092929               0.000443884               0.999999997               0.000104692               0.000473473               0.999999997               0.000116427               0.000503554               0.999999997               0.000128245               0.000534017               0.999999997               0.000002600               0.000250596               0.999999997              -0.000009570               0.000234947               0.999999997              -0.000010984               0.000232149               0.999999997              -0.000008139               0.000237176               0.999999997              -0.000003095               0.000247443               0.999999997               0.000003503               0.000261537               0.999999997               0.000011098               0.000278448               0.999999997               0.000019419               0.000297437               0.999999997               0.000028242               0.000317947               0.999999997               0.000037518               0.000339848               0.999999997               0.000046953               0.000362976               0.999999997               0.000056524               0.000387479               0.999999997               0.000066215               0.000413287               0.999999997               0.000076104               0.000440163               0.999999997               0.000086083               0.000467780               0.999999997               0.000095981               0.000496045               0.999999997               0.000105817               0.000524828               0.999999997               0.000002585               0.000266450               0.999999997              -0.000009824               0.000254083               0.999999997              -0.000012266               0.000251203               0.999999997              -0.000010514               0.000254986               0.999999997              -0.000006612               0.000263502               0.999999997              -0.000001260               0.000275643               0.999999997               0.000005089               0.000290649               0.999999997               0.000012077               0.000307850               0.999999997               0.000019723               0.000326633               0.999999997               0.000027727               0.000346694               0.999999997               0.000035832               0.000368034               0.999999997               0.000043800               0.000390583               0.999999997               0.000051798               0.000414372               0.999999997               0.000059860               0.000439298               0.999999997               0.000067851               0.000465020               0.999999997               0.000075603               0.000491424               0.999999997               0.000083164               0.000518385               0.999999997               0.000002382               0.000279747               0.999999997              -0.000009141               0.000271039               0.999999997              -0.000012177               0.000268820               0.999999997              -0.000011367               0.000271963               0.999999997              -0.000008644               0.000279328               0.999999997              -0.000004575               0.000289943               0.999999997               0.000000410               0.000303390               0.999999997               0.000006093               0.000318981               0.999999997               0.000012338               0.000336310               0.999999997               0.000019056               0.000354983               0.999999997               0.000025768               0.000374854               0.999999997               0.000032228               0.000395867               0.999999997               0.000038487               0.000418083               0.999999997               0.000044712               0.000441367               0.999999997               0.000050792               0.000465561               0.999999997               0.000056232               0.000490451               0.999999997               0.000060930               0.000515897               0.999999997               0.000001984               0.000290289               0.999999997              -0.000007606               0.000285059               0.999999997              -0.000010685               0.000283963               0.999999997              -0.000010574               0.000287057               0.999999997              -0.000008812               0.000293678               0.999999997              -0.000005986               0.000303295               0.999999997              -0.000002362               0.000315464               0.999999997               0.000001928               0.000329855               0.999999997               0.000006691               0.000345987               0.999999997               0.000011911               0.000363509               0.999999997               0.000017179               0.000382298               0.999999997               0.000022174               0.000402266               0.999999997               0.000026768               0.000423408               0.999999997               0.000031201               0.000445511               0.999999997               0.000035261               0.000468570               0.999999997               0.000038685               0.000492412               0.999999997               0.000041139               0.000516790               0.999999997               0.000001416               0.000297879               0.999999997              -0.000005441               0.000295572               0.999999997              -0.000007932               0.000295615               0.999999997              -0.000008141               0.000298927               0.999999997              -0.000007173               0.000305299               0.999999997              -0.000005420               0.000314326               0.999999997              -0.000003088               0.000325661               0.999999997              -0.000000223               0.000339138               0.999999997               0.000003067               0.000354341               0.999999997               0.000006551               0.000371111               0.999999997               0.000010069               0.000389302               0.999999997               0.000013504               0.000408702               0.999999997               0.000016632               0.000429227               0.999999997               0.000019311               0.000450768               0.999999997               0.000021640               0.000473133               0.999999997               0.000023565               0.000496189               0.999999997               0.000024526               0.000519868               0.999999997               0.000000740               0.000302428               0.999999997              -0.000002842               0.000302040               0.999999997              -0.000004225               0.000303003               0.999999997              -0.000004442               0.000306573               0.999999997              -0.000004008               0.000312855               0.999999997              -0.000003153               0.000321598               0.999999997              -0.000001998               0.000332503               0.999999997              -0.000000567               0.000345436               0.999999997               0.000001104               0.000360194               0.999999997               0.000002784               0.000376623               0.999999997               0.000004496               0.000394432               0.999999997               0.000006351               0.000413460               0.999999997               0.000007867               0.000433625               0.999999997               0.000009026               0.000454846               0.999999997               0.000010269               0.000476934               0.999999997               0.000011151               0.000499791               0.999999997               0.000011148               0.000523265               0.999999997               0.000000000               0.000304000               0.999999997               0.000000000               0.000304251               0.999999997               0.000000000               0.000305516               0.999999997              -0.000000000               0.000309186               0.999999997              -0.000000000               0.000315485               0.999999997              -0.000000000               0.000324212               0.999999997               0.000000000               0.000334955               0.999999997               0.000000000               0.000347644               0.999999997              -0.000000000               0.000362355               0.999999997              -0.000000000               0.000378737               0.999999997               0.000000000               0.000396355               0.999999997              -0.000000000               0.000415206               0.999999997              -0.000000000               0.000435192               0.999999997              -0.000000000               0.000456258               0.999999997               0.000000000               0.000478322               0.999999997               0.000000000               0.000501281               0.999999997               0.000000000               0.000524790               0.999999997 </DataArray>
<DataArray type="Float64"                                    Name="stress"                                                      NumberOfComponents="10" format="ascii">
              0.000471183               0.005570681               0.000000000              -0.000519640               0.002030088               0.001510448               0.000000000               0.000000000               0.000000000               0.000000000               0.000525308               0.004636622               0.000000000              -0.000382586               0.001673054               0.001290467               0.000000000               0.000000000               0.000000000               0.000000000               0.000735329               0.003882153               0.000000000              -0.000209520               0.001363878               0.001154358               0.000000000               0.000000000               0.000000000               0.000000000               0.000763602               0.003465417               0.000000000              -0.000146826               0.001204069               0.001057243               0.000000000               0.000000000               0.000000000               0.000000000               0.000723927               0.003221332               0.000000000              -0.000131194               0.001117498               0.000986304               0.000000000               0.000000000               0.000000000               0.000000000               0.000660787               0.003076362               0.000000000              -0.000136750               0.001071027               0.000934277               0.000000000               0.000000000               0.000000000               0.000000000               0.000588801               0.002983639               0.000000000              -0.000152154               0.001045255               0.000893100               0.000000000               0.000000000               0.000000000               0.000000000               0.000520459               0.002925821               0.000000000              -0.000170555               0.001032116               0.000861561               0.000000000               0.000000000               0.000000000               0.000000000               0.000457977               0.002893747              -0.000000000              -0.000189977               0.001027898               0.000837922               0.000000000               0.000000000               0.000000000               0.000000000               0.000397718               0.002876711              -0.000000000              -0.000210444               0.001029042               0.000818598               0.000000000               0.000000000               0.000000000               0.000000000               0.000339834               0.002872506              -0.000000000              -0.000231625               0.001034701               0.000803076               0.000000000               0.000000000               0.000000000               0.000000000               0.000285435               0.002875091              -0.000000000              -0.000252347               0.001042470               0.000790122               0.000000000               0.000000000               0.000000000               0.000000000               0.000232013               0.002881032              -0.000000000              -0.000273123               0.001051376               0.000778252               0.000000000               0.000000000               0.000000000               0.000000000               0.000177286               0.002890748              -0.000000000              -0.000294861               0.001061860               0.000766999               0.000000000               0.000000000               0.000000000               0.000000000               0.000121121               0.002903656              -0.000000000              -0.000317536               0.001073721               0.000756185               0.000000000               0.000000000               0.000000000               0.000000000               0.000061089               0.002914102              -0.000000000              -0.000341353               0.001085142               0.000743789               0.000000000               0.000000000               0.000000000               0.000000000               0.000032292               0.002923397              -0.000000000              -0.000353314               0.001092227               0.000738913               0.000000000               0.000000000               0.000000000               0.000000000               0.000503832               0.005479265              -0.000428458              -0.000495970               0.001991727               0.001495757               0.000000000               0.000000000               0.000000000               0.000000000               0.000537456               0.004570327              -0.000281842              -0.000369744               0.001646675               0.001276931               0.000000000               0.000000000               0.000000000               0.000000000               0.000725847               0.003842874              -0.000128253              -0.000208166               0.001350334               0.001142168               0.000000000               0.000000000               0.000000000               0.000000000               0.000744998               0.003441465              -0.000053671              -0.000150809               0.001197413               0.001046605               0.000000000               0.000000000               0.000000000               0.000000000               0.000701586               0.003207351              -0.000015133              -0.000137824               0.001115048               0.000977224               0.000000000               0.000000000               0.000000000               0.000000000               0.000636083               0.003065121               0.000003335              -0.000144609               0.001069900               0.000925291               0.000000000               0.000000000               0.000000000               0.000000000               0.000563717               0.002976178               0.000010692              -0.000160628               0.001045592               0.000884964               0.000000000               0.000000000               0.000000000               0.000000000               0.000497052               0.002922199               0.000014828              -0.000178880               0.001033683               0.000854803               0.000000000               0.000000000               0.000000000               0.000000000               0.000435808               0.002891344               0.000016004              -0.000197990               0.001029768               0.000831779               0.000000000               0.000000000               0.000000000               0.000000000               0.000376511               0.002875040               0.000015757              -0.000218188               0.001031066               0.000812879               0.000000000               0.000000000               0.000000000               0.000000000               0.000320606               0.002870348               0.000014886              -0.000238566               0.001036295               0.000797729               0.000000000               0.000000000               0.000000000               0.000000000               0.000269565               0.002873574               0.000011595              -0.000258109               0.001043885               0.000785776               0.000000000               0.000000000               0.000000000               0.000000000               0.000220630               0.002879404               0.000010042              -0.000277189               0.001052188               0.000774999               0.000000000               0.000000000               0.000000000               0.000000000               0.000169363               0.002890161               0.000011689              -0.000297758               0.001062630               0.000764872               0.000000000               0.000000000               0.000000000               0.000000000               0.000114849               0.002905734               0.000011394              -0.000320148               0.001075284               0.000755137               0.000000000               0.000000000               0.000000000               0.000000000               0.000057449               0.002922325               0.000007734              -0.000343746               0.001088681               0.000744934               0.000000000               0.000000000               0.000000000               0.000000000               0.000030755               0.002936432               0.000004796              -0.000355520               0.001097307               0.000741788               0.000000000               0.000000000               0.000000000               0.000000000               0.000593725               0.005216898              -0.000811865              -0.000429465               0.001882103               0.001452639               0.000000000               0.000000000               0.000000000               0.000000000               0.000569596               0.004380392              -0.000534132              -0.000333950               0.001571433               0.001237483               0.000000000               0.000000000               0.000000000               0.000000000               0.000697243               0.003734937              -0.000244974              -0.000205400               0.001313433               0.001108033               0.000000000               0.000000000               0.000000000               0.000000000               0.000692922               0.003381058              -0.000107663              -0.000162786               0.001181270               0.001018484               0.000000000               0.000000000               0.000000000               0.000000000               0.000639864               0.003173483              -0.000039662              -0.000156736               0.001110063               0.000953326               0.000000000               0.000000000               0.000000000               0.000000000               0.000570707               0.003042711              -0.000006153              -0.000166323               0.001069668               0.000903345               0.000000000               0.000000000               0.000000000               0.000000000               0.000502196               0.002962041               0.000009595              -0.000181931               0.001047981               0.000866050               0.000000000               0.000000000               0.000000000               0.000000000               0.000439983               0.002915260               0.000016667              -0.000199413               0.001038215               0.000838801               0.000000000               0.000000000               0.000000000               0.000000000               0.000380372               0.002887552               0.000018139              -0.000218304               0.001035276               0.000816972               0.000000000               0.000000000               0.000000000               0.000000000               0.000324954               0.002873524               0.000017631              -0.000237332               0.001036942               0.000799610               0.000000000               0.000000000               0.000000000               0.000000000               0.000275506               0.002869145               0.000017344              -0.000255328               0.001041481               0.000786154               0.000000000               0.000000000               0.000000000               0.000000000               0.000230163               0.002871314               0.000012786              -0.000272602               0.001047962               0.000775360               0.000000000               0.000000000               0.000000000               0.000000000               0.000187663               0.002878352               0.000009855              -0.000289420               0.001055914               0.000766495               0.000000000               0.000000000               0.000000000               0.000000000               0.000143578               0.002890772               0.000013833              -0.000307504               0.001066082               0.000758578               0.000000000               0.000000000               0.000000000               0.000000000               0.000096396               0.002910397               0.000016119              -0.000327650               0.001079339               0.000751689               0.000000000               0.000000000               0.000000000               0.000000000               0.000047656               0.002935612               0.000011895              -0.000349080               0.001094887               0.000745808               0.000000000               0.000000000               0.000000000               0.000000000               0.000026636               0.002956760               0.000006807              -0.000359606               0.001105445               0.000745840               0.000000000               0.000000000               0.000000000               0.000000000               0.000717333               0.004815986              -0.001116607              -0.000332998               0.001716312               0.001383313               0.000000000               0.000000000               0.000000000               0.000000000               0.000611479               0.004095815              -0.000736925              -0.000282672               0.001459482               0.001176810               0.000000000               0.000000000               0.000000000               0.000000000               0.000651618               0.003580950              -0.000344738              -0.000203262               0.001261392               0.001058130               0.000000000               0.000000000               0.000000000               0.000000000               0.000613228               0.003296828              -0.000164024              -0.000182143               0.001159646               0.000977503               0.000000000               0.000000000               0.000000000               0.000000000               0.000552210               0.003123995              -0.000076617              -0.000183420               0.001102461               0.000919041               0.000000000               0.000000000               0.000000000               0.000000000               0.000485168               0.003014248              -0.000033623              -0.000194843               0.001069687               0.000874844               0.000000000               0.000000000               0.000000000               0.000000000               0.000419638               0.002944902              -0.000012281              -0.000210748               0.001051873               0.000841126               0.000000000               0.000000000               0.000000000               0.000000000               0.000362048               0.002903774              -0.000003024              -0.000227203               0.001043650               0.000816446               0.000000000               0.000000000               0.000000000               0.000000000               0.000310286               0.002880538              -0.000001021              -0.000243709               0.001041406               0.000797697               0.000000000               0.000000000               0.000000000               0.000000000               0.000265259               0.002868475              -0.000000514              -0.000259087               0.001042511               0.000783424               0.000000000               0.000000000               0.000000000               0.000000000               0.000226332               0.002864472              -0.000000296              -0.000273184               0.001045876               0.000772692               0.000000000               0.000000000               0.000000000               0.000000000               0.000186084               0.002866463              -0.000004047              -0.000288526               0.001051653               0.000763128               0.000000000               0.000000000               0.000000000               0.000000000               0.000145752               0.002874470              -0.000006240              -0.000304651               0.001059697               0.000755046               0.000000000               0.000000000               0.000000000               0.000000000               0.000107238               0.002887306               0.000000502              -0.000320698               0.001069325               0.000748627               0.000000000               0.000000000               0.000000000               0.000000000               0.000069543               0.002905915               0.000008538              -0.000337160               0.001081016               0.000743855               0.000000000               0.000000000               0.000000000               0.000000000               0.000033701               0.002929148               0.000008515              -0.000353505               0.001094208               0.000740703               0.000000000               0.000000000               0.000000000               0.000000000               0.000020034               0.002948644               0.000004444              -0.000361067               0.001103227               0.000742160               0.000000000               0.000000000               0.000000000               0.000000000               0.000847747               0.004320223              -0.001326389              -0.000222123               0.001514101               0.001291977               0.000000000               0.000000000               0.000000000               0.000000000               0.000650554               0.003755433              -0.000882775              -0.000225471               0.001326955               0.001101484               0.000000000               0.000000000               0.000000000               0.000000000               0.000594490               0.003401568              -0.000428617              -0.000202262               0.001201265               0.000999003               0.000000000               0.000000000               0.000000000               0.000000000               0.000522204               0.003190983              -0.000225544              -0.000203046               0.001131332               0.000928286               0.000000000               0.000000000               0.000000000               0.000000000               0.000453793               0.003055269              -0.000127604              -0.000211736               0.001088991               0.000877256               0.000000000               0.000000000               0.000000000               0.000000000               0.000392589               0.002969068              -0.000078671              -0.000223912               0.001064317               0.000840405               0.000000000               0.000000000               0.000000000               0.000000000               0.000334646               0.002915339              -0.000054227              -0.000238925               0.001051412               0.000812487               0.000000000               0.000000000               0.000000000               0.000000000               0.000284425               0.002881744              -0.000041606              -0.000253558               0.001045091               0.000791533               0.000000000               0.000000000               0.000000000               0.000000000               0.000243473               0.002862072              -0.000035950              -0.000266456               0.001042833               0.000776377               0.000000000               0.000000000               0.000000000               0.000000000               0.000208454               0.002851868              -0.000034128              -0.000278312               0.001043384               0.000765071               0.000000000               0.000000000               0.000000000               0.000000000               0.000175063               0.002846043              -0.000031125              -0.000290106               0.001045373               0.000755267               0.000000000               0.000000000               0.000000000               0.000000000               0.000140447               0.002846830              -0.000030132              -0.000303185               0.001049996               0.000746810               0.000000000               0.000000000               0.000000000               0.000000000               0.000105149               0.002854704              -0.000028913              -0.000317406               0.001057361               0.000739954               0.000000000               0.000000000               0.000000000               0.000000000               0.000071657               0.002866215              -0.000018412              -0.000331405               0.001065864               0.000734459               0.000000000               0.000000000               0.000000000               0.000000000               0.000043024               0.002878806              -0.000004737              -0.000343716               0.001074164               0.000730449               0.000000000               0.000000000               0.000000000               0.000000000               0.000019883               0.002892376               0.000001012              -0.000354090               0.001082146               0.000728056               0.000000000               0.000000000               0.000000000               0.000000000               0.000011735               0.002902785               0.000000071              -0.000358446               0.001087067               0.000728621               0.000000000               0.000000000               0.000000000               0.000000000               0.000963493               0.003775167              -0.001434591              -0.000110587               0.001295238               0.001184651               0.000000000               0.000000000               0.000000000               0.000000000               0.000676929               0.003389051              -0.000971201              -0.000169783               0.001186267               0.001016483               0.000000000               0.000000000               0.000000000               0.000000000               0.000527160               0.003206136              -0.000500047              -0.000203082               0.001136395               0.000933314               0.000000000               0.000000000               0.000000000               0.000000000               0.000432660               0.003069659              -0.000292674              -0.000221459               0.001097029               0.000875570               0.000000000               0.000000000               0.000000000               0.000000000               0.000364004               0.002974156              -0.000190779              -0.000235268               0.001069798               0.000834530               0.000000000               0.000000000               0.000000000               0.000000000               0.000310285               0.002911790              -0.000136350              -0.000247616               0.001053126               0.000805509               0.000000000               0.000000000               0.000000000               0.000000000               0.000263614               0.002871560              -0.000106028              -0.000260089               0.001043873               0.000783784               0.000000000               0.000000000               0.000000000               0.000000000               0.000222565               0.002842901              -0.000088206              -0.000271900               0.001038257               0.000766357               0.000000000               0.000000000               0.000000000               0.000000000               0.000189714               0.002824948              -0.000076792              -0.000281975               0.001035632               0.000753656               0.000000000               0.000000000               0.000000000               0.000000000               0.000161137               0.002816545              -0.000070923              -0.000291641               0.001036053               0.000744412               0.000000000               0.000000000               0.000000000               0.000000000               0.000134738               0.002813703              -0.000064474              -0.000301186               0.001038287               0.000737101               0.000000000               0.000000000               0.000000000               0.000000000               0.000104642               0.002815917              -0.000054454              -0.000312748               0.001042879               0.000730131               0.000000000               0.000000000               0.000000000               0.000000000               0.000073261               0.002827147              -0.000045543              -0.000325920               0.001051013               0.000725093               0.000000000               0.000000000               0.000000000               0.000000000               0.000045491               0.002838847              -0.000031888              -0.000337796               0.001058872               0.000721076               0.000000000               0.000000000               0.000000000               0.000000000               0.000024794               0.002848157              -0.000014901              -0.000346721               0.001064950               0.000718229               0.000000000               0.000000000               0.000000000               0.000000000               0.000011433               0.002855745              -0.000005515              -0.000352680               0.001069466               0.000716786               0.000000000               0.000000000               0.000000000               0.000000000               0.000008350               0.002862041              -0.000005145              -0.000354623               0.001072212               0.000717589               0.000000000               0.000000000               0.000000000               0.000000000               0.001039284               0.003218693              -0.001447558              -0.000012607               0.001077089               0.001064482               0.000000000               0.000000000               0.000000000               0.000000000               0.000684967               0.003018514              -0.001010113              -0.000120452               0.001046312               0.000925859               0.000000000               0.000000000               0.000000000               0.000000000               0.000458767               0.003004150              -0.000561922              -0.000203481               0.001069200               0.000865719               0.000000000               0.000000000               0.000000000               0.000000000               0.000355084               0.002940336              -0.000361375              -0.000234385               0.001058231               0.000823846               0.000000000               0.000000000               0.000000000               0.000000000               0.000293090               0.002883410              -0.000256591              -0.000250517               0.001044633               0.000794116               0.000000000               0.000000000               0.000000000               0.000000000               0.000248724               0.002843378              -0.000195177              -0.000262150               0.001035167               0.000773016               0.000000000               0.000000000               0.000000000               0.000000000               0.000212166               0.002814299              -0.000158657              -0.000272224               0.001028832               0.000756607               0.000000000               0.000000000               0.000000000               0.000000000               0.000178431               0.002789972              -0.000134934              -0.000281834               0.001023926               0.000742092               0.000000000               0.000000000               0.000000000               0.000000000               0.000152811               0.002777119              -0.000115435              -0.000289835               0.001022309               0.000732474               0.000000000               0.000000000               0.000000000               0.000000000               0.000129894               0.002774863              -0.000100291              -0.000298147               0.001024328               0.000726180               0.000000000               0.000000000               0.000000000               0.000000000               0.000108234               0.002782846              -0.000086581              -0.000307267               0.001030028               0.000722761               0.000000000               0.000000000               0.000000000               0.000000000               0.000086215               0.002798000              -0.000067938              -0.000317418               0.001038464               0.000721045               0.000000000               0.000000000               0.000000000               0.000000000               0.000061709               0.002815161              -0.000052310              -0.000328753               0.001047962               0.000719209               0.000000000               0.000000000               0.000000000               0.000000000               0.000039539               0.002830201              -0.000038136              -0.000338947               0.001056373               0.000717426               0.000000000               0.000000000               0.000000000               0.000000000               0.000024616               0.002840985              -0.000022219              -0.000345891               0.001062283               0.000716391               0.000000000               0.000000000               0.000000000               0.000000000               0.000013026               0.002846980              -0.000011199              -0.000350987               0.001065980               0.000714993               0.000000000               0.000000000               0.000000000               0.000000000               0.000009188               0.002852445              -0.000008610              -0.000353109               0.001068509               0.000715399               0.000000000               0.000000000               0.000000000               0.000000000               0.001066784               0.002677647              -0.001382117               0.000065336               0.000870761               0.000936097               0.000000000               0.000000000               0.000000000               0.000000000               0.000676299               0.002666074              -0.001010618              -0.000079648               0.000915232               0.000835583               0.000000000               0.000000000               0.000000000               0.000000000               0.000401699               0.002806433              -0.000616915              -0.000200167               0.001002190               0.000802024               0.000000000               0.000000000               0.000000000               0.000000000               0.000299429               0.002806940              -0.000426470              -0.000238581               0.001015164               0.000776583               0.000000000               0.000000000               0.000000000               0.000000000               0.000245928               0.002787066              -0.000317220              -0.000256160               0.001014399               0.000758240               0.000000000               0.000000000               0.000000000               0.000000000               0.000209303               0.002769689              -0.000248469              -0.000267722               0.001012461               0.000744739               0.000000000               0.000000000               0.000000000               0.000000000               0.000180665               0.002753297              -0.000205573              -0.000276412               0.001009894               0.000733482               0.000000000               0.000000000               0.000000000               0.000000000               0.000155045               0.002740869              -0.000173950              -0.000284466               0.001008436               0.000723970               0.000000000               0.000000000               0.000000000               0.000000000               0.000136946               0.002741632              -0.000143204              -0.000291348               0.001010984               0.000719636               0.000000000               0.000000000               0.000000000               0.000000000               0.000120702               0.002754106              -0.000116911              -0.000298999               0.001017692               0.000718693               0.000000000               0.000000000               0.000000000               0.000000000               0.000101652               0.002775966              -0.000094413              -0.000308875               0.001028271               0.000719396               0.000000000               0.000000000               0.000000000               0.000000000               0.000082239               0.002802460              -0.000072465              -0.000319467               0.001040633               0.000721166               0.000000000               0.000000000               0.000000000               0.000000000               0.000062037               0.002824587              -0.000054168              -0.000329809               0.001051456               0.000721647               0.000000000               0.000000000               0.000000000               0.000000000               0.000044934               0.002843300              -0.000039723              -0.000338562               0.001060611               0.000722049               0.000000000               0.000000000               0.000000000               0.000000000               0.000030547               0.002854748              -0.000026123              -0.000345387               0.001066702               0.000721315               0.000000000               0.000000000               0.000000000               0.000000000               0.000017115               0.002860438              -0.000013857              -0.000351136               0.001070515               0.000719379               0.000000000               0.000000000               0.000000000               0.000000000               0.000009477               0.002863465              -0.000008011              -0.000354378               0.001072605               0.000718227               0.000000000               0.000000000               0.000000000               0.000000000               0.001065287               0.002196468              -0.001263571               0.000124922               0.000690507               0.000815429               0.000000000               0.000000000               0.000000000               0.000000000               0.000672913               0.002350661              -0.000992098              -0.000041492               0.000797376               0.000755884               0.000000000               0.000000000               0.000000000               0.000000000               0.000375937               0.002625912              -0.000679119              -0.000187263               0.000937716               0.000750453               0.000000000               0.000000000               0.000000000               0.000000000               0.000277249               0.002690635              -0.000496957              -0.000232361               0.000974323               0.000741962               0.000000000               0.000000000               0.000000000               0.000000000               0.000228902               0.002710545              -0.000381046              -0.000252980               0.000987833               0.000734853               0.000000000               0.000000000               0.000000000               0.000000000               0.000196919               0.002717114              -0.000305372              -0.000265794               0.000994294               0.000728500               0.000000000               0.000000000               0.000000000               0.000000000               0.000172020               0.002714631              -0.000253467              -0.000274821               0.000996475               0.000721654               0.000000000               0.000000000               0.000000000               0.000000000               0.000153834               0.002717020              -0.000210547              -0.000281939               0.000999644               0.000717705               0.000000000               0.000000000               0.000000000               0.000000000               0.000140733               0.002732076              -0.000170129              -0.000288734               0.001006928               0.000718194               0.000000000               0.000000000               0.000000000               0.000000000               0.000128800               0.002755359              -0.000135035              -0.000296119               0.001017150               0.000721031               0.000000000               0.000000000               0.000000000               0.000000000               0.000112649               0.002786199              -0.000106006              -0.000306031               0.001030734               0.000724703               0.000000000               0.000000000               0.000000000               0.000000000               0.000097206               0.002821396              -0.000081296              -0.000316222               0.001045863               0.000729642               0.000000000               0.000000000               0.000000000               0.000000000               0.000081647               0.002850282              -0.000060043              -0.000325667               0.001058640               0.000732973               0.000000000               0.000000000               0.000000000               0.000000000               0.000065893               0.002870822              -0.000043224              -0.000334142               0.001068312               0.000734170               0.000000000               0.000000000               0.000000000               0.000000000               0.000047991               0.002883327              -0.000028553              -0.000342419               0.001075239               0.000732820               0.000000000               0.000000000               0.000000000               0.000000000               0.000028522               0.002891917              -0.000014655              -0.000350793               0.001080894               0.000730101               0.000000000               0.000000000               0.000000000               0.000000000               0.000015305               0.002893743              -0.000006380              -0.000355978               0.001083231               0.000727253               0.000000000               0.000000000               0.000000000               0.000000000               0.001025678               0.001726941              -0.001117354               0.000168759               0.000519388               0.000688147               0.000000000               0.000000000               0.000000000               0.000000000               0.000681517               0.001981360              -0.000965036               0.000007897               0.000657814               0.000665711               0.000000000               0.000000000               0.000000000               0.000000000               0.000390643               0.002356411              -0.000754286              -0.000148061               0.000834816               0.000686755               0.000000000               0.000000000               0.000000000               0.000000000               0.000292201               0.002499706              -0.000585600              -0.000202888               0.000900856               0.000697968               0.000000000               0.000000000               0.000000000               0.000000000               0.000243736               0.002571132              -0.000465237              -0.000229990               0.000933699               0.000703708               0.000000000               0.000000000               0.000000000               0.000000000               0.000214599               0.002616423              -0.000380853              -0.000246578               0.000954325               0.000707747               0.000000000               0.000000000               0.000000000               0.000000000               0.000188745               0.002642297              -0.000316778              -0.000259507               0.000967259               0.000707752               0.000000000               0.000000000               0.000000000               0.000000000               0.000168424               0.002660964              -0.000265403              -0.000269461               0.000976799               0.000707338               0.000000000               0.000000000               0.000000000               0.000000000               0.000155111               0.002684635              -0.000221175              -0.000277412               0.000987340               0.000709928               0.000000000               0.000000000               0.000000000               0.000000000               0.000147212               0.002716447              -0.000180981              -0.000284351               0.001000257               0.000715906               0.000000000               0.000000000               0.000000000               0.000000000               0.000137458               0.002757840              -0.000144498              -0.000293183               0.001016998               0.000723816               0.000000000               0.000000000               0.000000000               0.000000000               0.000123280               0.002805628              -0.000111963              -0.000304473               0.001036691               0.000732218               0.000000000               0.000000000               0.000000000               0.000000000               0.000105303               0.002846874              -0.000083510              -0.000316370               0.001054405               0.000738035               0.000000000               0.000000000               0.000000000               0.000000000               0.000085605               0.002876529              -0.000059229              -0.000327464               0.001067988               0.000740524               0.000000000               0.000000000               0.000000000               0.000000000               0.000063468               0.002894685              -0.000035726              -0.000338034               0.001077563               0.000739529               0.000000000               0.000000000               0.000000000               0.000000000               0.000038181               0.002906798              -0.000015167              -0.000349031               0.001085267               0.000736235               0.000000000               0.000000000               0.000000000               0.000000000               0.000018350               0.002906574              -0.000003413              -0.000356440               0.001087662               0.000731222               0.000000000               0.000000000               0.000000000               0.000000000               0.000932725               0.001283223              -0.000946354               0.000189366               0.000364614               0.000553980               0.000000000               0.000000000               0.000000000               0.000000000               0.000689011               0.001608503              -0.000912221               0.000057315               0.000517057               0.000574372               0.000000000               0.000000000               0.000000000               0.000000000               0.000438322               0.002053021              -0.000810520              -0.000092257               0.000715086               0.000622828               0.000000000               0.000000000               0.000000000               0.000000000               0.000341582               0.002271452              -0.000671718              -0.000155839               0.000809089               0.000653251               0.000000000               0.000000000               0.000000000               0.000000000               0.000289473               0.002400464              -0.000554713              -0.000191505               0.000863982               0.000672476               0.000000000               0.000000000               0.000000000               0.000000000               0.000254087               0.002490084              -0.000463174              -0.000215978               0.000902012               0.000686034               0.000000000               0.000000000               0.000000000               0.000000000               0.000225949               0.002553023              -0.000390533              -0.000234397               0.000929131               0.000694735               0.000000000               0.000000000               0.000000000               0.000000000               0.000201822               0.002595224              -0.000334095              -0.000248719               0.000947973               0.000699253               0.000000000               0.000000000               0.000000000               0.000000000               0.000186622               0.002631821              -0.000288860              -0.000258994               0.000963596               0.000704602               0.000000000               0.000000000               0.000000000               0.000000000               0.000177217               0.002671859              -0.000245562              -0.000267525               0.000979786               0.000712260               0.000000000               0.000000000               0.000000000               0.000000000               0.000169189               0.002723026              -0.000201618              -0.000276932               0.000999977               0.000723045               0.000000000               0.000000000               0.000000000               0.000000000               0.000155603               0.002783275              -0.000159243              -0.000289558               0.001024268               0.000734711               0.000000000               0.000000000               0.000000000               0.000000000               0.000136694               0.002838081              -0.000122713              -0.000303499               0.001047184               0.000743685               0.000000000               0.000000000               0.000000000               0.000000000               0.000111196               0.002873849              -0.000090591              -0.000317532               0.001063784               0.000746252               0.000000000               0.000000000               0.000000000               0.000000000               0.000080715               0.002893875              -0.000057288              -0.000331465               0.001075104               0.000743638               0.000000000               0.000000000               0.000000000               0.000000000               0.000047105               0.002907870              -0.000025227              -0.000345818               0.001084553               0.000738735               0.000000000               0.000000000               0.000000000               0.000000000               0.000019830               0.002905279              -0.000006368              -0.000355723               0.001086991               0.000731268               0.000000000               0.000000000               0.000000000               0.000000000               0.000793514               0.000891015              -0.000753595               0.000186189               0.000234939               0.000421127               0.000000000               0.000000000               0.000000000               0.000000000               0.000676377               0.001247535              -0.000818401               0.000097698               0.000383275               0.000480972               0.000000000               0.000000000               0.000000000               0.000000000               0.000501973               0.001716423              -0.000815309              -0.000026314               0.000580906               0.000554592               0.000000000               0.000000000               0.000000000               0.000000000               0.000419607               0.001993409              -0.000716978              -0.000091824               0.000695071               0.000603247               0.000000000               0.000000000               0.000000000               0.000000000               0.000364478               0.002175455              -0.000613982              -0.000135253               0.000770229               0.000634976               0.000000000               0.000000000               0.000000000               0.000000000               0.000321334               0.002310502              -0.000524112              -0.000168313               0.000826264               0.000657951               0.000000000               0.000000000               0.000000000               0.000000000               0.000288644               0.002416409              -0.000449436              -0.000193810               0.000870065               0.000676255               0.000000000               0.000000000               0.000000000               0.000000000               0.000259716               0.002490937              -0.000391673              -0.000213973               0.000901628               0.000687655               0.000000000               0.000000000               0.000000000               0.000000000               0.000236716               0.002547276              -0.000346756              -0.000229640               0.000925630               0.000695990               0.000000000               0.000000000               0.000000000               0.000000000               0.000222450               0.002604128              -0.000302305              -0.000242097               0.000948733               0.000706636               0.000000000               0.000000000               0.000000000               0.000000000               0.000211956               0.002668820              -0.000254011              -0.000254119               0.000974304               0.000720186               0.000000000               0.000000000               0.000000000               0.000000000               0.000197833               0.002738538              -0.000206618              -0.000268129               0.001002213               0.000734084               0.000000000               0.000000000               0.000000000               0.000000000               0.000178949               0.002807212              -0.000165876              -0.000283795               0.001030326               0.000746531               0.000000000               0.000000000               0.000000000               0.000000000               0.000152183               0.002856618              -0.000127924              -0.000300008               0.001052199               0.000752191               0.000000000               0.000000000               0.000000000               0.000000000               0.000117129               0.002887280              -0.000086736              -0.000316986               0.001068079               0.000751093               0.000000000               0.000000000               0.000000000               0.000000000               0.000070559               0.002905571              -0.000042864              -0.000336736               0.001080759               0.000744024               0.000000000               0.000000000               0.000000000               0.000000000               0.000029658               0.002901538              -0.000016122              -0.000351570               0.001084360               0.000732790               0.000000000               0.000000000               0.000000000               0.000000000               0.000620184               0.000570707              -0.000556936               0.000161229               0.000136491               0.000297719               0.000000000               0.000000000               0.000000000               0.000000000               0.000646134               0.000916638              -0.000687337               0.000127718               0.000262970               0.000390688               0.000000000               0.000000000               0.000000000               0.000000000               0.000572950               0.001369911              -0.000759431               0.000043616               0.000442093               0.000485710               0.000000000               0.000000000               0.000000000               0.000000000               0.000517657               0.001684045              -0.000703089              -0.000016385               0.000566804               0.000550419               0.000000000               0.000000000               0.000000000               0.000000000               0.000468013               0.001909124              -0.000621411              -0.000063136               0.000657413               0.000594277               0.000000000               0.000000000               0.000000000               0.000000000               0.000421372               0.002086879              -0.000543297              -0.000102845               0.000729901               0.000627056               0.000000000               0.000000000               0.000000000               0.000000000               0.000381240               0.002231729              -0.000474472              -0.000136001               0.000789236               0.000653235               0.000000000               0.000000000               0.000000000               0.000000000               0.000346209               0.002343102              -0.000419465              -0.000163059               0.000835379               0.000672320               0.000000000               0.000000000               0.000000000               0.000000000               0.000312364               0.002429178              -0.000376008              -0.000186511               0.000871888               0.000685378               0.000000000               0.000000000               0.000000000               0.000000000               0.000287629               0.002505692              -0.000333645              -0.000205350               0.000903672               0.000698322               0.000000000               0.000000000               0.000000000               0.000000000               0.000270967               0.002584005              -0.000284893              -0.000221388               0.000935122               0.000713735               0.000000000               0.000000000               0.000000000               0.000000000               0.000257411               0.002669166              -0.000236587              -0.000237116               0.000968752               0.000731636               0.000000000               0.000000000               0.000000000               0.000000000               0.000238241               0.002751784              -0.000195096              -0.000254632               0.001002130               0.000747498               0.000000000               0.000000000               0.000000000               0.000000000               0.000212109               0.002818754              -0.000156486              -0.000272803               0.001030509               0.000757707               0.000000000               0.000000000               0.000000000               0.000000000               0.000178459               0.002868912              -0.000110065              -0.000291691               0.001053525               0.000761834               0.000000000               0.000000000               0.000000000               0.000000000               0.000133387               0.002900331              -0.000054868              -0.000312520               0.001070941               0.000758421               0.000000000               0.000000000               0.000000000               0.000000000               0.000092171               0.002902431              -0.000021634              -0.000328239               0.001076880               0.000748642               0.000000000               0.000000000               0.000000000               0.000000000               0.000432183               0.000328470              -0.000376038               0.000121008               0.000069152               0.000190161               0.000000000               0.000000000               0.000000000               0.000000000               0.000599168               0.000636345              -0.000529078               0.000145143               0.000163732               0.000308875               0.000000000               0.000000000               0.000000000               0.000000000               0.000640509               0.001047261              -0.000638115               0.000109281               0.000312656               0.000421938               0.000000000               0.000000000               0.000000000               0.000000000               0.000621645               0.001374226              -0.000618289               0.000061337               0.000437625               0.000498962               0.000000000               0.000000000               0.000000000               0.000000000               0.000584267               0.001631025              -0.000562038               0.000015221               0.000538596               0.000553817               0.000000000               0.000000000               0.000000000               0.000000000               0.000538774               0.001841917              -0.000501662              -0.000028200               0.000623366               0.000595166               0.000000000               0.000000000               0.000000000               0.000000000               0.000493599               0.002021098              -0.000445793              -0.000067538               0.000696205               0.000628667               0.000000000               0.000000000               0.000000000               0.000000000               0.000451037               0.002168903              -0.000398776              -0.000101974               0.000756952               0.000654978               0.000000000               0.000000000               0.000000000               0.000000000               0.000407930               0.002284334              -0.000359762              -0.000132568               0.000805626               0.000673059               0.000000000               0.000000000               0.000000000               0.000000000               0.000367150               0.002385603              -0.000322381              -0.000160519               0.000848699               0.000688180               0.000000000               0.000000000               0.000000000               0.000000000               0.000337963               0.002485795              -0.000280742              -0.000183988               0.000889920               0.000705932               0.000000000               0.000000000               0.000000000               0.000000000               0.000321185               0.002589295              -0.000237341              -0.000203217               0.000930829               0.000727612               0.000000000               0.000000000               0.000000000               0.000000000               0.000304638               0.002684950              -0.000198305              -0.000221379               0.000968767               0.000747388               0.000000000               0.000000000               0.000000000               0.000000000               0.000280368               0.002766460              -0.000161333              -0.000240669               0.001002367               0.000761698               0.000000000               0.000000000               0.000000000               0.000000000               0.000253487               0.002835609              -0.000117421              -0.000259393               0.001031658               0.000772265               0.000000000               0.000000000               0.000000000               0.000000000               0.000227015               0.002885851              -0.000063484              -0.000275600               0.001053807               0.000778207               0.000000000               0.000000000               0.000000000               0.000000000               0.000203708               0.002900076              -0.000031004              -0.000286118               0.001062055               0.000775937               0.000000000               0.000000000               0.000000000               0.000000000               0.000265095               0.000169691              -0.000222331               0.000078198               0.000030497               0.000108695               0.000000000               0.000000000               0.000000000               0.000000000               0.000547302               0.000425756              -0.000355624               0.000152017               0.000091245               0.000243262               0.000000000               0.000000000               0.000000000               0.000000000               0.000694182               0.000782208              -0.000460733               0.000162540               0.000206553               0.000369094               0.000000000               0.000000000               0.000000000               0.000000000               0.000715639               0.001109450              -0.000461561               0.000129682               0.000326586               0.000456267               0.000000000               0.000000000               0.000000000               0.000000000               0.000692569               0.001385794              -0.000429044               0.000086488               0.000433097               0.000519585               0.000000000               0.000000000               0.000000000               0.000000000               0.000651179               0.001617388              -0.000389563               0.000042018               0.000525118               0.000567136               0.000000000               0.000000000               0.000000000               0.000000000               0.000603781               0.001821121              -0.000351539              -0.000001223               0.000607442               0.000606219               0.000000000               0.000000000               0.000000000               0.000000000               0.000553395               0.001995889              -0.000318160              -0.000041963               0.000679277               0.000637314               0.000000000               0.000000000               0.000000000               0.000000000               0.000502279               0.002143818              -0.000287909              -0.000079622               0.000741140               0.000661517               0.000000000               0.000000000               0.000000000               0.000000000               0.000451241               0.002277579              -0.000258633              -0.000115482               0.000797679               0.000682198               0.000000000               0.000000000               0.000000000               0.000000000               0.000409238               0.002398555              -0.000230104              -0.000146355               0.000848295               0.000701940               0.000000000               0.000000000               0.000000000               0.000000000               0.000384238               0.002513314              -0.000198956              -0.000170075               0.000894454               0.000724380               0.000000000               0.000000000               0.000000000               0.000000000               0.000366768               0.002621137              -0.000164521              -0.000190104               0.000937071               0.000746968               0.000000000               0.000000000               0.000000000               0.000000000               0.000349146               0.002714241              -0.000133788              -0.000208350               0.000974188               0.000765838               0.000000000               0.000000000               0.000000000               0.000000000               0.000339592               0.002793798              -0.000104109              -0.000221877               0.001005216               0.000783339               0.000000000               0.000000000               0.000000000               0.000000000               0.000335950               0.002861992              -0.000062005              -0.000231767               0.001031244               0.000799476               0.000000000               0.000000000               0.000000000               0.000000000               0.000330586               0.002890587              -0.000034917              -0.000237353               0.001042637               0.000805284               0.000000000               0.000000000               0.000000000               0.000000000               0.000151666               0.000084365              -0.000101626               0.000046329               0.000012678               0.000059007               0.000000000               0.000000000               0.000000000               0.000000000               0.000510597               0.000299116              -0.000178070               0.000154083               0.000048343               0.000202426               0.000000000               0.000000000               0.000000000               0.000000000               0.000729885               0.000610090              -0.000241472               0.000197443               0.000137547               0.000334990               0.000000000               0.000000000               0.000000000               0.000000000               0.000781301               0.000929314              -0.000247070               0.000176822               0.000250828               0.000427650               0.000000000               0.000000000               0.000000000               0.000000000               0.000769826               0.001215137              -0.000233316               0.000136791               0.000359444               0.000496236               0.000000000               0.000000000               0.000000000               0.000000000               0.000730243               0.001458557              -0.000214731               0.000091521               0.000455674               0.000547194               0.000000000               0.000000000               0.000000000               0.000000000               0.000679666               0.001673580              -0.000195146               0.000045677               0.000542629               0.000588306               0.000000000               0.000000000               0.000000000               0.000000000               0.000624821               0.001870050              -0.000177535               0.000000551               0.000623160               0.000623711               0.000000000               0.000000000               0.000000000               0.000000000               0.000569183               0.002046863              -0.000161611              -0.000042414               0.000696419               0.000654005               0.000000000               0.000000000               0.000000000               0.000000000               0.000515904               0.002198282              -0.000145743              -0.000081321               0.000759860               0.000678539               0.000000000               0.000000000               0.000000000               0.000000000               0.000468476               0.002327364              -0.000132417              -0.000115242               0.000814194               0.000698952               0.000000000               0.000000000               0.000000000               0.000000000               0.000433110               0.002448010              -0.000114677              -0.000143585               0.000863857               0.000720272               0.000000000               0.000000000               0.000000000               0.000000000               0.000413737               0.002565020              -0.000090856              -0.000165476               0.000910157               0.000744681               0.000000000               0.000000000               0.000000000               0.000000000               0.000408000               0.002672526              -0.000075726              -0.000181065               0.000951188               0.000770123               0.000000000               0.000000000               0.000000000               0.000000000               0.000411633               0.002767999              -0.000063469              -0.000191637               0.000986536               0.000794899               0.000000000               0.000000000               0.000000000               0.000000000               0.000425116               0.002851411              -0.000037312              -0.000197008               0.001016130               0.000819122               0.000000000               0.000000000               0.000000000               0.000000000               0.000438135               0.002889647              -0.000019780              -0.000196905               0.001028841               0.000831936               0.000000000               0.000000000               0.000000000               0.000000000               0.000110916               0.000056526               0.000000000               0.000034527               0.000007333               0.000041860               0.000000000               0.000000000               0.000000000               0.000000000               0.000497425               0.000255694               0.000000000               0.000154571               0.000033707               0.000188278               0.000000000               0.000000000               0.000000000               0.000000000               0.000742469               0.000549187               0.000000000               0.000209775               0.000113135               0.000322911               0.000000000               0.000000000               0.000000000               0.000000000               0.000805959               0.000865985              -0.000000000               0.000193985               0.000223997               0.000417982               0.000000000               0.000000000               0.000000000               0.000000000               0.000797985               0.001156269               0.000000000               0.000154709               0.000333849               0.000488559               0.000000000               0.000000000               0.000000000               0.000000000               0.000756671               0.001401213               0.000000000               0.000108599               0.000430867               0.000539466               0.000000000               0.000000000               0.000000000               0.000000000               0.000702615               0.001615580               0.000000000               0.000061532               0.000518010               0.000579543               0.000000000               0.000000000               0.000000000               0.000000000               0.000647825               0.001823784              -0.000000000               0.000014961               0.000602935               0.000617896               0.000000000               0.000000000               0.000000000               0.000000000               0.000592993               0.002014675              -0.000000000              -0.000029462               0.000681372               0.000651910               0.000000000               0.000000000               0.000000000               0.000000000               0.000539965               0.002167245               0.000000000              -0.000068418               0.000745214               0.000676795               0.000000000               0.000000000               0.000000000               0.000000000               0.000490711               0.002295761              -0.000000000              -0.000102953               0.000799564               0.000696611               0.000000000               0.000000000               0.000000000               0.000000000               0.000449065               0.002418291              -0.000000000              -0.000133887               0.000850718               0.000716831               0.000000000               0.000000000               0.000000000               0.000000000               0.000431211               0.002539829              -0.000000000              -0.000155774               0.000898526               0.000742752               0.000000000               0.000000000               0.000000000               0.000000000               0.000432847               0.002657461              -0.000000000              -0.000169864               0.000942433               0.000772568               0.000000000               0.000000000               0.000000000               0.000000000               0.000437859               0.002763835              -0.000000000              -0.000181282               0.000981696               0.000800415               0.000000000               0.000000000               0.000000000               0.000000000               0.000457029               0.002852779              -0.000000000              -0.000185211               0.001012654               0.000827443               0.000000000               0.000000000               0.000000000               0.000000000               0.000480824               0.002893417              -0.000000000              -0.000181368               0.001024919               0.000843551               0.000000000               0.000000000               0.000000000               0.000000000               0.000000000               0.000000000               0.000000000               0.000000000               0.000000000               0.000000000               0.000000000               0.000000000               0.000000000               0.000000000               0.000000000               0.000000000               0.000000000               0.000000000               0.000000000               0.000000000               0.000000000               0.000000000               0.000000000               0.000000000               0.000000000               0.000000000               0.000000000               0.000000000               0.000000000               0.000000000               0.000000000               0.000000000               0.000000000               0.000000000               0.000000000               0.000000000               0.000000000               0.000000000               0.000000000               0.000000000               0.000000000               0.000000000               0.000000000               0.000000000               0.000000000               0.000000000               0.000000000               0.000000000               0.000000000               0.000000000               0.000000000               0.000000000               0.000000000               0.000000000               0.000000000               0.000000000               0.000000000               0.000000000               0.000000000               0.000000000               0.000000000               0.000000000               0.000000000               0.000000000               0.000000000               0.000000000               0.000000000               0.000000000               0.000000000               0.000000000               0.000000000               0.000000000               0.000000000               0.000000000               0.000000000               0.000000000               0.000000000               0.000000000               0.000000000               0.000000000               0.000000000               0.000000000               0.000000000               0.000000000               0.000000000               0.000000000               0.000000000               0.000000000               0.000000000               0.000000000               0.000000000               0.000000000               0.000000000               0.000000000               0.000000000               0.000000000               0.000000000               0.000000000               0.000000000               0.000000000               0.000000000               0.000000000               0.000000000               0.000000000               0.000000000               0.000000000               0.000000000               0.000000000               0.000000000               0.000000000               0.000000000               0.000000000               0.000000000               0.000000000               0.000000000               0.000000000               0.000000000               0.000000000               0.000000000               0.000000000               0.000000000               0.000000000               0.000000000               0.000000000               0.000000000               0.000000000               0.000000000               0.000000000               0.000000000               0.000000000               0.000000000               0.000000000               0.000000000               0.000000000               0.000000000               0.000000000               0.000000000               0.000000000               0.000000000               0.000000000               0.000000000               0.000000000               0.000000000               0.000000000               0.000000000               0.000000000               0.000000000               0.000000000               0.000000000               0.000000000               0.000000000               0.000000000               0.000000000               0.000000000               0.000000000               0.000000000               0.000000000               0.000000000               0.000000000               0.000000000               0.000000000               0.000000000               0.000000000               0.000000000               0.000000000               0.000000000               0.000000000               0.000000000               0.000000000               0.000000000               0.000000000               0.000000000               0.000000000               0.000000000               0.000503832               0.005479265               0.000428458              -0.000495970               0.001991727               0.001495757               0.000000000               0.000000000               0.000000000               0.000000000               0.000537456               0.004570327               0.000281842              -0.000369744               0.001646675               0.001276931               0.000000000               0.000000000               0.000000000               0.000000000               0.000725847               0.003842874               0.000128253              -0.000208166               0.001350334               0.001142168               0.000000000               0.000000000               0.000000000               0.000000000               0.000744998               0.003441465               0.000053671              -0.000150809               0.001197413               0.001046605               0.000000000               0.000000000               0.000000000               0.000000000               0.000701586               0.003207351               0.000015133              -0.000137824               0.001115048               0.000977224               0.000000000               0.000000000               0.000000000               0.000000000               0.000636083               0.003065121              -0.000003335              -0.000144609               0.001069900               0.000925291               0.000000000               0.000000000               0.000000000               0.000000000               0.000563717               0.002976178              -0.000010692              -0.000160628               0.001045592               0.000884964               0.000000000               0.000000000               0.000000000               0.000000000               0.000497052               0.002922199              -0.000014828              -0.000178880               0.001033683               0.000854803               0.000000000               0.000000000               0.000000000               0.000000000               0.000435808               0.002891344              -0.000016004              -0.000197990               0.001029768               0.000831779               0.000000000               0.000000000               0.000000000               0.000000000               0.000376511               0.002875040              -0.000015757              -0.000218188               0.001031066               0.000812879               0.000000000               0.000000000               0.000000000               0.000000000               0.000320606               0.002870348              -0.000014886              -0.000238566               0.001036295               0.000797729               0.000000000               0.000000000               0.000000000               0.000000000               0.000269565               0.002873574              -0.000011595              -0.000258109               0.001043885               0.000785776               0.000000000               0.000000000               0.000000000               0.000000000               0.000220630               0.002879404              -0.000010042              -0.000277189               0.001052188               0.000774999               0.000000000               0.000000000               0.000000000               0.000000000               0.000169363               0.002890161              -0.000011689              -0.000297758               0.001062630               0.000764872               0.000000000               0.000000000               0.000000000               0.000000000               0.000114849               0.002905734              -0.000011394              -0.000320148               0.001075284               0.000755137               0.000000000               0.000000000               0.000000000               0.000000000               0.000057449               0.002922325              -0.000007734              -0.000343746               0.001088681               0.000744934               0.000000000               0.000000000               0.000000000               0.000000000               0.000030755               0.002936432              -0.000004796              -0.000355520               0.001097307               0.000741788               0.000000000               0.000000000               0.000000000               0.000000000               0.000593725               0.005216898               0.000811865              -0.000429465               0.001882103               0.001452639               0.000000000               0.000000000               0.000000000               0.000000000               0.000569596               0.004380392               0.000534132              -0.000333950               0.001571433               0.001237483               0.000000000               0.000000000               0.000000000               0.000000000               0.000697243               0.003734937               0.000244974              -0.000205400               0.001313433               0.001108033               0.000000000               0.000000000               0.000000000               0.000000000               0.000692922               0.003381058               0.000107663              -0.000162786               0.001181270               0.001018484               0.000000000               0.000000000               0.000000000               0.000000000               0.000639864               0.003173483               0.000039662              -0.000156736               0.001110063               0.000953326               0.000000000               0.000000000               0.000000000               0.000000000               0.000570707               0.003042711               0.000006153              -0.000166323               0.001069668               0.000903345               0.000000000               0.000000000               0.000000000               0.000000000               0.000502196               0.002962041              -0.000009595              -0.000181931               0.001047981               0.000866050               0.000000000               0.000000000               0.000000000               0.000000000               0.000439983               0.002915260              -0.000016667              -0.000199413               0.001038215               0.000838801               0.000000000               0.000000000               0.000000000               0.000000000               0.000380372               0.002887552              -0.000018139              -0.000218304               0.001035276               0.000816972               0.000000000               0.000000000               0.000000000               0.000000000               0.000324954               0.002873524              -0.000017631              -0.000237332               0.001036942               0.000799610               0.000000000               0.000000000               0.000000000               0.000000000               0.000275506               0.002869145              -0.000017344              -0.000255328               0.001041481               0.000786154               0.000000000               0.000000000               0.000000000               0.000000000               0.000230163               0.002871314              -0.000012786              -0.000272602               0.001047962               0.000775360               0.000000000               0.000000000               0.000000000               0.000000000               0.000187663               0.002878352              -0.000009855              -0.000289420               0.001055914               0.000766495               0.000000000               0.000000000               0.000000000               0.000000000               0.000143578               0.002890772              -0.000013833              -0.000307504               0.001066082               0.000758578               0.000000000               0.000000000               0.000000000               0.000000000               0.000096396               0.002910397              -0.000016119              -0.000327650               0.001079339               0.000751689               0.000000000               0.000000000               0.000000000               0.000000000               0.000047656               0.002935612              -0.000011895              -0.000349080               0.001094887               0.000745808               0.000000000               0.000000000               0.000000000               0.000000000               0.000026636               0.002956760              -0.000006807              -0.000359606               0.001105445               0.000745840               0.000000000               0.000000000               0.000000000               0.000000000               0.000717333               0.004815986               0.001116607              -0.000332998               0.001716312               0.001383313               0.000000000               0.000000000               0.000000000               0.000000000               0.000611479               0.004095815               0.000736925              -0.000282672               0.001459482               0.001176810               0.000000000               0.000000000               0.000000000               0.000000000               0.000651618               0.003580950               0.000344738              -0.000203262               0.001261392               0.001058130               0.000000000               0.000000000               0.000000000               0.000000000               0.000613228               0.003296828               0.000164024              -0.000182143               0.001159646               0.000977503               0.000000000               0.000000000               0.000000000               0.000000000               0.000552210               0.003123995               0.000076617              -0.000183420               0.001102461               0.000919041               0.000000000               0.000000000               0.000000000               0.000000000               0.000485168               0.003014248               0.000033623              -0.000194843               0.001069687               0.000874844               0.000000000               0.000000000               0.000000000               0.000000000               0.000419638               0.002944902               0.000012281              -0.000210748               0.001051873               0.000841126               0.000000000               0.000000000               0.000000000               0.000000000               0.000362048               0.002903774               0.000003024              -0.000227203               0.001043650               0.000816446               0.000000000               0.000000000               0.000000000               0.000000000               0.000310286               0.002880538               0.000001021              -0.000243709               0.001041406               0.000797697               0.000000000               0.000000000               0.000000000               0.000000000               0.000265259               0.002868475               0.000000514              -0.000259087               0.001042511               0.000783424               0.000000000               0.000000000               0.000000000               0.000000000               0.000226332               0.002864472               0.000000296              -0.000273184               0.001045876               0.000772692               0.000000000               0.000000000               0.000000000               0.000000000               0.000186084               0.002866463               0.000004047              -0.000288526               0.001051653               0.000763128               0.000000000               0.000000000               0.000000000               0.000000000               0.000145752               0.002874470               0.000006240              -0.000304651               0.001059697               0.000755046               0.000000000               0.000000000               0.000000000               0.000000000               0.000107238               0.002887306              -0.000000502              -0.000320698               0.001069325               0.000748627               0.000000000               0.000000000               0.000000000               0.000000000               0.000069543               0.002905915              -0.000008538              -0.000337160               0.001081016               0.000743855               0.000000000               0.000000000               0.000000000               0.000000000               0.000033701               0.002929148              -0.000008515              -0.000353505               0.001094208               0.000740703               0.000000000               0.000000000               0.000000000               0.000000000               0.000020034               0.002948644              -0.000004444              -0.000361067               0.001103227               0.000742160               0.000000000               0.000000000               0.000000000               0.000000000               0.000847747               0.004320223               0.001326389              -0.000222123               0.001514101               0.001291977               0.000000000               0.000000000               0.000000000               0.000000000               0.000650554               0.003755433               0.000882775              -0.000225471               0.001326955               0.001101484               0.000000000               0.000000000               0.000000000               0.000000000               0.000594490               0.003401568               0.000428617              -0.000202262               0.001201265               0.000999003               0.000000000               0.000000000               0.000000000               0.000000000               0.000522204               0.003190983               0.000225544              -0.000203046               0.001131332               0.000928286               0.000000000               0.000000000               0.000000000               0.000000000               0.000453793               0.003055269               0.000127604              -0.000211736               0.001088991               0.000877256               0.000000000               0.000000000               0.000000000               0.000000000               0.000392589               0.002969068               0.000078671              -0.000223912               0.001064317               0.000840405               0.000000000               0.000000000               0.000000000               0.000000000               0.000334646               0.002915339               0.000054227              -0.000238925               0.001051412               0.000812487               0.000000000               0.000000000               0.000000000               0.000000000               0.000284425               0.002881744               0.000041606              -0.000253558               0.001045091               0.000791533               0.000000000               0.000000000               0.000000000               0.000000000               0.000243473               0.002862072               0.000035950              -0.000266456               0.001042833               0.000776377               0.000000000               0.000000000               0.000000000               0.000000000               0.000208454               0.002851868               0.000034128              -0.000278312               0.001043384               0.000765071               0.000000000               0.000000000               0.000000000               0.000000000               0.000175063               0.002846043               0.000031125              -0.000290106               0.001045373               0.000755267               0.000000000               0.000000000               0.000000000               0.000000000               0.000140447               0.002846830               0.000030132              -0.000303185               0.001049996               0.000746810               0.000000000               0.000000000               0.000000000               0.000000000               0.000105149               0.002854704               0.000028913              -0.000317406               0.001057361               0.000739954               0.000000000               0.000000000               0.000000000               0.000000000               0.000071657               0.002866215               0.000018412              -0.000331405               0.001065864               0.000734459               0.000000000               0.000000000               0.000000000               0.000000000               0.000043024               0.002878806               0.000004737              -0.000343716               0.001074164               0.000730449               0.000000000               0.000000000               0.000000000               0.000000000               0.000019883               0.002892376              -0.000001012              -0.000354090               0.001082146               0.000728056               0.000000000               0.000000000               0.000000000               0.000000000               0.000011735               0.002902785              -0.000000071              -0.000358446               0.001087067               0.000728621               0.000000000               0.000000000               0.000000000               0.000000000               0.000963493               0.003775167               0.001434591              -0.000110587               0.001295238               0.001184651               0.000000000               0.000000000               0.000000000               0.000000000               0.000676929               0.003389051               0.000971201              -0.000169783               0.001186267               0.001016483               0.000000000               0.000000000               0.000000000               0.000000000               0.000527160               0.003206136               0.000500047              -0.000203082               0.001136395               0.000933314               0.000000000               0.000000000               0.000000000               0.000000000               0.000432660               0.003069659               0.000292674              -0.000221459               0.001097029               0.000875570               0.000000000               0.000000000               0.000000000               0.000000000               0.000364004               0.002974156               0.000190779              -0.000235268               0.001069798               0.000834530               0.000000000               0.000000000               0.000000000               0.000000000               0.000310285               0.002911790               0.000136350              -0.000247616               0.001053126               0.000805509               0.000000000               0.000000000               0.000000000               0.000000000               0.000263614               0.002871560               0.000106028              -0.000260089               0.001043873               0.000783784               0.000000000               0.000000000               0.000000000               0.000000000               0.000222565               0.002842901               0.000088206              -0.000271900               0.001038257               0.000766357               0.000000000               0.000000000               0.000000000               0.000000000               0.000189714               0.002824948               0.000076792              -0.000281975               0.001035632               0.000753656               0.000000000               0.000000000               0.000000000               0.000000000               0.000161137               0.002816545               0.000070923              -0.000291641               0.001036053               0.000744412               0.000000000               0.000000000               0.000000000               0.000000000               0.000134738               0.002813703               0.000064474              -0.000301186               0.001038287               0.000737101               0.000000000               0.000000000               0.000000000               0.000000000               0.000104642               0.002815917               0.000054454              -0.000312748               0.001042879               0.000730131               0.000000000               0.000000000               0.000000000               0.000000000               0.000073261               0.002827147               0.000045543              -0.000325920               0.001051013               0.000725093               0.000000000               0.000000000               0.000000000               0.000000000               0.000045491               0.002838847               0.000031888              -0.000337796               0.001058872               0.000721076               0.000000000               0.000000000               0.000000000               0.000000000               0.000024794               0.002848157               0.000014901              -0.000346721               0.001064950               0.000718229               0.000000000               0.000000000               0.000000000               0.000000000               0.000011433               0.002855745               0.000005515              -0.000352680               0.001069466               0.000716786               0.000000000               0.000000000               0.000000000               0.000000000               0.000008350               0.002862041               0.000005145              -0.000354623               0.001072212               0.000717589               0.000000000               0.000000000               0.000000000               0.000000000               0.001039284               0.003218693               0.001447558              -0.000012607               0.001077089               0.001064482               0.000000000               0.000000000               0.000000000               0.000000000               0.000684967               0.003018514               0.001010113              -0.000120452               0.001046312               0.000925859               0.000000000               0.000000000               0.000000000               0.000000000               0.000458767               0.003004150               0.000561922              -0.000203481               0.001069200               0.000865719               0.000000000               0.000000000               0.000000000               0.000000000               0.000355084               0.002940336               0.000361375              -0.000234385               0.001058231               0.000823846               0.000000000               0.000000000               0.000000000               0.000000000               0.000293090               0.002883410               0.000256591              -0.000250517               0.001044633               0.000794116               0.000000000               0.000000000               0.000000000               0.000000000               0.000248724               0.002843378               0.000195177              -0.000262150               0.001035167               0.000773016               0.000000000               0.000000000               0.000000000               0.000000000               0.000212166               0.002814299               0.000158657              -0.000272224               0.001028832               0.000756607               0.000000000               0.000000000               0.000000000               0.000000000               0.000178431               0.002789972               0.000134934              -0.000281834               0.001023926               0.000742092               0.000000000               0.000000000               0.000000000               0.000000000               0.000152811               0.002777119               0.000115435              -0.000289835               0.001022309               0.000732474               0.000000000               0.000000000               0.000000000               0.000000000               0.000129894               0.002774863               0.000100291              -0.000298147               0.001024328               0.000726180               0.000000000               0.000000000               0.000000000               0.000000000               0.000108234               0.002782846               0.000086581              -0.000307267               0.001030028               0.000722761               0.000000000               0.000000000               0.000000000               0.000000000               0.000086215               0.002798000               0.000067938              -0.000317418               0.001038464               0.000721045               0.000000000               0.000000000               0.000000000               0.000000000               0.000061709               0.002815161               0.000052310              -0.000328753               0.001047962               0.000719209               0.000000000               0.000000000               0.000000000               0.000000000               0.000039539               0.002830201               0.000038136              -0.000338947               0.001056373               0.000717426               0.000000000               0.000000000               0.000000000               0.000000000               0.000024616               0.002840985               0.000022219              -0.000345891               0.001062283               0.000716391               0.000000000               0.000000000               0.000000000               0.000000000               0.000013026               0.002846980               0.000011199              -0.000350987               0.001065980               0.000714993               0.000000000               0.000000000               0.000000000               0.000000000               0.000009188               0.002852445               0.000008610              -0.000353109               0.001068509               0.000715399               0.000000000               0.000000000               0.000000000               0.000000000               0.001066784               0.002677647               0.001382117               0.000065336               0.000870761               0.000936097               0.000000000               0.000000000               0.000000000               0.000000000               0.000676299               0.002666074               0.001010618              -0.000079648               0.000915232               0.000835583               0.000000000               0.000000000               0.000000000               0.000000000               0.000401699               0.002806433               0.000616915              -0.000200167               0.001002190               0.000802024               0.000000000               0.000000000               0.000000000               0.000000000               0.000299429               0.002806940               0.000426470              -0.000238581               0.001015164               0.000776583               0.000000000               0.000000000               0.000000000               0.000000000               0.000245928               0.002787066               0.000317220              -0.000256160               0.001014399               0.000758240               0.000000000               0.000000000               0.000000000               0.000000000               0.000209303               0.002769689               0.000248469              -0.000267722               0.001012461               0.000744739               0.000000000               0.000000000               0.000000000               0.000000000               0.000180665               0.002753297               0.000205573              -0.000276412               0.001009894               0.000733482               0.000000000               0.000000000               0.000000000               0.000000000               0.000155045               0.002740869               0.000173950              -0.000284466               0.001008436               0.000723970               0.000000000               0.000000000               0.000000000               0.000000000               0.000136946               0.002741632               0.000143204              -0.000291348               0.001010984               0.000719636               0.000000000               0.000000000               0.000000000               0.000000000               0.000120702               0.002754106               0.000116911              -0.000298999               0.001017692               0.000718693               0.000000000               0.000000000               0.000000000               0.000000000               0.000101652               0.002775966               0.000094413              -0.000308875               0.001028271               0.000719396               0.000000000               0.000000000               0.000000000               0.000000000               0.000082239               0.002802460               0.000072465              -0.000319467               0.001040633               0.000721166               0.000000000               0.000000000               0.000000000               0.000000000               0.000062037               0.002824587               0.000054168              -0.000329809               0.001051456               0.000721647               0.000000000               0.000000000               0.000000000               0.000000000               0.000044934               0.002843300               0.000039723              -0.000338562               0.001060611               0.000722049               0.000000000               0.000000000               0.000000000               0.000000000               0.000030547               0.002854748               0.000026123              -0.000345387               0.001066702               0.000721315               0.000000000               0.000000000               0.000000000               0.000000000               0.000017115               0.002860438               0.000013857              -0.000351136               0.001070515               0.000719379               0.000000000               0.000000000               0.000000000               0.000000000               0.000009477               0.002863465               0.000008011              -0.000354378               0.001072605               0.000718227               0.000000000               0.000000000               0.000000000               0.000000000               0.001065287               0.002196468               0.001263571               0.000124922               0.000690507               0.000815429               0.000000000               0.000000000               0.000000000               0.000000000               0.000672913               0.002350661               0.000992098              -0.000041492               0.000797376               0.000755884               0.000000000               0.000000000               0.000000000               0.000000000               0.000375937               0.002625912               0.000679119              -0.000187263               0.000937716               0.000750453               0.000000000               0.000000000               0.000000000               0.000000000               0.000277249               0.002690635               0.000496957              -0.000232361               0.000974323               0.000741962               0.000000000               0.000000000               0.000000000               0.000000000               0.000228902               0.002710545               0.000381046              -0.000252980               0.000987833               0.000734853               0.000000000               0.000000000               0.000000000               0.000000000               0.000196919               0.002717114               0.000305372              -0.000265794               0.000994294               0.000728500               0.000000000               0.000000000               0.000000000               0.000000000               0.000172020               0.002714631               0.000253467              -0.000274821               0.000996475               0.000721654               0.000000000               0.000000000               0.000000000               0.000000000               0.000153834               0.002717020               0.000210547              -0.000281939               0.000999644               0.000717705               0.000000000               0.000000000               0.000000000               0.000000000               0.000140733               0.002732076               0.000170129              -0.000288734               0.001006928               0.000718194               0.000000000               0.000000000               0.000000000               0.000000000               0.000128800               0.002755359               0.000135035              -0.000296119               0.001017150               0.000721031               0.000000000               0.000000000               0.000000000               0.000000000               0.000112649               0.002786199               0.000106006              -0.000306031               0.001030734               0.000724703               0.000000000               0.000000000               0.000000000               0.000000000               0.000097206               0.002821396               0.000081296              -0.000316222               0.001045863               0.000729642               0.000000000               0.000000000               0.000000000               0.000000000               0.000081647               0.002850282               0.000060043              -0.000325667               0.001058640               0.000732973               0.000000000               0.000000000               0.000000000               0.000000000               0.000065893               0.002870822               0.000043224              -0.000334142               0.001068312               0.000734170               0.000000000               0.000000000               0.000000000               0.000000000               0.000047991               0.002883327               0.000028553              -0.000342419               0.001075239               0.000732820               0.000000000               0.000000000               0.000000000               0.000000000               0.000028522               0.002891917               0.000014655              -0.000350793               0.001080894               0.000730101               0.000000000               0.000000000               0.000000000               0.000000000               0.000015305               0.002893743               0.000006380              -0.000355978               0.001083231               0.000727253               0.000000000               0.000000000               0.000000000               0.000000000               0.001025678               0.001726941               0.001117354               0.000168759               0.000519388               0.000688147               0.000000000               0.000000000               0.000000000               0.000000000               0.000681517               0.001981360               0.000965036               0.000007897               0.000657814               0.000665711               0.000000000               0.000000000               0.000000000               0.000000000               0.000390643               0.002356411               0.000754286              -0.000148061               0.000834816               0.000686755               0.000000000               0.000000000               0.000000000               0.000000000               0.000292201               0.002499706               0.000585600              -0.000202888               0.000900856               0.000697968               0.000000000               0.000000000               0.000000000               0.000000000               0.000243736               0.002571132               0.000465237              -0.000229990               0.000933699               0.000703708               0.000000000               0.000000000               0.000000000               0.000000000               0.000214599               0.002616423               0.000380853              -0.000246578               0.000954325               0.000707747               0.000000000               0.000000000               0.000000000               0.000000000               0.000188745               0.002642297               0.000316778              -0.000259507               0.000967259               0.000707752               0.000000000               0.000000000               0.000000000               0.000000000               0.000168424               0.002660964               0.000265403              -0.000269461               0.000976799               0.000707338               0.000000000               0.000000000               0.000000000               0.000000000               0.000155111               0.002684635               0.000221175              -0.000277412               0.000987340               0.000709928               0.000000000               0.000000000               0.000000000               0.000000000               0.000147212               0.002716447               0.000180981              -0.000284351               0.001000257               0.000715906               0.000000000               0.000000000               0.000000000               0.000000000               0.000137458               0.002757840               0.000144498              -0.000293183               0.001016998               0.000723816               0.000000000               0.000000000               0.000000000               0.000000000               0.000123280               0.002805628               0.000111963              -0.000304473               0.001036691               0.000732218               0.000000000               0.000000000               0.000000000               0.000000000               0.000105303               0.002846874               0.000083510              -0.000316370               0.001054405               0.000738035               0.000000000               0.000000000               0.000000000               0.000000000               0.000085605               0.002876529               0.000059229              -0.000327464               0.001067988               0.000740524               0.000000000               0.000000000               0.000000000               0.000000000               0.000063468               0.002894685               0.000035726              -0.000338034               0.001077563               0.000739529               0.000000000               0.000000000               0.000000000               0.000000000               0.000038181               0.002906798               0.000015167              -0.000349031               0.001085267               0.000736235               0.000000000               0.000000000               0.000000000               0.000000000               0.000018350               0.002906574               0.000003413              -0.000356440               0.001087662               0.000731222               0.000000000               0.000000000               0.000000000               0.000000000               0.000932725               0.001283223               0.000946354               0.000189366               0.000364614               0.000553980               0.000000000               0.000000000               0.000000000               0.000000000               0.000689011               0.001608503               0.000912221               0.000057315               0.000517057               0.000574372               0.000000000               0.000000000               0.000000000               0.000000000               0.000438322               0.002053021               0.000810520              -0.000092257               0.000715086               0.000622828               0.000000000               0.000000000               0.000000000               0.000000000               0.000341582               0.002271452               0.000671718              -0.000155839               0.000809089               0.000653251               0.000000000               0.000000000               0.000000000               0.000000000               0.000289473               0.002400464               0.000554713              -0.000191505               0.000863982               0.000672476               0.000000000               0.000000000               0.000000000               0.000000000               0.000254087               0.002490084               0.000463174              -0.000215978               0.000902012               0.000686034               0.000000000               0.000000000               0.000000000               0.000000000               0.000225949               0.002553023               0.000390533              -0.000234397               0.000929131               0.000694735               0.000000000               0.000000000               0.000000000               0.000000000               0.000201822               0.002595224               0.000334095              -0.000248719               0.000947973               0.000699253               0.000000000               0.000000000               0.000000000               0.000000000               0.000186622               0.002631821               0.000288860              -0.000258994               0.000963596               0.000704602               0.000000000               0.000000000               0.000000000               0.000000000               0.000177217               0.002671859               0.000245562              -0.000267525               0.000979786               0.000712260               0.000000000               0.000000000               0.000000000               0.000000000               0.000169189               0.002723026               0.000201618              -0.000276932               0.000999977               0.000723045               0.000000000               0.000000000               0.000000000               0.000000000               0.000155603               0.002783275               0.000159243              -0.000289558               0.001024268               0.000734711               0.000000000               0.000000000               0.000000000               0.000000000               0.000136694               0.002838081               0.000122713              -0.000303499               0.001047184               0.000743685               0.000000000               0.000000000               0.000000000               0.000000000               0.000111196               0.002873849               0.000090591              -0.000317532               0.001063784               0.000746252               0.000000000               0.000000000               0.000000000               0.000000000               0.000080715               0.002893875               0.000057288              -0.000331465               0.001075104               0.000743638               0.000000000               0.000000000               0.000000000               0.000000000               0.000047105               0.002907870               0.000025227              -0.000345818               0.001084553               0.000738735               0.000000000               0.000000000               0.000000000               0.000000000               0.000019830               0.002905279               0.000006368              -0.000355723               0.001086991               0.000731268               0.000000000               0.000000000               0.000000000               0.000000000               0.000793514               0.000891015               0.000753595               0.000186189               0.000234939               0.000421127               0.000000000               0.000000000               0.000000000               0.000000000               0.000676377               0.001247535               0.000818401               0.000097698               0.000383275               0.000480972               0.000000000               0.000000000               0.000000000               0.000000000               0.000501973               0.001716423               0.000815309              -0.000026314               0.000580906               0.000554592               0.000000000               0.000000000               0.000000000               0.000000000               0.000419607               0.001993409               0.000716978              -0.000091824               0.000695071               0.000603247               0.000000000               0.000000000               0.000000000               0.000000000               0.000364478               0.002175455               0.000613982              -0.000135253               0.000770229               0.000634976               0.000000000               0.000000000               0.000000000               0.000000000               0.000321334               0.002310502               0.000524112              -0.000168313               0.000826264               0.000657951               0.000000000               0.000000000               0.000000000               0.000000000               0.000288644               0.002416409               0.000449436              -0.000193810               0.000870065               0.000676255               0.000000000               0.000000000               0.000000000               0.000000000               0.000259716               0.002490937               0.000391673              -0.000213973               0.000901628               0.000687655               0.000000000               0.000000000               0.000000000               0.000000000               0.000236716               0.002547276               0.000346756              -0.000229640               0.000925630               0.000695990               0.000000000               0.000000000               0.000000000               0.000000000               0.000222450               0.002604128               0.000302305              -0.000242097               0.000948733               0.000706636               0.000000000               0.000000000               0.000000000               0.000000000               0.000211956               0.002668820               0.000254011              -0.000254119               0.000974304               0.000720186               0.000000000               0.000000000               0.000000000               0.000000000               0.000197833               0.002738538               0.000206618              -0.000268129               0.001002213               0.000734084               0.000000000               0.000000000               0.000000000               0.000000000               0.000178949               0.002807212               0.000165876              -0.000283795               0.001030326               0.000746531               0.000000000               0.000000000               0.000000000               0.000000000               0.000152183               0.002856618               0.000127924              -0.000300008               0.001052199               0.000752191               0.000000000               0.000000000               0.000000000               0.000000000               0.000117129               0.002887280               0.000086736              -0.000316986               0.001068079               0.000751093               0.000000000               0.000000000               0.000000000               0.000000000               0.000070559               0.002905571               0.000042864              -0.000336736               0.001080759               0.000744024               0.000000000               0.000000000               0.000000000               0.000000000               0.000029658               0.002901538               0.000016122              -0.000351570               0.001084360               0.000732790               0.000000000               0.000000000               0.000000000               0.000000000               0.000620184               0.000570707               0.000556936               0.000161229               0.000136491               0.000297719               0.000000000               0.000000000               0.000000000               0.000000000               0.000646134               0.000916638               0.000687337               0.000127718               0.000262970               0.000390688               0.000000000               0.000000000               0.000000000               0.000000000               0.000572950               0.001369911               0.000759431               0.000043616               0.000442093               0.000485710               0.000000000               0.000000000               0.000000000               0.000000000               0.000517657               0.001684045               0.000703089              -0.000016385               0.000566804               0.000550419               0.000000000               0.000000000               0.000000000               0.000000000               0.000468013               0.001909124               0.000621411              -0.000063136               0.000657413               0.000594277               0.000000000               0.000000000               0.000000000               0.000000000               0.000421372               0.002086879               0.000543297              -0.000102845               0.000729901               0.000627056               0.000000000               0.000000000               0.000000000               0.000000000               0.000381240               0.002231729               0.000474472              -0.000136001               0.000789236               0.000653235               0.000000000               0.000000000               0.000000000               0.000000000               0.000346209               0.002343102               0.000419465              -0.000163059               0.000835379               0.000672320               0.000000000               0.000000000               0.000000000               0.000000000               0.000312364               0.002429178               0.000376008              -0.000186511               0.000871888               0.000685378               0.000000000               0.000000000               0.000000000               0.000000000               0.000287629               0.002505692               0.000333645              -0.000205350               0.000903672               0.000698322               0.000000000               0.000000000               0.000000000               0.000000000               0.000270967               0.002584005               0.000284893              -0.000221388               0.000935122               0.000713735               0.000000000               0.000000000               0.000000000               0.000000000               0.000257411               0.002669166               0.000236587              -0.000237116               0.000968752               0.000731636               0.000000000               0.000000000               0.000000000               0.000000000               0.000238241               0.002751784               0.000195096              -0.000254632               0.001002130               0.000747498               0.000000000               0.000000000               0.000000000               0.000000000               0.000212109               0.002818754               0.000156486              -0.000272803               0.001030509               0.000757707               0.000000000               0.000000000               0.000000000               0.000000000               0.000178459               0.002868912               0.000110065              -0.000291691               0.001053525               0.000761834               0.000000000               0.000000000               0.000000000               0.000000000               0.000133387               0.002900331               0.000054868              -0.000312520               0.001070941               0.000758421               0.000000000               0.000000000               0.000000000               0.000000000               0.000092171               0.002902431               0.000021634              -0.000328239               0.001076880               0.000748642               0.000000000               0.000000000               0.000000000               0.000000000               0.000432183               0.000328470               0.000376038               0.000121008               0.000069152               0.000190161               0.000000000               0.000000000               0.000000000               0.000000000               0.000599168               0.000636345               0.000529078               0.000145143               0.000163732               0.000308875               0.000000000               0.000000000               0.000000000               0.000000000               0.000640509               0.001047261               0.000638115               0.000109281               0.000312656               0.000421938               0.000000000               0.000000000               0.000000000               0.000000000               0.000621645               0.001374226               0.000618289               0.000061337               0.000437625               0.000498962               0.000000000               0.000000000               0.000000000               0.000000000               0.000584267               0.001631025               0.000562038               0.000015221               0.000538596               0.000553817               0.000000000               0.000000000               0.000000000               0.000000000               0.000538774               0.001841917               0.000501662              -0.000028200               0.000623366               0.000595166               0.000000000               0.000000000               0.000000000               0.000000000               0.000493599               0.002021098               0.000445793              -0.000067538               0.000696205               0.000628667               0.000000000               0.000000000               0.000000000               0.000000000               0.000451037               0.002168903               0.000398776              -0.000101974               0.000756952               0.000654978               0.000000000               0.000000000               0.000000000               0.000000000               0.000407930               0.002284334               0.000359762              -0.000132568               0.000805626               0.000673059               0.000000000               0.000000000               0.000000000               0.000000000               0.000367150               0.002385603               0.000322381              -0.000160519               0.000848699               0.000688180               0.000000000               0.000000000               0.000000000               0.000000000               0.000337963               0.002485795               0.000280742              -0.000183988               0.000889920               0.000705932               0.000000000               0.000000000               0.000000000               0.000000000               0.000321185               0.002589295               0.000237341              -0.000203217               0.000930829               0.000727612               0.000000000               0.000000000               0.000000000               0.000000000               0.000304638               0.002684950               0.000198305              -0.000221379               0.000968767               0.000747388               0.000000000               0.000000000               0.000000000               0.000000000               0.000280368               0.002766460               0.000161333              -0.000240669               0.001002367               0.000761698               0.000000000               0.000000000               0.000000000               0.000000000               0.000253487               0.002835609               0.000117421              -0.000259393               0.001031658               0.000772265               0.000000000               0.000000000               0.000000000               0.000000000               0.000227015               0.002885851               0.000063484              -0.000275600               0.001053807               0.000778207               0.000000000               0.000000000               0.000000000               0.000000000               0.000203708               0.002900076               0.000031004              -0.000286118               0.001062055               0.000775937               0.000000000               0.000000000               0.000000000               0.000000000               0.000265095               0.000169691               0.000222331               0.000078198               0.000030497               0.000108695               0.000000000               0.000000000               0.000000000               0.000000000               0.000547302               0.000425756               0.000355624               0.000152017               0.000091245               0.000243262               0.000000000               0.000000000               0.000000000               0.000000000               0.000694182               0.000782208               0.000460733               0.000162540               0.000206553               0.000369094               0.000000000               0.000000000               0.000000000               0.000000000               0.000715639               0.001109450               0.000461561               0.000129682               0.000326586               0.000456267               0.000000000               0.000000000               0.000000000               0.000000000               0.000692569               0.001385794               0.000429044               0.000086488               0.000433097               0.000519585               0.000000000               0.000000000               0.000000000               0.000000000               0.000651179               0.001617388               0.000389563               0.000042018               0.000525118               0.000567136               0.000000000               0.000000000               0.000000000               0.000000000               0.000603781               0.001821121               0.000351539              -0.000001223               0.000607442               0.000606219               0.000000000               0.000000000               0.000000000               0.000000000               0.000553395               0.001995889               0.000318160              -0.000041963               0.000679277               0.000637314               0.000000000               0.000000000               0.000000000               0.000000000               0.000502279               0.002143818               0.000287909              -0.000079622               0.000741140               0.000661517               0.000000000               0.000000000               0.000000000               0.000000000               0.000451241               0.002277579               0.000258633              -0.000115482               0.000797679               0.000682198               0.000000000               0.000000000               0.000000000               0.000000000               0.000409238               0.002398555               0.000230104              -0.000146355               0.000848295               0.000701940               0.000000000               0.000000000               0.000000000               0.000000000               0.000384238               0.002513314               0.000198956              -0.000170075               0.000894454               0.000724380               0.000000000               0.000000000               0.000000000               0.000000000               0.000366768               0.002621137               0.000164521              -0.000190104               0.000937071               0.000746968               0.000000000               0.000000000               0.000000000               0.000000000               0.000349146               0.002714241               0.000133788              -0.000208350               0.000974188               0.000765838               0.000000000               0.000000000               0.000000000               0.000000000               0.000339592               0.002793798               0.000104109              -0.000221877               0.001005216               0.000783339               0.000000000               0.000000000               0.000000000               0.000000000               0.000335950               0.002861992               0.000062005              -0.000231767               0.001031244               0.000799476               0.000000000               0.000000000               0.000000000               0.000000000               0.000330586               0.002890587               0.000034917              -0.000237353               0.001042637               0.000805284               0.000000000               0.000000000               0.000000000               0.000000000               0.000151666               0.000084365               0.000101626               0.000046329               0.000012678               0.000059007               0.000000000               0.000000000               0.000000000               0.000000000               0.000510597               0.000299116               0.000178070               0.000154083               0.000048343               0.000202426               0.000000000               0.000000000               0.000000000               0.000000000               0.000729885               0.000610090               0.000241472               0.000197443               0.000137547               0.000334990               0.000000000               0.000000000               0.000000000               0.000000000               0.000781301               0.000929314               0.000247070               0.000176822               0.000250828               0.000427650               0.000000000               0.000000000               0.000000000               0.000000000               0.000769826               0.001215137               0.000233316               0.000136791               0.000359444               0.000496236               0.000000000               0.000000000               0.000000000               0.000000000               0.000730243               0.001458557               0.000214731               0.000091521               0.000455674               0.000547194               0.000000000               0.000000000               0.000000000               0.000000000               0.000679666               0.001673580               0.000195146               0.000045677               0.000542629               0.000588306               0.000000000               0.000000000               0.000000000               0.000000000               0.000624821               0.001870050               0.000177535               0.000000551               0.000623160               0.000623711               0.000000000               0.000000000               0.000000000               0.000000000               0.000569183               0.002046863               0.000161611              -0.000042414               0.000696419               0.000654005               0.000000000               0.000000000               0.000000000               0.000000000               0.000515904               0.002198282               0.000145743              -0.000081321               0.000759860               0.000678539               0.000000000               0.000000000               0.000000000               0.000000000               0.000468476               0.002327364               0.000132417              -0.000115242               0.000814194               0.000698952               0.000000000               0.000000000               0.000000000               0.000000000               0.000433110               0.002448010               0.000114677              -0.000143585               0.000863857               0.000720272               0.000000000               0.000000000               0.000000000               0.000000000               0.000413737               0.002565020               0.000090856              -0.000165476               0.000910157               0.000744681               0.000000000               0.000000000               0.000000000               0.000000000               0.000408000               0.002672526               0.000075726              -0.000181065               0.000951188               0.000770123               0.000000000               0.000000000               0.000000000               0.000000000               0.000411633               0.002767999               0.000063469              -0.000191637               0.000986536               0.000794899               0.000000000               0.000000000               0.000000000               0.000000000               0.000425116               0.002851411               0.000037312              -0.000197008               0.001016130               0.000819122               0.000000000               0.000000000               0.000000000               0.000000000               0.000438135               0.002889647               0.000019780              -0.000196905               0.001028841               0.000831936               0.000000000               0.000000000               0.000000000               0.000000000               0.000110916               0.000056526               0.000000000               0.000034527               0.000007333               0.000041860               0.000000000               0.000000000               0.000000000               0.000000000               0.000497425               0.000255694               0.000000000               0.000154571               0.000033707               0.000188278               0.000000000               0.000000000               0.000000000               0.000000000               0.000742469               0.000549187               0.000000000               0.000209775               0.000113135               0.000322911               0.000000000               0.000000000               0.000000000               0.000000000               0.000805959               0.000865985               0.000000000               0.000193985               0.000223997               0.000417982               0.000000000               0.000000000               0.000000000               0.000000000               0.000797985               0.001156269               0.000000000               0.000154709               0.000333849               0.000488559               0.000000000               0.000000000               0.000000000               0.000000000               0.000756671               0.001401213              -0.000000000               0.000108599               0.000430867               0.000539466               0.000000000               0.000000000               0.000000000               0.000000000               0.000702615               0.001615580              -0.000000000               0.000061532               0.000518010               0.000579543               0.000000000               0.000000000               0.000000000               0.000000000               0.000647825               0.001823784               0.000000000               0.000014961               0.000602935               0.000617896               0.000000000               0.000000000               0.000000000               0.000000000               0.000592993               0.002014675               0.000000000              -0.000029462               0.000681372               0.000651910               0.000000000               0.000000000               0.000000000               0.000000000               0.000539965               0.002167245               0.000000000              -0.000068418               0.000745214               0.000676795               0.000000000               0.000000000               0.000000000               0.000000000               0.000490711               0.002295761               0.000000000              -0.000102953               0.000799564               0.000696611               0.000000000               0.000000000               0.000000000               0.000000000               0.000449065               0.002418291              -0.000000000              -0.000133887               0.000850718               0.000716831               0.000000000               0.000000000               0.000000000               0.000000000               0.000431211               0.002539829               0.000000000              -0.000155774               0.000898526               0.000742752               0.000000000               0.000000000               0.000000000               0.000000000               0.000432847               0.002657461               0.000000000              -0.000169864               0.000942433               0.000772568               0.000000000               0.000000000               0.000000000               0.000000000               0.000437859               0.002763835               0.000000000              -0.000181282               0.000981696               0.000800415               0.000000000               0.000000000               0.000000000               0.000000000               0.000457029               0.002852779              -0.000000000              -0.000185211               0.001012654               0.000827443               0.000000000               0.000000000               0.000000000               0.000000000               0.000480824               0.002893417              -0.000000000              -0.000181368               0.001024919               0.000843551               0.000000000               0.000000000               0.000000000               0.000000000               0.000471183               0.005570681              -0.000000000              -0.000519640               0.002030088               0.001510448               0.000000000               0.000000000               0.000000000               0.000000000               0.000525308               0.004636622              -0.000000000              -0.000382586               0.001673054               0.001290467               0.000000000               0.000000000               0.000000000               0.000000000               0.000735329               0.003882153               0.000000000              -0.000209520               0.001363878               0.001154358               0.000000000               0.000000000               0.000000000               0.000000000               0.000763602               0.003465417               0.000000000              -0.000146826               0.001204069               0.001057243               0.000000000               0.000000000               0.000000000               0.000000000               0.000723927               0.003221332               0.000000000              -0.000131194               0.001117498               0.000986304               0.000000000               0.000000000               0.000000000               0.000000000               0.000660787               0.003076362              -0.000000000              -0.000136750               0.001071027               0.000934277               0.000000000               0.000000000               0.000000000               0.000000000               0.000588801               0.002983639              -0.000000000              -0.000152154               0.001045255               0.000893100               0.000000000               0.000000000               0.000000000               0.000000000               0.000520459               0.002925821              -0.000000000              -0.000170555               0.001032116               0.000861561               0.000000000               0.000000000               0.000000000               0.000000000               0.000457977               0.002893747               0.000000000              -0.000189977               0.001027898               0.000837922               0.000000000               0.000000000               0.000000000               0.000000000               0.000397718               0.002876711               0.000000000              -0.000210444               0.001029042               0.000818598               0.000000000               0.000000000               0.000000000               0.000000000               0.000339834               0.002872506              -0.000000000              -0.000231625               0.001034701               0.000803076               0.000000000               0.000000000               0.000000000               0.000000000               0.000285435               0.002875091              -0.000000000              -0.000252347               0.001042470               0.000790122               0.000000000               0.000000000               0.000000000               0.000000000               0.000232013               0.002881032              -0.000000000              -0.000273123               0.001051376               0.000778252               0.000000000               0.000000000               0.000000000               0.000000000               0.000177286               0.002890748              -0.000000000              -0.000294861               0.001061860               0.000766999               0.000000000               0.000000000               0.000000000               0.000000000               0.000121121               0.002903656               0.000000000              -0.000317536               0.001073721               0.000756185               0.000000000               0.000000000               0.000000000               0.000000000               0.000061089               0.002914102               0.000000000              -0.000341353               0.001085142               0.000743789               0.000000000               0.000000000               0.000000000               0.000000000               0.000032292               0.002923397               0.000000000              -0.000353314               0.001092227               0.000738913               0.000000000               0.000000000               0.000000000               0.000000000               0.000503832               0.005479265              -0.000428458              -0.000495970               0.001991727               0.001495757               0.000000000               0.000000000               0.000000000               0.000000000               0.000537456               0.004570327              -0.000281842              -0.000369744               0.001646675               0.001276931               0.000000000               0.000000000               0.000000000               0.000000000               0.000725847               0.003842874              -0.000128253              -0.000208166               0.001350334               0.001142168               0.000000000               0.000000000               0.000000000               0.000000000               0.000744998               0.003441465              -0.000053671              -0.000150809               0.001197413               0.001046605               0.000000000               0.000000000               0.000000000               0.000000000               0.000701586               0.003207351              -0.000015133              -0.000137824               0.001115048               0.000977224               0.000000000               0.000000000               0.000000000               0.000000000               0.000636083               0.003065121               0.000003335              -0.000144609               0.001069900               0.000925291               0.000000000               0.000000000               0.000000000               0.000000000               0.000563717               0.002976178               0.000010692              -0.000160628               0.001045592               0.000884964               0.000000000               0.000000000               0.000000000               0.000000000               0.000497052               0.002922199               0.000014828              -0.000178880               0.001033683               0.000854803               0.000000000               0.000000000               0.000000000               0.000000000               0.000435808               0.002891344               0.000016004              -0.000197990               0.001029768               0.000831779               0.000000000               0.000000000               0.000000000               0.000000000               0.000376511               0.002875040               0.000015757              -0.000218188               0.001031066               0.000812879               0.000000000               0.000000000               0.000000000               0.000000000               0.000320606               0.002870348               0.000014886              -0.000238566               0.001036295               0.000797729               0.000000000               0.000000000               0.000000000               0.000000000               0.000269565               0.002873574               0.000011595              -0.000258109               0.001043885               0.000785776               0.000000000               0.000000000               0.000000000               0.000000000               0.000220630               0.002879404               0.000010042              -0.000277189               0.001052188               0.000774999               0.000000000               0.000000000               0.000000000               0.000000000               0.000169363               0.002890161               0.000011689              -0.000297758               0.001062630               0.000764872               0.000000000               0.000000000               0.000000000               0.000000000               0.000114849               0.002905734               0.000011394              -0.000320148               0.001075284               0.000755137               0.000000000               0.000000000               0.000000000               0.000000000               0.000057449               0.002922325               0.000007734              -0.000343746               0.001088681               0.000744934               0.000000000               0.000000000               0.000000000               0.000000000               0.000030755               0.002936432               0.000004796              -0.000355520               0.001097307               0.000741788               0.000000000               0.000000000               0.000000000               0.000000000               0.000593725               0.005216898              -0.000811865              -0.000429465               0.001882103               0.001452639               0.000000000               0.000000000               0.000000000               0.000000000               0.000569596               0.004380392              -0.000534132              -0.000333950               0.001571433               0.001237483               0.000000000               0.000000000               0.000000000               0.000000000               0.000697243               0.003734937              -0.000244974              -0.000205400               0.001313433               0.001108033               0.000000000               0.000000000               0.000000000               0.000000000               0.000692922               0.003381058              -0.000107663              -0.000162786               0.001181270               0.001018484               0.000000000               0.000000000               0.000000000               0.000000000               0.000639864               0.003173483              -0.000039662              -0.000156736               0.001110063               0.000953326               0.000000000               0.000000000               0.000000000               0.000000000               0.000570707               0.003042711              -0.000006153              -0.000166323               0.001069668               0.000903345               0.000000000               0.000000000               0.000000000               0.000000000               0.000502196               0.002962041               0.000009595              -0.000181931               0.001047981               0.000866050               0.000000000               0.000000000               0.000000000               0.000000000               0.000439983               0.002915260               0.000016667              -0.000199413               0.001038215               0.000838801               0.000000000               0.000000000               0.000000000               0.000000000               0.000380372               0.002887552               0.000018139              -0.000218304               0.001035276               0.000816972               0.000000000               0.000000000               0.000000000               0.000000000               0.000324954               0.002873524               0.000017631              -0.000237332               0.001036942               0.000799610               0.000000000               0.000000000               0.000000000               0.000000000               0.000275506               0.002869145               0.000017344              -0.000255328               0.001041481               0.000786154               0.000000000               0.000000000               0.000000000               0.000000000               0.000230163               0.002871314               0.000012786              -0.000272602               0.001047962               0.000775360               0.000000000               0.000000000               0.000000000               0.000000000               0.000187663               0.002878352               0.000009855              -0.000289420               0.001055914               0.000766495               0.000000000               0.000000000               0.000000000               0.000000000               0.000143578               0.002890772               0.000013833              -0.000307504               0.001066082               0.000758578               0.000000000               0.000000000               0.000000000               0.000000000               0.000096396               0.002910397               0.000016119              -0.000327650               0.001079339               0.000751689               0.000000000               0.000000000               0.000000000               0.000000000               0.000047656               0.002935612               0.000011895              -0.000349080               0.001094887               0.000745808               0.000000000               0.000000000               0.000000000               0.000000000               0.000026636               0.002956760               0.000006807              -0.000359606               0.001105445               0.000745840               0.000000000               0.000000000               0.000000000               0.000000000               0.000717333               0.004815986              -0.001116607              -0.000332998               0.001716312               0.001383313               0.000000000               0.000000000               0.000000000               0.000000000               0.000611479               0.004095815              -0.000736925              -0.000282672               0.001459482               0.001176810               0.000000000               0.000000000               0.000000000               0.000000000               0.000651618               0.003580950              -0.000344738              -0.000203262               0.001261392               0.001058130               0.000000000               0.000000000               0.000000000               0.000000000               0.000613228               0.003296828              -0.000164024              -0.000182143               0.001159646               0.000977503               0.000000000               0.000000000               0.000000000               0.000000000               0.000552210               0.003123995              -0.000076617              -0.000183420               0.001102461               0.000919041               0.000000000               0.000000000               0.000000000               0.000000000               0.000485168               0.003014248              -0.000033623              -0.000194843               0.001069687               0.000874844               0.000000000               0.000000000               0.000000000               0.000000000               0.000419638               0.002944902              -0.000012281              -0.000210748               0.001051873               0.000841126               0.000000000               0.000000000               0.000000000               0.000000000               0.000362048               0.002903774              -0.000003024              -0.000227203               0.001043650               0.000816446               0.000000000               0.000000000               0.000000000               0.000000000               0.000310286               0.002880538              -0.000001021              -0.000243709               0.001041406               0.000797697               0.000000000               0.000000000               0.000000000               0.000000000               0.000265259               0.002868475              -0.000000514              -0.000259087               0.001042511               0.000783424               0.000000000               0.000000000               0.000000000               0.000000000               0.000226332               0.002864472              -0.000000296              -0.000273184               0.001045876               0.000772692               0.000000000               0.000000000               0.000000000               0.000000000               0.000186084               0.002866463              -0.000004047              -0.000288526               0.001051653               0.000763128               0.000000000               0.000000000               0.000000000               0.000000000               0.000145752               0.002874470              -0.000006240              -0.000304651               0.001059697               0.000755046               0.000000000               0.000000000               0.000000000               0.000000000               0.000107238               0.002887306               0.000000502              -0.000320698               0.001069325               0.000748627               0.000000000               0.000000000               0.000000000               0.000000000               0.000069543               0.002905915               0.000008538              -0.000337160               0.001081016               0.000743855               0.000000000               0.000000000               0.000000000               0.000000000               0.000033701               0.002929148               0.000008515              -0.000353505               0.001094208               0.000740703               0.000000000               0.000000000               0.000000000               0.000000000               0.000020034               0.002948644               0.000004444              -0.000361067               0.001103227               0.000742160               0.000000000               0.000000000               0.000000000               0.000000000               0.000847747               0.004320223              -0.001326389              -0.000222123               0.001514101               0.001291977               0.000000000               0.000000000               0.000000000               0.000000000               0.000650554               0.003755433              -0.000882775              -0.000225471               0.001326955               0.001101484               0.000000000               0.000000000               0.000000000               0.000000000               0.000594490               0.003401568              -0.000428617              -0.000202262               0.001201265               0.000999003               0.000000000               0.000000000               0.000000000               0.000000000               0.000522204               0.003190983              -0.000225544              -0.000203046               0.001131332               0.000928286               0.000000000               0.000000000               0.000000000               0.000000000               0.000453793               0.003055269              -0.000127604              -0.000211736               0.001088991               0.000877256               0.000000000               0.000000000               0.000000000               0.000000000               0.000392589               0.002969068              -0.000078671              -0.000223912               0.001064317               0.000840405               0.000000000               0.000000000               0.000000000               0.000000000               0.000334646               0.002915339              -0.000054227              -0.000238925               0.001051412               0.000812487               0.000000000               0.000000000               0.000000000               0.000000000               0.000284425               0.002881744              -0.000041606              -0.000253558               0.001045091               0.000791533               0.000000000               0.000000000               0.000000000               0.000000000               0.000243473               0.002862072              -0.000035950              -0.000266456               0.001042833               0.000776377               0.000000000               0.000000000               0.000000000               0.000000000               0.000208454               0.002851868              -0.000034128              -0.000278312               0.001043384               0.000765071               0.000000000               0.000000000               0.000000000               0.000000000               0.000175063               0.002846043              -0.000031125              -0.000290106               0.001045373               0.000755267               0.000000000               0.000000000               0.000000000               0.000000000               0.000140447               0.002846830              -0.000030132              -0.000303185               0.001049996               0.000746810               0.000000000               0.000000000               0.000000000               0.000000000               0.000105149               0.002854704              -0.000028913              -0.000317406               0.001057361               0.000739954               0.000000000               0.000000000               0.000000000               0.000000000               0.000071657               0.002866215              -0.000018412              -0.000331405               0.001065864               0.000734459               0.000000000               0.000000000               0.000000000               0.000000000               0.000043024               0.002878806              -0.000004737              -0.000343716               0.001074164               0.000730449               0.000000000               0.000000000               0.000000000               0.000000000               0.000019883               0.002892376               0.000001012              -0.000354090               0.001082146               0.000728056               0.000000000               0.000000000               0.000000000               0.000000000               0.000011735               0.002902785               0.000000071              -0.000358446               0.001087067               0.000728621               0.000000000               0.000000000               0.000000000               0.000000000               0.000963493               0.003775167              -0.001434591              -0.000110587               0.001295238               0.001184651               0.000000000               0.000000000               0.000000000               0.000000000               0.000676929               0.003389051              -0.000971201              -0.000169783               0.001186267               0.001016483               0.000000000               0.000000000               0.000000000               0.000000000               0.000527160               0.003206136              -0.000500047              -0.000203082               0.001136395               0.000933314               0.000000000               0.000000000               0.000000000               0.000000000               0.000432660               0.003069659              -0.000292674              -0.000221459               0.001097029               0.000875570               0.000000000               0.000000000               0.000000000               0.000000000               0.000364004               0.002974156              -0.000190779              -0.000235268               0.001069798               0.000834530               0.000000000               0.000000000               0.000000000               0.000000000               0.000310285               0.002911790              -0.000136350              -0.000247616               0.001053126               0.000805509               0.000000000               0.000000000               0.000000000               0.000000000               0.000263614               0.002871560              -0.000106028              -0.000260089               0.001043873               0.000783784               0.000000000               0.000000000               0.000000000               0.000000000               0.000222565               0.002842901              -0.000088206              -0.000271900               0.001038257               0.000766357               0.000000000               0.000000000               0.000000000               0.000000000               0.000189714               0.002824948              -0.000076792              -0.000281975               0.001035632               0.000753656               0.000000000               0.000000000               0.000000000               0.000000000               0.000161137               0.002816545              -0.000070923              -0.000291641               0.001036053               0.000744412               0.000000000               0.000000000               0.000000000               0.000000000               0.000134738               0.002813703              -0.000064474              -0.000301186               0.001038287               0.000737101               0.000000000               0.000000000               0.000000000               0.000000000               0.000104642               0.002815917              -0.000054454              -0.000312748               0.001042879               0.000730131               0.000000000               0.000000000               0.000000000               0.000000000               0.000073261               0.002827147              -0.000045543              -0.000325920               0.001051013               0.000725093               0.000000000               0.000000000               0.000000000               0.000000000               0.000045491               0.002838847              -0.000031888              -0.000337796               0.001058872               0.000721076               0.000000000               0.000000000               0.000000000               0.000000000               0.000024794               0.002848157              -0.000014901              -0.000346721               0.001064950               0.000718229               0.000000000               0.000000000               0.000000000               0.000000000               0.000011433               0.002855745              -0.000005515              -0.000352680               0.001069466               0.000716786               0.000000000               0.000000000               0.000000000               0.000000000               0.000008350               0.002862041              -0.000005145              -0.000354623               0.001072212               0.000717589               0.000000000               0.000000000               0.000000000               0.000000000               0.001039284               0.003218693              -0.001447558              -0.000012607               0.001077089               0.001064482               0.000000000               0.000000000               0.000000000               0.000000000               0.000684967               0.003018514              -0.001010113              -0.000120452               0.001046312               0.000925859               0.000000000               0.000000000               0.000000000               0.000000000               0.000458767               0.003004150              -0.000561922              -0.000203481               0.001069200               0.000865719               0.000000000               0.000000000               0.000000000               0.000000000               0.000355084               0.002940336              -0.000361375              -0.000234385               0.001058231               0.000823846               0.000000000               0.000000000               0.000000000               0.000000000               0.000293090               0.002883410              -0.000256591              -0.000250517               0.001044633               0.000794116               0.000000000               0.000000000               0.000000000               0.000000000               0.000248724               0.002843378              -0.000195177              -0.000262150               0.001035167               0.000773016               0.000000000               0.000000000               0.000000000               0.000000000               0.000212166               0.002814299              -0.000158657              -0.000272224               0.001028832               0.000756607               0.000000000               0.000000000               0.000000000               0.000000000               0.000178431               0.002789972              -0.000134934              -0.000281834               0.001023926               0.000742092               0.000000000               0.000000000               0.000000000               0.000000000               0.000152811               0.002777119              -0.000115435              -0.000289835               0.001022309               0.000732474               0.000000000               0.000000000               0.000000000               0.000000000               0.000129894               0.002774863              -0.000100291              -0.000298147               0.001024328               0.000726180               0.000000000               0.000000000               0.000000000               0.000000000               0.000108234               0.002782846              -0.000086581              -0.000307267               0.001030028               0.000722761               0.000000000               0.000000000               0.000000000               0.000000000               0.000086215               0.002798000              -0.000067938              -0.000317418               0.001038464               0.000721045               0.000000000               0.000000000               0.000000000               0.000000000               0.000061709               0.002815161              -0.000052310              -0.000328753               0.001047962               0.000719209               0.000000000               0.000000000               0.000000000               0.000000000               0.000039539               0.002830201              -0.000038136              -0.000338947               0.001056373               0.000717426               0.000000000               0.000000000               0.000000000               0.000000000               0.000024616               0.002840985              -0.000022219              -0.000345891               0.001062283               0.000716391               0.000000000               0.000000000               0.000000000               0.000000000               0.000013026               0.002846980              -0.000011199              -0.000350987               0.001065980               0.000714993               0.000000000               0.000000000               0.000000000               0.000000000               0.000009188               0.002852445              -0.000008610              -0.000353109               0.001068509               0.000715399               0.000000000               0.000000000               0.000000000               0.000000000               0.001066784               0.002677647              -0.001382117               0.000065336               0.000870761               0.000936097               0.000000000               0.000000000               0.000000000               0.000000000               0.000676299               0.002666074              -0.001010618              -0.000079648               0.000915232               0.000835583               0.000000000               0.000000000               0.000000000               0.000000000               0.000401699               0.002806433              -0.000616915              -0.000200167               0.001002190               0.000802024               0.000000000               0.000000000               0.000000000               0.000000000               0.000299429               0.002806940              -0.000426470              -0.000238581               0.001015164               0.000776583               0.000000000               0.000000000               0.000000000               0.000000000               0.000245928               0.002787066              -0.000317220              -0.000256160               0.001014399               0.000758240               0.000000000               0.000000000               0.000000000               0.000000000               0.000209303               0.002769689              -0.000248469              -0.000267722               0.001012461               0.000744739               0.000000000               0.000000000               0.000000000               0.000000000               0.000180665               0.002753297              -0.000205573              -0.000276412               0.001009894               0.000733482               0.000000000               0.000000000               0.000000000               0.000000000               0.000155045               0.002740869              -0.000173950              -0.000284466               0.001008436               0.000723970               0.000000000               0.000000000               0.000000000               0.000000000               0.000136946               0.002741632              -0.000143204              -0.000291348               0.001010984               0.000719636               0.000000000               0.000000000               0.000000000               0.000000000               0.000120702               0.002754106              -0.000116911              -0.000298999               0.001017692               0.000718693               0.000000000               0.000000000               0.000000000               0.000000000               0.000101652               0.002775966              -0.000094413              -0.000308875               0.001028271               0.000719396               0.000000000               0.000000000               0.000000000               0.000000000               0.000082239               0.002802460              -0.000072465              -0.000319467               0.001040633               0.000721166               0.000000000               0.000000000               0.000000000               0.000000000               0.000062037               0.002824587              -0.000054168              -0.000329809               0.001051456               0.000721647               0.000000000               0.000000000               0.000000000               0.000000000               0.000044934               0.002843300              -0.000039723              -0.000338562               0.001060611               0.000722049               0.000000000               0.000000000               0.000000000               0.000000000               0.000030547               0.002854748              -0.000026123              -0.000345387               0.001066702               0.000721315               0.000000000               0.000000000               0.000000000               0.000000000               0.000017115               0.002860438              -0.000013857              -0.000351136               0.001070515               0.000719379               0.000000000               0.000000000               0.000000000               0.000000000               0.000009477               0.002863465              -0.000008011              -0.000354378               0.001072605               0.000718227               0.000000000               0.000000000               0.000000000               0.000000000               0.001065287               0.002196468              -0.001263571               0.000124922               0.000690507               0.000815429               0.000000000               0.000000000               0.000000000               0.000000000               0.000672913               0.002350661              -0.000992098              -0.000041492               0.000797376               0.000755884               0.000000000               0.000000000               0.000000000               0.000000000               0.000375937               0.002625912              -0.000679119              -0.000187263               0.000937716               0.000750453               0.000000000               0.000000000               0.000000000               0.000000000               0.000277249               0.002690635              -0.000496957              -0.000232361               0.000974323               0.000741962               0.000000000               0.000000000               0.000000000               0.000000000               0.000228902               0.002710545              -0.000381046              -0.000252980               0.000987833               0.000734853               0.000000000               0.000000000               0.000000000               0.000000000               0.000196919               0.002717114              -0.000305372              -0.000265794               0.000994294               0.000728500               0.000000000               0.000000000               0.000000000               0.000000000               0.000172020               0.002714631              -0.000253467              -0.000274821               0.000996475               0.000721654               0.000000000               0.000000000               0.000000000               0.000000000               0.000153834               0.002717020              -0.000210547              -0.000281939               0.000999644               0.000717705               0.000000000               0.000000000               0.000000000               0.000000000               0.000140733               0.002732076              -0.000170129              -0.000288734               0.001006928               0.000718194               0.000000000               0.000000000               0.000000000               0.000000000               0.000128800               0.002755359              -0.000135035              -0.000296119               0.001017150               0.000721031               0.000000000               0.000000000               0.000000000               0.000000000               0.000112649               0.002786199              -0.000106006              -0.000306031               0.001030734               0.000724703               0.000000000               0.000000000               0.000000000               0.000000000               0.000097206               0.002821396              -0.000081296              -0.000316222               0.001045863               0.000729642               0.000000000               0.000000000               0.000000000               0.000000000               0.000081647               0.002850282              -0.000060043              -0.000325667               0.001058640               0.000732973               0.000000000               0.000000000               0.000000000               0.000000000               0.000065893               0.002870822              -0.000043224              -0.000334142               0.001068312               0.000734170               0.000000000               0.000000000               0.000000000               0.000000000               0.000047991               0.002883327              -0.000028553              -0.000342419               0.001075239               0.000732820               0.000000000               0.000000000               0.000000000               0.000000000               0.000028522               0.002891917              -0.000014655              -0.000350793               0.001080894               0.000730101               0.000000000               0.000000000               0.000000000               0.000000000               0.000015305               0.002893743              -0.000006380              -0.000355978               0.001083231               0.000727253               0.000000000               0.000000000               0.000000000               0.000000000               0.001025678               0.001726941              -0.001117354               0.000168759               0.000519388               0.000688147               0.000000000               0.000000000               0.000000000               0.000000000               0.000681517               0.001981360              -0.000965036               0.000007897               0.000657814               0.000665711               0.000000000               0.000000000               0.000000000               0.000000000               0.000390643               0.002356411              -0.000754286              -0.000148061               0.000834816               0.000686755               0.000000000               0.000000000               0.000000000               0.000000000               0.000292201               0.002499706              -0.000585600              -0.000202888               0.000900856               0.000697968               0.000000000               0.000000000               0.000000000               0.000000000               0.000243736               0.002571132              -0.000465237              -0.000229990               0.000933699               0.000703708               0.000000000               0.000000000               0.000000000               0.000000000               0.000214599               0.002616423              -0.000380853              -0.000246578               0.000954325               0.000707747               0.000000000               0.000000000               0.000000000               0.000000000               0.000188745               0.002642297              -0.000316778              -0.000259507               0.000967259               0.000707752               0.000000000               0.000000000               0.000000000               0.000000000               0.000168424               0.002660964              -0.000265403              -0.000269461               0.000976799               0.000707338               0.000000000               0.000000000               0.000000000               0.000000000               0.000155111               0.002684635              -0.000221175              -0.000277412               0.000987340               0.000709928               0.000000000               0.000000000               0.000000000               0.000000000               0.000147212               0.002716447              -0.000180981              -0.000284351               0.001000257               0.000715906               0.000000000               0.000000000               0.000000000               0.000000000               0.000137458               0.002757840              -0.000144498              -0.000293183               0.001016998               0.000723816               0.000000000               0.000000000               0.000000000               0.000000000               0.000123280               0.002805628              -0.000111963              -0.000304473               0.001036691               0.000732218               0.000000000               0.000000000               0.000000000               0.000000000               0.000105303               0.002846874              -0.000083510              -0.000316370               0.001054405               0.000738035               0.000000000               0.000000000               0.000000000               0.000000000               0.000085605               0.002876529              -0.000059229              -0.000327464               0.001067988               0.000740524               0.000000000               0.000000000               0.000000000               0.000000000               0.000063468               0.002894685              -0.000035726              -0.000338034               0.001077563               0.000739529               0.000000000               0.000000000               0.000000000               0.000000000               0.000038181               0.002906798              -0.000015167              -0.000349031               0.001085267               0.000736235               0.000000000               0.000000000               0.000000000               0.000000000               0.000018350               0.002906574              -0.000003413              -0.000356440               0.001087662               0.000731222               0.000000000               0.000000000               0.000000000               0.000000000               0.000932725               0.001283223              -0.000946354               0.000189366               0.000364614               0.000553980               0.000000000               0.000000000               0.000000000               0.000000000               0.000689011               0.001608503              -0.000912221               0.000057315               0.000517057               0.000574372               0.000000000               0.000000000               0.000000000               0.000000000               0.000438322               0.002053021              -0.000810520              -0.000092257               0.000715086               0.000622828               0.000000000               0.000000000               0.000000000               0.000000000               0.000341582               0.002271452              -0.000671718              -0.000155839               0.000809089               0.000653251               0.000000000               0.000000000               0.000000000               0.000000000               0.000289473               0.002400464              -0.000554713              -0.000191505               0.000863982               0.000672476               0.000000000               0.000000000               0.000000000               0.000000000               0.000254087               0.002490084              -0.000463174              -0.000215978               0.000902012               0.000686034               0.000000000               0.000000000               0.000000000               0.000000000               0.000225949               0.002553023              -0.000390533              -0.000234397               0.000929131               0.000694735               0.000000000               0.000000000               0.000000000               0.000000000               0.000201822               0.002595224              -0.000334095              -0.000248719               0.000947973               0.000699253               0.000000000               0.000000000               0.000000000               0.000000000               0.000186622               0.002631821              -0.000288860              -0.000258994               0.000963596               0.000704602               0.000000000               0.000000000               0.000000000               0.000000000               0.000177217               0.002671859              -0.000245562              -0.000267525               0.000979786               0.000712260               0.000000000               0.000000000               0.000000000               0.000000000               0.000169189               0.002723026              -0.000201618              -0.000276932               0.000999977               0.000723045               0.000000000               0.000000000               0.000000000               0.000000000               0.000155603               0.002783275              -0.000159243              -0.000289558               0.001024268               0.000734711               0.000000000               0.000000000               0.000000000               0.000000000               0.000136694               0.002838081              -0.000122713              -0.000303499               0.001047184               0.000743685               0.000000000               0.000000000               0.000000000               0.000000000               0.000111196               0.002873849              -0.000090591              -0.000317532               0.001063784               0.000746252               0.000000000               0.000000000               0.000000000               0.000000000               0.000080715               0.002893875              -0.000057288              -0.000331465               0.001075104               0.000743638               0.000000000               0.000000000               0.000000000               0.000000000               0.000047105               0.002907870              -0.000025227              -0.000345818               0.001084553               0.000738735               0.000000000               0.000000000               0.000000000               0.000000000               0.000019830               0.002905279              -0.000006368              -0.000355723               0.001086991               0.000731268               0.000000000               0.000000000               0.000000000               0.000000000               0.000793514               0.000891015              -0.000753595               0.000186189               0.000234939               0.000421127               0.000000000               0.000000000               0.000000000               0.000000000               0.000676377               0.001247535              -0.000818401               0.000097698               0.000383275               0.000480972               0.000000000               0.000000000               0.000000000               0.000000000               0.000501973               0.001716423              -0.000815309              -0.000026314               0.000580906               0.000554592               0.000000000               0.000000000               0.000000000               0.000000000               0.000419607               0.001993409              -0.000716978              -0.000091824               0.000695071               0.000603247               0.000000000               0.000000000               0.000000000               0.000000000               0.000364478               0.002175455              -0.000613982              -0.000135253               0.000770229               0.000634976               0.000000000               0.000000000               0.000000000               0.000000000               0.000321334               0.002310502              -0.000524112              -0.000168313               0.000826264               0.000657951               0.000000000               0.000000000               0.000000000               0.000000000               0.000288644               0.002416409              -0.000449436              -0.000193810               0.000870065               0.000676255               0.000000000               0.000000000               0.000000000               0.000000000               0.000259716               0.002490937              -0.000391673              -0.000213973               0.000901628               0.000687655               0.000000000               0.000000000               0.000000000               0.000000000               0.000236716               0.002547276              -0.000346756              -0.000229640               0.000925630               0.000695990               0.000000000               0.000000000               0.000000000               0.000000000               0.000222450               0.002604128              -0.000302305              -0.000242097               0.000948733               0.000706636               0.000000000               0.000000000               0.000000000               0.000000000               0.000211956               0.002668820              -0.000254011              -0.000254119               0.000974304               0.000720186               0.000000000               0.000000000               0.000000000               0.000000000               0.000197833               0.002738538              -0.000206618              -0.000268129               0.001002213               0.000734084               0.000000000               0.000000000               0.000000000               0.000000000               0.000178949               0.002807212              -0.000165876              -0.000283795               0.001030326               0.000746531               0.000000000               0.000000000               0.000000000               0.000000000               0.000152183               0.002856618              -0.000127924              -0.000300008               0.001052199               0.000752191               0.000000000               0.000000000               0.000000000               0.000000000               0.000117129               0.002887280              -0.000086736              -0.000316986               0.001068079               0.000751093               0.000000000               0.000000000               0.000000000               0.000000000               0.000070559               0.002905571              -0.000042864              -0.000336736               0.001080759               0.000744024               0.000000000               0.000000000               0.000000000               0.000000000               0.000029658               0.002901538              -0.000016122              -0.000351570               0.001084360               0.000732790               0.000000000               0.000000000               0.000000000               0.000000000               0.000620184               0.000570707              -0.000556936               0.000161229               0.000136491               0.000297719               0.000000000               0.000000000               0.000000000               0.000000000               0.000646134               0.000916638              -0.000687337               0.000127718               0.000262970               0.000390688               0.000000000               0.000000000               0.000000000               0.000000000               0.000572950               0.001369911              -0.000759431               0.000043616               0.000442093               0.000485710               0.000000000               0.000000000               0.000000000               0.000000000               0.000517657               0.001684045              -0.000703089              -0.000016385               0.000566804               0.000550419               0.000000000               0.000000000               0.000000000               0.000000000               0.000468013               0.001909124              -0.000621411              -0.000063136               0.000657413               0.000594277               0.000000000               0.000000000               0.000000000               0.000000000               0.000421372               0.002086879              -0.000543297              -0.000102845               0.000729901               0.000627056               0.000000000               0.000000000               0.000000000               0.000000000               0.000381240               0.002231729              -0.000474472              -0.000136001               0.000789236               0.000653235               0.000000000               0.000000000               0.000000000               0.000000000               0.000346209               0.002343102              -0.000419465              -0.000163059               0.000835379               0.000672320               0.000000000               0.000000000               0.000000000               0.000000000               0.000312364               0.002429178              -0.000376008              -0.000186511               0.000871888               0.000685378               0.000000000               0.000000000               0.000000000               0.000000000               0.000287629               0.002505692              -0.000333645              -0.000205350               0.000903672               0.000698322               0.000000000               0.000000000               0.000000000               0.000000000               0.000270967               0.002584005              -0.000284893              -0.000221388               0.000935122               0.000713735               0.000000000               0.000000000               0.000000000               0.000000000               0.000257411               0.002669166              -0.000236587              -0.000237116               0.000968752               0.000731636               0.000000000               0.000000000               0.000000000               0.000000000               0.000238241               0.002751784              -0.000195096              -0.000254632               0.001002130               0.000747498               0.000000000               0.000000000               0.000000000               0.000000000               0.000212109               0.002818754              -0.000156486              -0.000272803               0.001030509               0.000757707               0.000000000               0.000000000               0.000000000               0.000000000               0.000178459               0.002868912              -0.000110065              -0.000291691               0.001053525               0.000761834               0.000000000               0.000000000               0.000000000               0.000000000               0.000133387               0.002900331              -0.000054868              -0.000312520               0.001070941               0.000758421               0.000000000               0.000000000               0.000000000               0.000000000               0.000092171               0.002902431              -0.000021634              -0.000328239               0.001076880               0.000748642               0.000000000               0.000000000               0.000000000               0.000000000               0.000432183               0.000328470              -0.000376038               0.000121008               0.000069152               0.000190161               0.000000000               0.000000000               0.000000000               0.000000000               0.000599168               0.000636345              -0.000529078               0.000145143               0.000163732               0.000308875               0.000000000               0.000000000               0.000000000               0.000000000               0.000640509               0.001047261              -0.000638115               0.000109281               0.000312656               0.000421938               0.000000000               0.000000000               0.000000000               0.000000000               0.000621645               0.001374226              -0.000618289               0.000061337               0.000437625               0.000498962               0.000000000               0.000000000               0.000000000               0.000000000               0.000584267               0.001631025              -0.000562038               0.000015221               0.000538596               0.000553817               0.000000000               0.000000000               0.000000000               0.000000000               0.000538774               0.001841917              -0.000501662              -0.000028200               0.000623366               0.000595166               0.000000000               0.000000000               0.000000000               0.000000000               0.000493599               0.002021098              -0.000445793              -0.000067538               0.000696205               0.000628667               0.000000000               0.000000000               0.000000000               0.000000000               0.000451037               0.002168903              -0.000398776              -0.000101974               0.000756952               0.000654978               0.000000000               0.000000000               0.000000000               0.000000000               0.000407930               0.002284334              -0.000359762              -0.000132568               0.000805626               0.000673059               0.000000000               0.000000000               0.000000000               0.000000000               0.000367150               0.002385603              -0.000322381              -0.000160519               0.000848699               0.000688180               0.000000000               0.000000000               0.000000000               0.000000000               0.000337963               0.002485795              -0.000280742              -0.000183988               0.000889920               0.000705932               0.000000000               0.000000000               0.000000000               0.000000000               0.000321185               0.002589295              -0.000237341              -0.000203217               0.000930829               0.000727612               0.000000000               0.000000000               0.000000000               0.000000000               0.000304638               0.002684950              -0.000198305              -0.000221379               0.000968767               0.000747388               0.000000000               0.000000000               0.000000000               0.000000000               0.000280368               0.002766460              -0.000161333              -0.000240669               0.001002367               0.000761698               0.000000000               0.000000000               0.000000000               0.000000000               0.000253487               0.002835609              -0.000117421              -0.000259393               0.001031658               0.000772265               0.000000000               0.000000000               0.000000000               0.000000000               0.000227015               0.002885851              -0.000063484              -0.000275600               0.001053807               0.000778207               0.000000000               0.000000000               0.000000000               0.000000000               0.000203708               0.002900076              -0.000031004              -0.000286118               0.001062055               0.000775937               0.000000000               0.000000000               0.000000000               0.000000000               0.000265095               0.000169691              -0.000222331               0.000078198               0.000030497               0.000108695               0.000000000               0.000000000               0.000000000               0.000000000               0.000547302               0.000425756              -0.000355624               0.000152017               0.000091245               0.000243262               0.000000000               0.000000000               0.000000000               0.000000000               0.000694182               0.000782208              -0.000460733               0.000162540               0.000206553               0.000369094               0.000000000               0.000000000               0.000000000               0.000000000               0.000715639               0.001109450              -0.000461561               0.000129682               0.000326586               0.000456267               0.000000000               0.000000000               0.000000000               0.000000000               0.000692569               0.001385794              -0.000429044               0.000086488               0.000433097               0.000519585               0.000000000               0.000000000               0.000000000               0.000000000               0.000651179               0.001617388              -0.000389563               0.000042018               0.000525118               0.000567136               0.000000000               0.000000000               0.000000000               0.000000000               0.000603781               0.001821121              -0.000351539              -0.000001223               0.000607442               0.000606219               0.000000000               0.000000000               0.000000000               0.000000000               0.000553395               0.001995889              -0.000318160              -0.000041963               0.000679277               0.000637314               0.000000000               0.000000000               0.000000000               0.000000000               0.000502279               0.002143818              -0.000287909              -0.000079622               0.000741140               0.000661517               0.000000000               0.000000000               0.000000000               0.000000000               0.000451241               0.002277579              -0.000258633              -0.000115482               0.000797679               0.000682198               0.000000000               0.000000000               0.000000000               0.000000000               0.000409238               0.002398555              -0.000230104              -0.000146355               0.000848295               0.000701940               0.000000000               0.000000000               0.000000000               0.000000000               0.000384238               0.002513314              -0.000198956              -0.000170075               0.000894454               0.000724380               0.000000000               0.000000000               0.000000000               0.000000000               0.000366768               0.002621137              -0.000164521              -0.000190104               0.000937071               0.000746968               0.000000000               0.000000000               0.000000000               0.000000000               0.000349146               0.002714241              -0.000133788              -0.000208350               0.000974188               0.000765838               0.000000000               0.000000000               0.000000000               0.000000000               0.000339592               0.002793798              -0.000104109              -0.000221877               0.001005216               0.000783339               0.000000000               0.000000000               0.000000000               0.000000000               0.000335950               0.002861992              -0.000062005              -0.000231767               0.001031244               0.000799476               0.000000000               0.000000000               0.000000000               0.000000000               0.000330586               0.002890587              -0.000034917              -0.000237353               0.001042637               0.000805284               0.000000000               0.000000000               0.000000000               0.000000000               0.000151666               0.000084365              -0.000101626               0.000046329               0.000012678               0.000059007               0.000000000               0.000000000               0.000000000               0.000000000               0.000510597               0.000299116              -0.000178070               0.000154083               0.000048343               0.000202426               0.000000000               0.000000000               0.000000000               0.000000000               0.000729885               0.000610090              -0.000241472               0.000197443               0.000137547               0.000334990               0.000000000               0.000000000               0.000000000               0.000000000               0.000781301               0.000929314              -0.000247070               0.000176822               0.000250828               0.000427650               0.000000000               0.000000000               0.000000000               0.000000000               0.000769826               0.001215137              -0.000233316               0.000136791               0.000359444               0.000496236               0.000000000               0.000000000               0.000000000               0.000000000               0.000730243               0.001458557              -0.000214731               0.000091521               0.000455674               0.000547194               0.000000000               0.000000000               0.000000000               0.000000000               0.000679666               0.001673580              -0.000195146               0.000045677               0.000542629               0.000588306               0.000000000               0.000000000               0.000000000               0.000000000               0.000624821               0.001870050              -0.000177535               0.000000551               0.000623160               0.000623711               0.000000000               0.000000000               0.000000000               0.000000000               0.000569183               0.002046863              -0.000161611              -0.000042414               0.000696419               0.000654005               0.000000000               0.000000000               0.000000000               0.000000000               0.000515904               0.002198282              -0.000145743              -0.000081321               0.000759860               0.000678539               0.000000000               0.000000000               0.000000000               0.000000000               0.000468476               0.002327364              -0.000132417              -0.000115242               0.000814194               0.000698952               0.000000000               0.000000000               0.000000000               0.000000000               0.000433110               0.002448010              -0.000114677              -0.000143585               0.000863857               0.000720272               0.000000000               0.000000000               0.000000000               0.000000000               0.000413737               0.002565020              -0.000090856              -0.000165476               0.000910157               0.000744681               0.000000000               0.000000000               0.000000000               0.000000000               0.000408000               0.002672526              -0.000075726              -0.000181065               0.000951188               0.000770123               0.000000000               0.000000000               0.000000000               0.000000000               0.000411633               0.002767999              -0.000063469              -0.000191637               0.000986536               0.000794899               0.000000000               0.000000000               0.000000000               0.000000000               0.000425116               0.002851411              -0.000037312              -0.000197008               0.001016130               0.000819122               0.000000000               0.000000000               0.000000000               0.000000000               0.000438135               0.002889647              -0.000019780              -0.000196905               0.001028841               0.000831936               0.000000000               0.000000000               0.000000000               0.000000000               0.000000000               0.000000000               0.000000000               0.000000000               0.000000000               0.000000000               0.000000000               0.000000000               0.000000000               0.000000000               0.000000000               0.000000000               0.000000000               0.000000000               0.000000000               0.000000000               0.000000000               0.000000000               0.000000000               0.000000000               0.000000000               0.000000000               0.000000000               0.000000000               0.000000000               0.000000000               0.000000000               0.000000000               0.000000000               0.000000000               0.000000000               0.000000000               0.000000000               0.000000000               0.000000000               0.000000000               0.000000000               0.000000000               0.000000000               0.000000000               0.000000000               0.000000000               0.000000000               0.000000000               0.000000000               0.000000000               0.000000000               0.000000000               0.000000000               0.000000000               0.000000000               0.000000000               0.000000000               0.000000000               0.000000000               0.000000000               0.000000000               0.000000000               0.000000000               0.000000000               0.000000000               0.000000000               0.000000000               0.000000000               0.000000000               0.000000000               0.000000000               0.000000000               0.000000000               0.000000000               0.000000000               0.000000000               0.000000000               0.000000000               0.000000000               0.000000000               0.000000000               0.000000000               0.000000000               0.000000000               0.000000000               0.000000000               0.000000000               0.000000000               0.000000000               0.000000000               0.000000000               0.000000000               0.000000000               0.000000000               0.000000000               0.000000000               0.000000000               0.000000000               0.000000000               0.000000000               0.000000000               0.000000000               0.000000000               0.000000000               0.000000000               0.000000000               0.000000000               0.000000000               0.000000000               0.000000000               0.000000000               0.000000000               0.000000000               0.000000000               0.000000000               0.000000000               0.000000000               0.000000000               0.000000000               0.000000000               0.000000000               0.000000000               0.000000000               0.000000000               0.000000000               0.000000000               0.000000000               0.000000000               0.000000000               0.000000000               0.000000000               0.000000000               0.000000000               0.000000000               0.000000000               0.000000000               0.000000000               0.000000000               0.000000000               0.000000000               0.000000000               0.000000000               0.000000000               0.000000000               0.000000000               0.000000000               0.000000000               0.000000000               0.000000000               0.000000000               0.000000000               0.000000000               0.000000000               0.000000000               0.000000000               0.000000000               0.000000000               0.000000000               0.000000000               0.000000000               0.000000000               0.000000000               0.000000000               0.000000000               0.000000000               0.000000000               0.000000000               0.000000000               0.000000000               0.000000000               0.000000000               0.000000000               0.000000000               0.000000000               0.000000000               0.000000000               0.000000000               0.000000000               0.000000000               0.000000000               0.000000000               0.000000000               0.000000000               0.000000000               0.000000000               0.000000000               0.000000000               0.000000000               0.000000000               0.000000000               0.000000000               0.000000000               0.000000000               0.000000000               0.000000000               0.000000000               0.000000000               0.000000000               0.000000000               0.000000000               0.000000000               0.000000000               0.000000000               0.000000000               0.000000000               0.000000000               0.000000000               0.000000000               0.000000000               0.000000000               0.000000000               0.000000000               0.000000000               0.000000000               0.000000000               0.000000000               0.000000000               0.000000000               0.000000000               0.000000000               0.000000000               0.000000000               0.000000000               0.000000000               0.000000000               0.000000000               0.000000000               0.000000000               0.000000000               0.000000000               0.000000000               0.000000000               0.000000000               0.000000000               0.000000000               0.000000000               0.000000000               0.000000000               0.000000000               0.000000000               0.000000000               0.000000000               0.000000000               0.000000000               0.000000000               0.000000000               0.000000000               0.000000000               0.000000000               0.000000000               0.000000000               0.000000000               0.000000000               0.000000000               0.000000000               0.000000000               0.000000000               0.000000000               0.000000000               0.000000000               0.000000000               0.000000000               0.000000000               0.000000000               0.000000000               0.000000000               0.000000000               0.000000000               0.000000000               0.000000000               0.000000000               0.000000000               0.000000000               0.000000000               0.000000000               0.000000000               0.000000000               0.000000000               0.000000000               0.000000000               0.000000000               0.000000000               0.000000000               0.000000000               0.000000000               0.000000000               0.000000000               0.000000000               0.000000000               0.000000000               0.000000000               0.000000000               0.000000000               0.000000000               0.000000000               0.000000000               0.000000000               0.000000000               0.000000000               0.000000000               0.000000000               0.000000000               0.000000000               0.000000000               0.000000000               0.000000000               0.000000000               0.000000000               0.000000000               0.000000000               0.000000000               0.000000000               0.000000000               0.000000000               0.000000000               0.000000000               0.000000000               0.000000000               0.000000000               0.000000000               0.000000000               0.000000000               0.000000000               0.000000000               0.000000000               0.000000000               0.000000000               0.000000000               0.000000000               0.000000000               0.000000000               0.000000000               0.000000000               0.000000000               0.000000000               0.000000000               0.000000000               0.000000000               0.000000000               0.000000000               0.000000000               0.000000000               0.000000000               0.000000000               0.000503832               0.005479265               0.000428458              -0.000495970               0.001991727               0.001495757               0.000000000               0.000000000               0.000000000               0.000000000               0.000537456               0.004570327               0.000281842              -0.000369744               0.001646675               0.001276931               0.000000000               0.000000000               0.000000000               0.000000000               0.000725847               0.003842874               0.000128253              -0.000208166               0.001350334               0.001142168               0.000000000               0.000000000               0.000000000               0.000000000               0.000744998               0.003441465               0.000053671              -0.000150809               0.001197413               0.001046605               0.000000000               0.000000000               0.000000000               0.000000000               0.000701586               0.003207351               0.000015133              -0.000137824               0.001115048               0.000977224               0.000000000               0.000000000               0.000000000               0.000000000               0.000636083               0.003065121              -0.000003335              -0.000144609               0.001069900               0.000925291               0.000000000               0.000000000               0.000000000               0.000000000               0.000563717               0.002976178              -0.000010692              -0.000160628               0.001045592               0.000884964               0.000000000               0.000000000               0.000000000               0.000000000               0.000497052               0.002922199              -0.000014828              -0.000178880               0.001033683               0.000854803               0.000000000               0.000000000               0.000000000               0.000000000               0.000435808               0.002891344              -0.000016004              -0.000197990               0.001029768               0.000831779               0.000000000               0.000000000               0.000000000               0.000000000               0.000376511               0.002875040              -0.000015757              -0.000218188               0.001031066               0.000812879               0.000000000               0.000000000               0.000000000               0.000000000               0.000320606               0.002870348              -0.000014886              -0.000238566               0.001036295               0.000797729               0.000000000               0.000000000               0.000000000               0.000000000               0.000269565               0.002873574              -0.000011595              -0.000258109               0.001043885               0.000785776               0.000000000               0.000000000               0.000000000               0.000000000               0.000220630               0.002879404              -0.000010042              -0.000277189               0.001052188               0.000774999               0.000000000               0.000000000               0.000000000               0.000000000               0.000169363               0.002890161              -0.000011689              -0.000297758               0.001062630               0.000764872               0.000000000               0.000000000               0.000000000               0.000000000               0.000114849               0.002905734              -0.000011394              -0.000320148               0.001075284               0.000755137               0.000000000               0.000000000               0.000000000               0.000000000               0.000057449               0.002922325              -0.000007734              -0.000343746               0.001088681               0.000744934               0.000000000               0.000000000               0.000000000               0.000000000               0.000030755               0.002936432              -0.000004796              -0.000355520               0.001097307               0.000741788               0.000000000               0.000000000               0.000000000               0.000000000               0.000593725               0.005216898               0.000811865              -0.000429465               0.001882103               0.001452639               0.000000000               0.000000000               0.000000000               0.000000000               0.000569596               0.004380392               0.000534132              -0.000333950               0.001571433               0.001237483               0.000000000               0.000000000               0.000000000               0.000000000               0.000697243               0.003734937               0.000244974              -0.000205400               0.001313433               0.001108033               0.000000000               0.000000000               0.000000000               0.000000000               0.000692922               0.003381058               0.000107663              -0.000162786               0.001181270               0.001018484               0.000000000               0.000000000               0.000000000               0.000000000               0.000639864               0.003173483               0.000039662              -0.000156736               0.001110063               0.000953326               0.000000000               0.000000000               0.000000000               0.000000000               0.000570707               0.003042711               0.000006153              -0.000166323               0.001069668               0.000903345               0.000000000               0.000000000               0.000000000               0.000000000               0.000502196               0.002962041              -0.000009595              -0.000181931               0.001047981               0.000866050               0.000000000               0.000000000               0.000000000               0.000000000               0.000439983               0.002915260              -0.000016667              -0.000199413               0.001038215               0.000838801               0.000000000               0.000000000               0.000000000               0.000000000               0.000380372               0.002887552              -0.000018139              -0.000218304               0.001035276               0.000816972               0.000000000               0.000000000               0.000000000               0.000000000               0.000324954               0.002873524              -0.000017631              -0.000237332               0.001036942               0.000799610               0.000000000               0.000000000               0.000000000               0.000000000               0.000275506               0.002869145              -0.000017344              -0.000255328               0.001041481               0.000786154               0.000000000               0.000000000               0.000000000               0.000000000               0.000230163               0.002871314              -0.000012786              -0.000272602               0.001047962               0.000775360               0.000000000               0.000000000               0.000000000               0.000000000               0.000187663               0.002878352              -0.000009855              -0.000289420               0.001055914               0.000766495               0.000000000               0.000000000               0.000000000               0.000000000               0.000143578               0.002890772              -0.000013833              -0.000307504               0.001066082               0.000758578               0.000000000               0.000000000               0.000000000               0.000000000               0.000096396               0.002910397              -0.000016119              -0.000327650               0.001079339               0.000751689               0.000000000               0.000000000               0.000000000               0.000000000               0.000047656               0.002935612              -0.000011895              -0.000349080               0.001094887               0.000745808               0.000000000               0.000000000               0.000000000               0.000000000               0.000026636               0.002956760              -0.000006807              -0.000359606               0.001105445               0.000745840               0.000000000               0.000000000               0.000000000               0.000000000               0.000717333               0.004815986               0.001116607              -0.000332998               0.001716312               0.001383313               0.000000000               0.000000000               0.000000000               0.000000000               0.000611479               0.004095815               0.000736925              -0.000282672               0.001459482               0.001176810               0.000000000               0.000000000               0.000000000               0.000000000               0.000651618               0.003580950               0.000344738              -0.000203262               0.001261392               0.001058130               0.000000000               0.000000000               0.000000000               0.000000000               0.000613228               0.003296828               0.000164024              -0.000182143               0.001159646               0.000977503               0.000000000               0.000000000               0.000000000               0.000000000               0.000552210               0.003123995               0.000076617              -0.000183420               0.001102461               0.000919041               0.000000000               0.000000000               0.000000000               0.000000000               0.000485168               0.003014248               0.000033623              -0.000194843               0.001069687               0.000874844               0.000000000               0.000000000               0.000000000               0.000000000               0.000419638               0.002944902               0.000012281              -0.000210748               0.001051873               0.000841126               0.000000000               0.000000000               0.000000000               0.000000000               0.000362048               0.002903774               0.000003024              -0.000227203               0.001043650               0.000816446               0.000000000               0.000000000               0.000000000               0.000000000               0.000310286               0.002880538               0.000001021              -0.000243709               0.001041406               0.000797697               0.000000000               0.000000000               0.000000000               0.000000000               0.000265259               0.002868475               0.000000514              -0.000259087               0.001042511               0.000783424               0.000000000               0.000000000               0.000000000               0.000000000               0.000226332               0.002864472               0.000000296              -0.000273184               0.001045876               0.000772692               0.000000000               0.000000000               0.000000000               0.000000000               0.000186084               0.002866463               0.000004047              -0.000288526               0.001051653               0.000763128               0.000000000               0.000000000               0.000000000               0.000000000               0.000145752               0.002874470               0.000006240              -0.000304651               0.001059697               0.000755046               0.000000000               0.000000000               0.000000000               0.000000000               0.000107238               0.002887306              -0.000000502              -0.000320698               0.001069325               0.000748627               0.000000000               0.000000000               0.000000000               0.000000000               0.000069543               0.002905915              -0.000008538              -0.000337160               0.001081016               0.000743855               0.000000000               0.000000000               0.000000000               0.000000000               0.000033701               0.002929148              -0.000008515              -0.000353505               0.001094208               0.000740703               0.000000000               0.000000000               0.000000000               0.000000000               0.000020034               0.002948644              -0.000004444              -0.000361067               0.001103227               0.000742160               0.000000000               0.000000000               0.000000000               0.000000000               0.000847747               0.004320223               0.001326389              -0.000222123               0.001514101               0.001291977               0.000000000               0.000000000               0.000000000               0.000000000               0.000650554               0.003755433               0.000882775              -0.000225471               0.001326955               0.001101484               0.000000000               0.000000000               0.000000000               0.000000000               0.000594490               0.003401568               0.000428617              -0.000202262               0.001201265               0.000999003               0.000000000               0.000000000               0.000000000               0.000000000               0.000522204               0.003190983               0.000225544              -0.000203046               0.001131332               0.000928286               0.000000000               0.000000000               0.000000000               0.000000000               0.000453793               0.003055269               0.000127604              -0.000211736               0.001088991               0.000877256               0.000000000               0.000000000               0.000000000               0.000000000               0.000392589               0.002969068               0.000078671              -0.000223912               0.001064317               0.000840405               0.000000000               0.000000000               0.000000000               0.000000000               0.000334646               0.002915339               0.000054227              -0.000238925               0.001051412               0.000812487               0.000000000               0.000000000               0.000000000               0.000000000               0.000284425               0.002881744               0.000041606              -0.000253558               0.001045091               0.000791533               0.000000000               0.000000000               0.000000000               0.000000000               0.000243473               0.002862072               0.000035950              -0.000266456               0.001042833               0.000776377               0.000000000               0.000000000               0.000000000               0.000000000               0.000208454               0.002851868               0.000034128              -0.000278312               0.001043384               0.000765071               0.000000000               0.000000000               0.000000000               0.000000000               0.000175063               0.002846043               0.000031125              -0.000290106               0.001045373               0.000755267               0.000000000               0.000000000               0.000000000               0.000000000               0.000140447               0.002846830               0.000030132              -0.000303185               0.001049996               0.000746810               0.000000000               0.000000000               0.000000000               0.000000000               0.000105149               0.002854704               0.000028913              -0.000317406               0.001057361               0.000739954               0.000000000               0.000000000               0.000000000               0.000000000               0.000071657               0.002866215               0.000018412              -0.000331405               0.001065864               0.000734459               0.000000000               0.000000000               0.000000000               0.000000000               0.000043024               0.002878806               0.000004737              -0.000343716               0.001074164               0.000730449               0.000000000               0.000000000               0.000000000               0.000000000               0.000019883               0.002892376              -0.000001012              -0.000354090               0.001082146               0.000728056               0.000000000               0.000000000               0.000000000               0.000000000               0.000011735               0.002902785              -0.000000071              -0.000358446               0.001087067               0.000728621               0.000000000               0.000000000               0.000000000               0.000000000               0.000963493               0.003775167               0.001434591              -0.000110587               0.001295238               0.001184651               0.000000000               0.000000000               0.000000000               0.000000000               0.000676929               0.003389051               0.000971201              -0.000169783               0.001186267               0.001016483               0.000000000               0.000000000               0.000000000               0.000000000               0.000527160               0.003206136               0.000500047              -0.000203082               0.001136395               0.000933314               0.000000000               0.000000000               0.000000000               0.000000000               0.000432660               0.003069659               0.000292674              -0.000221459               0.001097029               0.000875570               0.000000000               0.000000000               0.000000000               0.000000000               0.000364004               0.002974156               0.000190779              -0.000235268               0.001069798               0.000834530               0.000000000               0.000000000               0.000000000               0.000000000               0.000310285               0.002911790               0.000136350              -0.000247616               0.001053126               0.000805509               0.000000000               0.000000000               0.000000000               0.000000000               0.000263614               0.002871560               0.000106028              -0.000260089               0.001043873               0.000783784               0.000000000               0.000000000               0.000000000               0.000000000               0.000222565               0.002842901               0.000088206              -0.000271900               0.001038257               0.000766357               0.000000000               0.000000000               0.000000000               0.000000000               0.000189714               0.002824948               0.000076792              -0.000281975               0.001035632               0.000753656               0.000000000               0.000000000               0.000000000               0.000000000               0.000161137               0.002816545               0.000070923              -0.000291641               0.001036053               0.000744412               0.000000000               0.000000000               0.000000000               0.000000000               0.000134738               0.002813703               0.000064474              -0.000301186               0.001038287               0.000737101               0.000000000               0.000000000               0.000000000               0.000000000               0.000104642               0.002815917               0.000054454              -0.000312748               0.001042879               0.000730131               0.000000000               0.000000000               0.000000000               0.000000000               0.000073261               0.002827147               0.000045543              -0.000325920               0.001051013               0.000725093               0.000000000               0.000000000               0.000000000               0.000000000               0.000045491               0.002838847               0.000031888              -0.000337796               0.001058872               0.000721076               0.000000000               0.000000000               0.000000000               0.000000000               0.000024794               0.002848157               0.000014901              -0.000346721               0.001064950               0.000718229               0.000000000               0.000000000               0.000000000               0.000000000               0.000011433               0.002855745               0.000005515              -0.000352680               0.001069466               0.000716786               0.000000000               0.000000000               0.000000000               0.000000000               0.000008350               0.002862041               0.000005145              -0.000354623               0.001072212               0.000717589               0.000000000               0.000000000               0.000000000               0.000000000               0.001039284               0.003218693               0.001447558              -0.000012607               0.001077089               0.001064482               0.000000000               0.000000000               0.000000000               0.000000000               0.000684967               0.003018514               0.001010113              -0.000120452               0.001046312               0.000925859               0.000000000               0.000000000               0.000000000               0.000000000               0.000458767               0.003004150               0.000561922              -0.000203481               0.001069200               0.000865719               0.000000000               0.000000000               0.000000000               0.000000000               0.000355084               0.002940336               0.000361375              -0.000234385               0.001058231               0.000823846               0.000000000               0.000000000               0.000000000               0.000000000               0.000293090               0.002883410               0.000256591              -0.000250517               0.001044633               0.000794116               0.000000000               0.000000000               0.000000000               0.000000000               0.000248724               0.002843378               0.000195177              -0.000262150               0.001035167               0.000773016               0.000000000               0.000000000               0.000000000               0.000000000               0.000212166               0.002814299               0.000158657              -0.000272224               0.001028832               0.000756607               0.000000000               0.000000000               0.000000000               0.000000000               0.000178431               0.002789972               0.000134934              -0.000281834               0.001023926               0.000742092               0.000000000               0.000000000               0.000000000               0.000000000               0.000152811               0.002777119               0.000115435              -0.000289835               0.001022309               0.000732474               0.000000000               0.000000000               0.000000000               0.000000000               0.000129894               0.002774863               0.000100291              -0.000298147               0.001024328               0.000726180               0.000000000               0.000000000               0.000000000               0.000000000               0.000108234               0.002782846               0.000086581              -0.000307267               0.001030028               0.000722761               0.000000000               0.000000000               0.000000000               0.000000000               0.000086215               0.002798000               0.000067938              -0.000317418               0.001038464               0.000721045               0.000000000               0.000000000               0.000000000               0.000000000               0.000061709               0.002815161               0.000052310              -0.000328753               0.001047962               0.000719209               0.000000000               0.000000000               0.000000000               0.000000000               0.000039539               0.002830201               0.000038136              -0.000338947               0.001056373               0.000717426               0.000000000               0.000000000               0.000000000               0.000000000               0.000024616               0.002840985               0.000022219              -0.000345891               0.001062283               0.000716391               0.000000000               0.000000000               0.000000000               0.000000000               0.000013026               0.002846980               0.000011199              -0.000350987               0.001065980               0.000714993               0.000000000               0.000000000               0.000000000               0.000000000               0.000009188               0.002852445               0.000008610              -0.000353109               0.001068509               0.000715399               0.000000000               0.000000000               0.000000000               0.000000000               0.001066784               0.002677647               0.001382117               0.000065336               0.000870761               0.000936097               0.000000000               0.000000000               0.000000000               0.000000000               0.000676299               0.002666074               0.001010618              -0.000079648               0.000915232               0.000835583               0.000000000               0.000000000               0.000000000               0.000000000               0.000401699               0.002806433               0.000616915              -0.000200167               0.001002190               0.000802024               0.000000000               0.000000000               0.000000000               0.000000000               0.000299429               0.002806940               0.000426470              -0.000238581               0.001015164               0.000776583               0.000000000               0.000000000               0.000000000               0.000000000               0.000245928               0.002787066               0.000317220              -0.000256160               0.001014399               0.000758240               0.000000000               0.000000000               0.000000000               0.000000000               0.000209303               0.002769689               0.000248469              -0.000267722               0.001012461               0.000744739               0.000000000               0.000000000               0.000000000               0.000000000               0.000180665               0.002753297               0.000205573              -0.000276412               0.001009894               0.000733482               0.000000000               0.000000000               0.000000000               0.000000000               0.000155045               0.002740869               0.000173950              -0.000284466               0.001008436               0.000723970               0.000000000               0.000000000               0.000000000               0.000000000               0.000136946               0.002741632               0.000143204              -0.000291348               0.001010984               0.000719636               0.000000000               0.000000000               0.000000000               0.000000000               0.000120702               0.002754106               0.000116911              -0.000298999               0.001017692               0.000718693               0.000000000               0.000000000               0.000000000               0.000000000               0.000101652               0.002775966               0.000094413              -0.000308875               0.001028271               0.000719396               0.000000000               0.000000000               0.000000000               0.000000000               0.000082239               0.002802460               0.000072465              -0.000319467               0.001040633               0.000721166               0.000000000               0.000000000               0.000000000               0.000000000               0.000062037               0.002824587               0.000054168              -0.000329809               0.001051456               0.000721647               0.000000000               0.000000000               0.000000000               0.000000000               0.000044934               0.002843300               0.000039723              -0.000338562               0.001060611               0.000722049               0.000000000               0.000000000               0.000000000               0.000000000               0.000030547               0.002854748               0.000026123              -0.000345387               0.001066702               0.000721315               0.000000000               0.000000000               0.000000000               0.000000000               0.000017115               0.002860438               0.000013857              -0.000351136               0.001070515               0.000719379               0.000000000               0.000000000               0.000000000               0.000000000               0.000009477               0.002863465               0.000008011              -0.000354378               0.001072605               0.000718227               0.000000000               0.000000000               0.000000000               0.000000000               0.001065287               0.002196468               0.001263571               0.000124922               0.000690507               0.000815429               0.000000000               0.000000000               0.000000000               0.000000000               0.000672913               0.002350661               0.000992098              -0.000041492               0.000797376               0.000755884               0.000000000               0.000000000               0.000000000               0.000000000               0.000375937               0.002625912               0.000679119              -0.000187263               0.000937716               0.000750453               0.000000000               0.000000000               0.000000000               0.000000000               0.000277249               0.002690635               0.000496957              -0.000232361               0.000974323               0.000741962               0.000000000               0.000000000               0.000000000               0.000000000               0.000228902               0.002710545               0.000381046              -0.000252980               0.000987833               0.000734853               0.000000000               0.000000000               0.000000000               0.000000000               0.000196919               0.002717114               0.000305372              -0.000265794               0.000994294               0.000728500               0.000000000               0.000000000               0.000000000               0.000000000               0.000172020               0.002714631               0.000253467              -0.000274821               0.000996475               0.000721654               0.000000000               0.000000000               0.000000000               0.000000000               0.000153834               0.002717020               0.000210547              -0.000281939               0.000999644               0.000717705               0.000000000               0.000000000               0.000000000               0.000000000               0.000140733               0.002732076               0.000170129              -0.000288734               0.001006928               0.000718194               0.000000000               0.000000000               0.000000000               0.000000000               0.000128800               0.002755359               0.000135035              -0.000296119               0.001017150               0.000721031               0.000000000               0.000000000               0.000000000               0.000000000               0.000112649               0.002786199               0.000106006              -0.000306031               0.001030734               0.000724703               0.000000000               0.000000000               0.000000000               0.000000000               0.000097206               0.002821396               0.000081296              -0.000316222               0.001045863               0.000729642               0.000000000               0.000000000               0.000000000               0.000000000               0.000081647               0.002850282               0.000060043              -0.000325667               0.001058640               0.000732973               0.000000000               0.000000000               0.000000000               0.000000000               0.000065893               0.002870822               0.000043224              -0.000334142               0.001068312               0.000734170               0.000000000               0.000000000               0.000000000               0.000000000               0.000047991               0.002883327               0.000028553              -0.000342419               0.001075239               0.000732820               0.000000000               0.000000000               0.000000000               0.000000000               0.000028522               0.002891917               0.000014655              -0.000350793               0.001080894               0.000730101               0.000000000               0.000000000               0.000000000               0.000000000               0.000015305               0.002893743               0.000006380              -0.000355978               0.001083231               0.000727253               0.000000000               0.000000000               0.000000000               0.000000000               0.001025678               0.001726941               0.001117354               0.000168759               0.000519388               0.000688147               0.000000000               0.000000000               0.000000000               0.000000000               0.000681517               0.001981360               0.000965036               0.000007897               0.000657814               0.000665711               0.000000000               0.000000000               0.000000000               0.000000000               0.000390643               0.002356411               0.000754286              -0.000148061               0.000834816               0.000686755               0.000000000               0.000000000               0.000000000               0.000000000               0.000292201               0.002499706               0.000585600              -0.000202888               0.000900856               0.000697968               0.000000000               0.000000000               0.000000000               0.000000000               0.000243736               0.002571132               0.000465237              -0.000229990               0.000933699               0.000703708               0.000000000               0.000000000               0.000000000               0.000000000               0.000214599               0.002616423               0.000380853              -0.000246578               0.000954325               0.000707747               0.000000000               0.000000000               0.000000000               0.000000000               0.000188745               0.002642297               0.000316778              -0.000259507               0.000967259               0.000707752               0.000000000               0.000000000               0.000000000               0.000000000               0.000168424               0.002660964               0.000265403              -0.000269461               0.000976799               0.000707338               0.000000000               0.000000000               0.000000000               0.000000000               0.000155111               0.002684635               0.000221175              -0.000277412               0.000987340               0.000709928               0.000000000               0.000000000               0.000000000               0.000000000               0.000147212               0.002716447               0.000180981              -0.000284351               0.001000257               0.000715906               0.000000000               0.000000000               0.000000000               0.000000000               0.000137458               0.002757840               0.000144498              -0.000293183               0.001016998               0.000723816               0.000000000               0.000000000               0.000000000               0.000000000               0.000123280               0.002805628               0.000111963              -0.000304473               0.001036691               0.000732218               0.000000000               0.000000000               0.000000000               0.000000000               0.000105303               0.002846874               0.000083510              -0.000316370               0.001054405               0.000738035               0.000000000               0.000000000               0.000000000               0.000000000               0.000085605               0.002876529               0.000059229              -0.000327464               0.001067988               0.000740524               0.000000000               0.000000000               0.000000000               0.000000000               0.000063468               0.002894685               0.000035726              -0.000338034               0.001077563               0.000739529               0.000000000               0.000000000               0.000000000               0.000000000               0.000038181               0.002906798               0.000015167              -0.000349031               0.001085267               0.000736235               0.000000000               0.000000000               0.000000000               0.000000000               0.000018350               0.002906574               0.000003413              -0.000356440               0.001087662               0.000731222               0.000000000               0.000000000               0.000000000               0.000000000               0.000932725               0.001283223               0.000946354               0.000189366               0.000364614               0.000553980               0.000000000               0.000000000               0.000000000               0.000000000               0.000689011               0.001608503               0.000912221               0.000057315               0.000517057               0.000574372               0.000000000               0.000000000               0.000000000               0.000000000               0.000438322               0.002053021               0.000810520              -0.000092257               0.000715086               0.000622828               0.000000000               0.000000000               0.000000000               0.000000000               0.000341582               0.002271452               0.000671718              -0.000155839               0.000809089               0.000653251               0.000000000               0.000000000               0.000000000               0.000000000               0.000289473               0.002400464               0.000554713              -0.000191505               0.000863982               0.000672476               0.000000000               0.000000000               0.000000000               0.000000000               0.000254087               0.002490084               0.000463174              -0.000215978               0.000902012               0.000686034               0.000000000               0.000000000               0.000000000               0.000000000               0.000225949               0.002553023               0.000390533              -0.000234397               0.000929131               0.000694735               0.000000000               0.000000000               0.000000000               0.000000000               0.000201822               0.002595224               0.000334095              -0.000248719               0.000947973               0.000699253               0.000000000               0.000000000               0.000000000               0.000000000               0.000186622               0.002631821               0.000288860              -0.000258994               0.000963596               0.000704602               0.000000000               0.000000000               0.000000000               0.000000000               0.000177217               0.002671859               0.000245562              -0.000267525               0.000979786               0.000712260               0.000000000               0.000000000               0.000000000               0.000000000               0.000169189               0.002723026               0.000201618              -0.000276932               0.000999977               0.000723045               0.000000000               0.000000000               0.000000000               0.000000000               0.000155603               0.002783275               0.000159243              -0.000289558               0.001024268               0.000734711               0.000000000               0.000000000               0.000000000               0.000000000               0.000136694               0.002838081               0.000122713              -0.000303499               0.001047184               0.000743685               0.000000000               0.000000000               0.000000000               0.000000000               0.000111196               0.002873849               0.000090591              -0.000317532               0.001063784               0.000746252               0.000000000               0.000000000               0.000000000               0.000000000               0.000080715               0.002893875               0.000057288              -0.000331465               0.001075104               0.000743638               0.000000000               0.000000000               0.000000000               0.000000000               0.000047105               0.002907870               0.000025227              -0.000345818               0.001084553               0.000738735               0.000000000               0.000000000               0.000000000               0.000000000               0.000019830               0.002905279               0.000006368              -0.000355723               0.001086991               0.000731268               0.000000000               0.000000000               0.000000000               0.000000000               0.000793514               0.000891015               0.000753595               0.000186189               0.000234939               0.000421127               0.000000000               0.000000000               0.000000000               0.000000000               0.000676377               0.001247535               0.000818401               0.000097698               0.000383275               0.000480972               0.000000000               0.000000000               0.000000000               0.000000000               0.000501973               0.001716423               0.000815309              -0.000026314               0.000580906               0.000554592               0.000000000               0.000000000               0.000000000               0.000000000               0.000419607               0.001993409               0.000716978              -0.000091824               0.000695071               0.000603247               0.000000000               0.000000000               0.000000000               0.000000000               0.000364478               0.002175455               0.000613982              -0.000135253               0.000770229               0.000634976               0.000000000               0.000000000               0.000000000               0.000000000               0.000321334               0.002310502               0.000524112              -0.000168313               0.000826264               0.000657951               0.000000000               0.000000000               0.000000000               0.000000000               0.000288644               0.002416409               0.000449436              -0.000193810               0.000870065               0.000676255               0.000000000               0.000000000               0.000000000               0.000000000               0.000259716               0.002490937               0.000391673              -0.000213973               0.000901628               0.000687655               0.000000000               0.000000000               0.000000000               0.000000000               0.000236716               0.002547276               0.000346756              -0.000229640               0.000925630               0.000695990               0.000000000               0.000000000               0.000000000               0.000000000               0.000222450               0.002604128               0.000302305              -0.000242097               0.000948733               0.000706636               0.000000000               0.000000000               0.000000000               0.000000000               0.000211956               0.002668820               0.000254011              -0.000254119               0.000974304               0.000720186               0.000000000               0.000000000               0.000000000               0.000000000               0.000197833               0.002738538               0.000206618              -0.000268129               0.001002213               0.000734084               0.000000000               0.000000000               0.000000000               0.000000000               0.000178949               0.002807212               0.000165876              -0.000283795               0.001030326               0.000746531               0.000000000               0.000000000               0.000000000               0.000000000               0.000152183               0.002856618               0.000127924              -0.000300008               0.001052199               0.000752191               0.000000000               0.000000000               0.000000000               0.000000000               0.000117129               0.002887280               0.000086736              -0.000316986               0.001068079               0.000751093               0.000000000               0.000000000               0.000000000               0.000000000               0.000070559               0.002905571               0.000042864              -0.000336736               0.001080759               0.000744024               0.000000000               0.000000000               0.000000000               0.000000000               0.000029658               0.002901538               0.000016122              -0.000351570               0.001084360               0.000732790               0.000000000               0.000000000               0.000000000               0.000000000               0.000620184               0.000570707               0.000556936               0.000161229               0.000136491               0.000297719               0.000000000               0.000000000               0.000000000               0.000000000               0.000646134               0.000916638               0.000687337               0.000127718               0.000262970               0.000390688               0.000000000               0.000000000               0.000000000               0.000000000               0.000572950               0.001369911               0.000759431               0.000043616               0.000442093               0.000485710               0.000000000               0.000000000               0.000000000               0.000000000               0.000517657               0.001684045               0.000703089              -0.000016385               0.000566804               0.000550419               0.000000000               0.000000000               0.000000000               0.000000000               0.000468013               0.001909124               0.000621411              -0.000063136               0.000657413               0.000594277               0.000000000               0.000000000               0.000000000               0.000000000               0.000421372               0.002086879               0.000543297              -0.000102845               0.000729901               0.000627056               0.000000000               0.000000000               0.000000000               0.000000000               0.000381240               0.002231729               0.000474472              -0.000136001               0.000789236               0.000653235               0.000000000               0.000000000               0.000000000               0.000000000               0.000346209               0.002343102               0.000419465              -0.000163059               0.000835379               0.000672320               0.000000000               0.000000000               0.000000000               0.000000000               0.000312364               0.002429178               0.000376008              -0.000186511               0.000871888               0.000685378               0.000000000               0.000000000               0.000000000               0.000000000               0.000287629               0.002505692               0.000333645              -0.000205350               0.000903672               0.000698322               0.000000000               0.000000000               0.000000000               0.000000000               0.000270967               0.002584005               0.000284893              -0.000221388               0.000935122               0.000713735               0.000000000               0.000000000               0.000000000               0.000000000               0.000257411               0.002669166               0.000236587              -0.000237116               0.000968752               0.000731636               0.000000000               0.000000000               0.000000000               0.000000000               0.000238241               0.002751784               0.000195096              -0.000254632               0.001002130               0.000747498               0.000000000               0.000000000               0.000000000               0.000000000               0.000212109               0.002818754               0.000156486              -0.000272803               0.001030509               0.000757707               0.000000000               0.000000000               0.000000000               0.000000000               0.000178459               0.002868912               0.000110065              -0.000291691               0.001053525               0.000761834               0.000000000               0.000000000               0.000000000               0.000000000               0.000133387               0.002900331               0.000054868              -0.000312520               0.001070941               0.000758421               0.000000000               0.000000000               0.000000000               0.000000000               0.000092171               0.002902431               0.000021634              -0.000328239               0.001076880               0.000748642               0.000000000               0.000000000               0.000000000               0.000000000               0.000432183               0.000328470               0.000376038               0.000121008               0.000069152               0.000190161               0.000000000               0.000000000               0.000000000               0.000000000               0.000599168               0.000636345               0.000529078               0.000145143               0.000163732               0.000308875               0.000000000               0.000000000               0.000000000               0.000000000               0.000640509               0.001047261               0.000638115               0.000109281               0.000312656               0.000421938               0.000000000               0.000000000               0.000000000               0.000000000               0.000621645               0.001374226               0.000618289               0.000061337               0.000437625               0.000498962               0.000000000               0.000000000               0.000000000               0.000000000               0.000584267               0.001631025               0.000562038               0.000015221               0.000538596               0.000553817               0.000000000               0.000000000               0.000000000               0.000000000               0.000538774               0.001841917               0.000501662              -0.000028200               0.000623366               0.000595166               0.000000000               0.000000000               0.000000000               0.000000000               0.000493599               0.002021098               0.000445793              -0.000067538               0.000696205               0.000628667               0.000000000               0.000000000               0.000000000               0.000000000               0.000451037               0.002168903               0.000398776              -0.000101974               0.000756952               0.000654978               0.000000000               0.000000000               0.000000000               0.000000000               0.000407930               0.002284334               0.000359762              -0.000132568               0.000805626               0.000673059               0.000000000               0.000000000               0.000000000               0.000000000               0.000367150               0.002385603               0.000322381              -0.000160519               0.000848699               0.000688180               0.000000000               0.000000000               0.000000000               0.000000000               0.000337963               0.002485795               0.000280742              -0.000183988               0.000889920               0.000705932               0.000000000               0.000000000               0.000000000               0.000000000               0.000321185               0.002589295               0.000237341              -0.000203217               0.000930829               0.000727612               0.000000000               0.000000000               0.000000000               0.000000000               0.000304638               0.002684950               0.000198305              -0.000221379               0.000968767               0.000747388               0.000000000               0.000000000               0.000000000               0.000000000               0.000280368               0.002766460               0.000161333              -0.000240669               0.001002367               0.000761698               0.000000000               0.000000000               0.000000000               0.000000000               0.000253487               0.002835609               0.000117421              -0.000259393               0.001031658               0.000772265               0.000000000               0.000000000               0.000000000               0.000000000               0.000227015               0.002885851               0.000063484              -0.000275600               0.001053807               0.000778207               0.000000000               0.000000000               0.000000000               0.000000000               0.000203708               0.002900076               0.000031004              -0.000286118               0.001062055               0.000775937               0.000000000               0.000000000               0.000000000               0.000000000               0.000265095               0.000169691               0.000222331               0.000078198               0.000030497               0.000108695               0.000000000               0.000000000               0.000000000               0.000000000               0.000547302               0.000425756               0.000355624               0.000152017               0.000091245               0.000243262               0.000000000               0.000000000               0.000000000               0.000000000               0.000694182               0.000782208               0.000460733               0.000162540               0.000206553               0.000369094               0.000000000               0.000000000               0.000000000               0.000000000               0.000715639               0.001109450               0.000461561               0.000129682               0.000326586               0.000456267               0.000000000               0.000000000               0.000000000               0.000000000               0.000692569               0.001385794               0.000429044               0.000086488               0.000433097               0.000519585               0.000000000               0.000000000               0.000000000               0.000000000               0.000651179               0.001617388               0.000389563               0.000042018               0.000525118               0.000567136               0.000000000               0.000000000               0.000000000               0.000000000               0.000603781               0.001821121               0.000351539              -0.000001223               0.000607442               0.000606219               0.000000000               0.000000000               0.000000000               0.000000000               0.000553395               0.001995889               0.000318160              -0.000041963               0.000679277               0.000637314               0.000000000               0.000000000               0.000000000               0.000000000               0.000502279               0.002143818               0.000287909              -0.000079622               0.000741140               0.000661517               0.000000000               0.000000000               0.000000000               0.000000000               0.000451241               0.002277579               0.000258633              -0.000115482               0.000797679               0.000682198               0.000000000               0.000000000               0.000000000               0.000000000               0.000409238               0.002398555               0.000230104              -0.000146355               0.000848295               0.000701940               0.000000000               0.000000000               0.000000000               0.000000000               0.000384238               0.002513314               0.000198956              -0.000170075               0.000894454               0.000724380               0.000000000               0.000000000               0.000000000               0.000000000               0.000366768               0.002621137               0.000164521              -0.000190104               0.000937071               0.000746968               0.000000000               0.000000000               0.000000000               0.000000000               0.000349146               0.002714241               0.000133788              -0.000208350               0.000974188               0.000765838               0.000000000               0.000000000               0.000000000               0.000000000               0.000339592               0.002793798               0.000104109              -0.000221877               0.001005216               0.000783339               0.000000000               0.000000000               0.000000000               0.000000000               0.000335950               0.002861992               0.000062005              -0.000231767               0.001031244               0.000799476               0.000000000               0.000000000               0.000000000               0.000000000               0.000330586               0.002890587               0.000034917              -0.000237353               0.001042637               0.000805284               0.000000000               0.000000000               0.000000000               0.000000000               0.000151666               0.000084365               0.000101626               0.000046329               0.000012678               0.000059007               0.000000000               0.000000000               0.000000000               0.000000000               0.000510597               0.000299116               0.000178070               0.000154083               0.000048343               0.000202426               0.000000000               0.000000000               0.000000000               0.000000000               0.000729885               0.000610090               0.000241472               0.000197443               0.000137547               0.000334990               0.000000000               0.000000000               0.000000000               0.000000000               0.000781301               0.000929314               0.000247070               0.000176822               0.000250828               0.000427650               0.000000000               0.000000000               0.000000000               0.000000000               0.000769826               0.001215137               0.000233316               0.000136791               0.000359444               0.000496236               0.000000000               0.000000000               0.000000000               0.000000000               0.000730243               0.001458557               0.000214731               0.000091521               0.000455674               0.000547194               0.000000000               0.000000000               0.000000000               0.000000000               0.000679666               0.001673580               0.000195146               0.000045677               0.000542629               0.000588306               0.000000000               0.000000000               0.000000000               0.000000000               0.000624821               0.001870050               0.000177535               0.000000551               0.000623160               0.000623711               0.000000000               0.000000000               0.000000000               0.000000000               0.000569183               0.002046863               0.000161611              -0.000042414               0.000696419               0.000654005               0.000000000               0.000000000               0.000000000               0.000000000               0.000515904               0.002198282               0.000145743              -0.000081321               0.000759860               0.000678539               0.000000000               0.000000000               0.000000000               0.000000000               0.000468476               0.002327364               0.000132417              -0.000115242               0.000814194               0.000698952               0.000000000               0.000000000               0.000000000               0.000000000               0.000433110               0.002448010               0.000114677              -0.000143585               0.000863857               0.000720272               0.000000000               0.000000000               0.000000000               0.000000000               0.000413737               0.002565020               0.000090856              -0.000165476               0.000910157               0.000744681               0.000000000               0.000000000               0.000000000               0.000000000               0.000408000               0.002672526               0.000075726              -0.000181065               0.000951188               0.000770123               0.000000000               0.000000000               0.000000000               0.000000000               0.000411633               0.002767999               0.000063469              -0.000191637               0.000986536               0.000794899               0.000000000               0.000000000               0.000000000               0.000000000               0.000425116               0.002851411               0.000037312              -0.000197008               0.001016130               0.000819122               0.000000000               0.000000000               0.000000000               0.000000000               0.000438135               0.002889647               0.000019780              -0.000196905               0.001028841               0.000831936               0.000000000               0.000000000               0.000000000               0.000000000               0.000000000               0.000000000               0.000000000               0.000000000               0.000000000               0.000000000               0.000000000               0.000000000               0.000000000               0.000000000               0.000000000               0.000000000               0.000000000               0.000000000               0.000000000               0.000000000               0.000000000               0.000000000               0.000000000               0.000000000               0.000000000               0.000000000               0.000000000               0.000000000               0.000000000               0.000000000               0.000000000               0.000000000               0.000000000               0.000000000               0.000000000               0.000000000               0.000000000               0.000000000               0.000000000               0.000000000               0.000000000               0.000000000               0.000000000               0.000000000               0.000000000               0.000000000               0.000000000               0.000000000               0.000000000               0.000000000               0.000000000               0.000000000               0.000000000               0.000000000               0.000000000               0.000000000               0.000000000               0.000000000               0.000000000               0.000000000               0.000000000               0.000000000               0.000000000               0.000000000               0.000000000               0.000000000               0.000000000               0.000000000               0.000000000               0.000000000               0.000000000               0.000000000               0.000000000               0.000000000               0.000000000               0.000000000               0.000000000               0.000000000               0.000000000               0.000000000               0.000000000               0.000000000               0.000000000               0.000000000               0.000000000               0.000000000               0.000000000               0.000000000               0.000000000               0.000000000               0.000000000               0.000000000               0.000000000               0.000000000               0.000000000               0.000000000               0.000000000               0.000000000               0.000000000               0.000000000               0.000000000               0.000000000               0.000000000               0.000000000               0.000000000               0.000000000               0.000000000               0.000000000               0.000000000               0.000000000               0.000000000               0.000000000               0.000000000               0.000000000               0.000000000               0.000000000               0.000000000               0.000000000               0.000000000               0.000000000               0.000000000               0.000000000               0.000000000               0.000000000               0.000000000               0.000000000               0.000000000               0.000000000               0.000000000               0.000000000               0.000000000               0.000000000               0.000000000               0.000000000               0.000000000               0.000000000               0.000000000               0.000000000               0.000000000               0.000000000               0.000000000               0.000000000               0.000000000               0.000000000               0.000000000               0.000000000               0.000000000               0.000000000               0.000000000               0.000000000               0.000000000               0.000000000               0.000000000               0.000000000               0.000000000               0.000000000               0.000000000               0.000000000               0.000000000               0.000000000               0.000000000               0.000000000               0.000000000               0.000000000               0.000000000               0.000000000               0.000000000               0.000000000               0.000000000               0.000000000               0.000000000               0.000000000               0.000000000               0.000000000 </DataArray>
</PointData>
</Piece>
</UnstructuredGrid> </VTKFile>
