<?xml version="1.0"?>
<VTKFile type="UnstructuredGrid" version="0.1">
<UnstructuredGrid>
<Piece NumberOfPoints="      1156" NumberOfCells="      1024">
<Points>
<DataArray type="Float64"                                    Name="coordinates"                                                      NumberOfComponents=" 3" format="ascii">
              0.133000000               0.000000000               0.000000000               0.155937500               0.000000000               0.000000000               0.178875000               0.000000000               0.000000000               0.201812500               0.000000000               0.000000000               0.224750000               0.000000000               0.000000000               0.247687500               0.000000000               0.000000000               0.270625000               0.000000000               0.000000000               0.293562500               0.000000000               0.000000000               0.316500000               0.000000000               0.000000000               0.339437500               0.000000000               0.000000000               0.362375000               0.000000000               0.000000000               0.385312500               0.000000000               0.000000000               0.408250000               0.000000000               0.000000000               0.431187500               0.000000000               0.000000000               0.454125000               0.000000000               0.000000000               0.477062500               0.000000000               0.000000000               0.500000000               0.000000000               0.000000000               0.132359569               0.013036280               0.000000000               0.155337096               0.016127762               0.000000000               0.178314623               0.019219245               0.000000000               0.201292150               0.022310727               0.000000000               0.224269676               0.025402210               0.000000000               0.247247203               0.028493692               0.000000000               0.270224730               0.031585175               0.000000000               0.293202257               0.034676657               0.000000000               0.316179784               0.037768140               0.000000000               0.339157311               0.040859622               0.000000000               0.362134838               0.043951105               0.000000000               0.385112365               0.047042587               0.000000000               0.408089892               0.050134070               0.000000000               0.431067419               0.053225552               0.000000000               0.454044946               0.056317035               0.000000000               0.477022473               0.059408517               0.000000000               0.500000000               0.062500000               0.000000000               0.130444442               0.025947013               0.000000000               0.153541665               0.032137825               0.000000000               0.176638887               0.038328636               0.000000000               0.199736109               0.044519448               0.000000000               0.222833332               0.050710260               0.000000000               0.245930554               0.056901071               0.000000000               0.269027776               0.063091883               0.000000000               0.292124999               0.069282695               0.000000000               0.315222221               0.075473506               0.000000000               0.338319444               0.081664318               0.000000000               0.361416666               0.087855130               0.000000000               0.384513888               0.094045942               0.000000000               0.407611111               0.100236753               0.000000000               0.430708333               0.106427565               0.000000000               0.453805555               0.112618377               0.000000000               0.476902778               0.118809188               0.000000000               0.500000000               0.125000000               0.000000000               0.127273065               0.038607862               0.000000000               0.150568498               0.047913621               0.000000000               0.173863932               0.057219379               0.000000000               0.197159365               0.066525138               0.000000000               0.220454798               0.075830897               0.000000000               0.243750232               0.085136655               0.000000000               0.267045665               0.094442414               0.000000000               0.290341099               0.103748172               0.000000000               0.313636532               0.113053931               0.000000000               0.336931966               0.122359690               0.000000000               0.360227399               0.131665448               0.000000000               0.383522833               0.140971207               0.000000000               0.406818266               0.150276966               0.000000000               0.430113700               0.159582724               0.000000000               0.453409133               0.168888483               0.000000000               0.476704567               0.178194241               0.000000000               0.500000000               0.187500000               0.000000000               0.122875978               0.050896897               0.000000000               0.146446229               0.063340840               0.000000000               0.170016481               0.075784784               0.000000000               0.193586732               0.088228728               0.000000000               0.217156983               0.100672672               0.000000000               0.240727235               0.113116616               0.000000000               0.264297486               0.125560560               0.000000000               0.287867738               0.138004504               0.000000000               0.311437989               0.150448448               0.000000000               0.335008240               0.162892392               0.000000000               0.358578492               0.175336336               0.000000000               0.382148743               0.187780280               0.000000000               0.405718994               0.200224224               0.000000000               0.429289246               0.212668168               0.000000000               0.452859497               0.225112112               0.000000000               0.476429749               0.237556056               0.000000000               0.500000000               0.250000000               0.000000000               0.117295528               0.062695766               0.000000000               0.141214558               0.078308531               0.000000000               0.165133587               0.093921295               0.000000000               0.189052617               0.109534060               0.000000000               0.212971646               0.125146824               0.000000000               0.236890676               0.140759589               0.000000000               0.260809705               0.156372354               0.000000000               0.284728735               0.171985118               0.000000000               0.308647764               0.187597883               0.000000000               0.332566794               0.203210648               0.000000000               0.356485823               0.218823412               0.000000000               0.380404853               0.234436177               0.000000000               0.404323882               0.250048941               0.000000000               0.428242912               0.265661706               0.000000000               0.452161941               0.281274471               0.000000000               0.476080971               0.296887235               0.000000000               0.500000000               0.312500000               0.000000000               0.110585458               0.073890841               0.000000000               0.134923867               0.092710163               0.000000000               0.159262276               0.111529486               0.000000000               0.183600685               0.130348808               0.000000000               0.207939094               0.149168131               0.000000000               0.232277503               0.167987453               0.000000000               0.256615912               0.186806776               0.000000000               0.280954320               0.205626098               0.000000000               0.305292729               0.224445420               0.000000000               0.329631138               0.243264743               0.000000000               0.353969547               0.262084065               0.000000000               0.378307956               0.280903388               0.000000000               0.402646365               0.299722710               0.000000000               0.426984773               0.318542033               0.000000000               0.451323182               0.337361355               0.000000000               0.475661591               0.356180678               0.000000000               0.500000000               0.375000000               0.000000000               0.102810390               0.084374307               0.000000000               0.127634741               0.106444663               0.000000000               0.152459092               0.128515018               0.000000000               0.177283442               0.150585374               0.000000000               0.202107793               0.172655730               0.000000000               0.226932143               0.194726086               0.000000000               0.251756494               0.216796442               0.000000000               0.276580845               0.238866798               0.000000000               0.301405195               0.260937153               0.000000000               0.326229546               0.283007509               0.000000000               0.351053896               0.305077865               0.000000000               0.375878247               0.327148221               0.000000000               0.400702598               0.349218577               0.000000000               0.425526948               0.371288933               0.000000000               0.450351299               0.393359288               0.000000000               0.475175649               0.415429644               0.000000000               0.500000000               0.437500000               0.000000000               0.094045202               0.094045202               0.000000000               0.119417377               0.119417377               0.000000000               0.144789552               0.144789552               0.000000000               0.170161727               0.170161727               0.000000000               0.195533901               0.195533901               0.000000000               0.220906076               0.220906076               0.000000000               0.246278251               0.246278251               0.000000000               0.271650426               0.271650426               0.000000000               0.297022601               0.297022601               0.000000000               0.322394776               0.322394776               0.000000000               0.347766951               0.347766951               0.000000000               0.373139126               0.373139126               0.000000000               0.398511300               0.398511300               0.000000000               0.423883475               0.423883475               0.000000000               0.449255650               0.449255650               0.000000000               0.474627825               0.474627825               0.000000000               0.500000000               0.500000000               0.000000000               0.084374307               0.102810390               0.000000000               0.106444663               0.127634741               0.000000000               0.128515018               0.152459092               0.000000000               0.150585374               0.177283442               0.000000000               0.172655730               0.202107793               0.000000000               0.194726086               0.226932143               0.000000000               0.216796442               0.251756494               0.000000000               0.238866798               0.276580845               0.000000000               0.260937153               0.301405195               0.000000000               0.283007509               0.326229546               0.000000000               0.305077865               0.351053896               0.000000000               0.327148221               0.375878247               0.000000000               0.349218577               0.400702598               0.000000000               0.371288933               0.425526948               0.000000000               0.393359288               0.450351299               0.000000000               0.415429644               0.475175649               0.000000000               0.437500000               0.500000000               0.000000000               0.073890841               0.110585458               0.000000000               0.092710163               0.134923867               0.000000000               0.111529486               0.159262276               0.000000000               0.130348808               0.183600685               0.000000000               0.149168131               0.207939094               0.000000000               0.167987453               0.232277503               0.000000000               0.186806776               0.256615912               0.000000000               0.205626098               0.280954320               0.000000000               0.224445420               0.305292729               0.000000000               0.243264743               0.329631138               0.000000000               0.262084065               0.353969547               0.000000000               0.280903388               0.378307956               0.000000000               0.299722710               0.402646365               0.000000000               0.318542033               0.426984773               0.000000000               0.337361355               0.451323182               0.000000000               0.356180678               0.475661591               0.000000000               0.375000000               0.500000000               0.000000000               0.062695766               0.117295528               0.000000000               0.078308531               0.141214558               0.000000000               0.093921295               0.165133587               0.000000000               0.109534060               0.189052617               0.000000000               0.125146824               0.212971646               0.000000000               0.140759589               0.236890676               0.000000000               0.156372354               0.260809705               0.000000000               0.171985118               0.284728735               0.000000000               0.187597883               0.308647764               0.000000000               0.203210648               0.332566794               0.000000000               0.218823412               0.356485823               0.000000000               0.234436177               0.380404853               0.000000000               0.250048941               0.404323882               0.000000000               0.265661706               0.428242912               0.000000000               0.281274471               0.452161941               0.000000000               0.296887235               0.476080971               0.000000000               0.312500000               0.500000000               0.000000000               0.050896897               0.122875978               0.000000000               0.063340840               0.146446229               0.000000000               0.075784784               0.170016481               0.000000000               0.088228728               0.193586732               0.000000000               0.100672672               0.217156983               0.000000000               0.113116616               0.240727235               0.000000000               0.125560560               0.264297486               0.000000000               0.138004504               0.287867738               0.000000000               0.150448448               0.311437989               0.000000000               0.162892392               0.335008240               0.000000000               0.175336336               0.358578492               0.000000000               0.187780280               0.382148743               0.000000000               0.200224224               0.405718994               0.000000000               0.212668168               0.429289246               0.000000000               0.225112112               0.452859497               0.000000000               0.237556056               0.476429749               0.000000000               0.250000000               0.500000000               0.000000000               0.038607862               0.127273065               0.000000000               0.047913621               0.150568498               0.000000000               0.057219379               0.173863932               0.000000000               0.066525138               0.197159365               0.000000000               0.075830897               0.220454798               0.000000000               0.085136655               0.243750232               0.000000000               0.094442414               0.267045665               0.000000000               0.103748172               0.290341099               0.000000000               0.113053931               0.313636532               0.000000000               0.122359690               0.336931966               0.000000000               0.131665448               0.360227399               0.000000000               0.140971207               0.383522833               0.000000000               0.150276966               0.406818266               0.000000000               0.159582724               0.430113700               0.000000000               0.168888483               0.453409133               0.000000000               0.178194241               0.476704567               0.000000000               0.187500000               0.500000000               0.000000000               0.025947013               0.130444442               0.000000000               0.032137825               0.153541665               0.000000000               0.038328636               0.176638887               0.000000000               0.044519448               0.199736109               0.000000000               0.050710260               0.222833332               0.000000000               0.056901071               0.245930554               0.000000000               0.063091883               0.269027776               0.000000000               0.069282695               0.292124999               0.000000000               0.075473506               0.315222221               0.000000000               0.081664318               0.338319444               0.000000000               0.087855130               0.361416666               0.000000000               0.094045942               0.384513888               0.000000000               0.100236753               0.407611111               0.000000000               0.106427565               0.430708333               0.000000000               0.112618377               0.453805555               0.000000000               0.118809188               0.476902778               0.000000000               0.125000000               0.500000000               0.000000000               0.013036280               0.132359569               0.000000000               0.016127762               0.155337096               0.000000000               0.019219245               0.178314623               0.000000000               0.022310727               0.201292150               0.000000000               0.025402210               0.224269676               0.000000000               0.028493692               0.247247203               0.000000000               0.031585175               0.270224730               0.000000000               0.034676657               0.293202257               0.000000000               0.037768140               0.316179784               0.000000000               0.040859622               0.339157311               0.000000000               0.043951105               0.362134838               0.000000000               0.047042587               0.385112365               0.000000000               0.050134070               0.408089892               0.000000000               0.053225552               0.431067419               0.000000000               0.056317035               0.454044946               0.000000000               0.059408517               0.477022473               0.000000000               0.062500000               0.500000000               0.000000000               0.000000000               0.133000000               0.000000000               0.000000000               0.155937500               0.000000000               0.000000000               0.178875000               0.000000000               0.000000000               0.201812500               0.000000000               0.000000000               0.224750000               0.000000000               0.000000000               0.247687500               0.000000000               0.000000000               0.270625000               0.000000000               0.000000000               0.293562500               0.000000000               0.000000000               0.316500000               0.000000000               0.000000000               0.339437500               0.000000000               0.000000000               0.362375000               0.000000000               0.000000000               0.385312500               0.000000000               0.000000000               0.408250000               0.000000000               0.000000000               0.431187500               0.000000000               0.000000000               0.454125000               0.000000000               0.000000000               0.477062500               0.000000000               0.000000000               0.500000000               0.000000000               0.133000000               0.000000000               0.000000000               0.155937500               0.000000000               0.000000000               0.178875000               0.000000000               0.000000000               0.201812500               0.000000000               0.000000000               0.224750000               0.000000000               0.000000000               0.247687500               0.000000000               0.000000000               0.270625000               0.000000000               0.000000000               0.293562500               0.000000000               0.000000000               0.316500000               0.000000000               0.000000000               0.339437500               0.000000000               0.000000000               0.362375000               0.000000000               0.000000000               0.385312500               0.000000000               0.000000000               0.408250000               0.000000000               0.000000000               0.431187500               0.000000000               0.000000000               0.454125000               0.000000000               0.000000000               0.477062500               0.000000000               0.000000000               0.500000000               0.000000000               0.000000000               0.132359569              -0.013036280               0.000000000               0.155337096              -0.016127762               0.000000000               0.178314623              -0.019219245               0.000000000               0.201292150              -0.022310727               0.000000000               0.224269676              -0.025402210               0.000000000               0.247247203              -0.028493692               0.000000000               0.270224730              -0.031585175               0.000000000               0.293202257              -0.034676657               0.000000000               0.316179784              -0.037768140               0.000000000               0.339157311              -0.040859622               0.000000000               0.362134838              -0.043951105               0.000000000               0.385112365              -0.047042587               0.000000000               0.408089892              -0.050134070               0.000000000               0.431067419              -0.053225552               0.000000000               0.454044946              -0.056317035               0.000000000               0.477022473              -0.059408517               0.000000000               0.500000000              -0.062500000               0.000000000               0.130444442              -0.025947013               0.000000000               0.153541665              -0.032137825               0.000000000               0.176638887              -0.038328636               0.000000000               0.199736109              -0.044519448               0.000000000               0.222833332              -0.050710260               0.000000000               0.245930554              -0.056901071               0.000000000               0.269027776              -0.063091883               0.000000000               0.292124999              -0.069282695               0.000000000               0.315222221              -0.075473506               0.000000000               0.338319444              -0.081664318               0.000000000               0.361416666              -0.087855130               0.000000000               0.384513888              -0.094045942               0.000000000               0.407611111              -0.100236753               0.000000000               0.430708333              -0.106427565               0.000000000               0.453805555              -0.112618377               0.000000000               0.476902778              -0.118809188               0.000000000               0.500000000              -0.125000000               0.000000000               0.127273065              -0.038607862               0.000000000               0.150568498              -0.047913621               0.000000000               0.173863932              -0.057219379               0.000000000               0.197159365              -0.066525138               0.000000000               0.220454798              -0.075830897               0.000000000               0.243750232              -0.085136655               0.000000000               0.267045665              -0.094442414               0.000000000               0.290341099              -0.103748172               0.000000000               0.313636532              -0.113053931               0.000000000               0.336931966              -0.122359690               0.000000000               0.360227399              -0.131665448               0.000000000               0.383522833              -0.140971207               0.000000000               0.406818266              -0.150276966               0.000000000               0.430113700              -0.159582724               0.000000000               0.453409133              -0.168888483               0.000000000               0.476704567              -0.178194241               0.000000000               0.500000000              -0.187500000               0.000000000               0.122875978              -0.050896897               0.000000000               0.146446229              -0.063340840               0.000000000               0.170016481              -0.075784784               0.000000000               0.193586732              -0.088228728               0.000000000               0.217156983              -0.100672672               0.000000000               0.240727235              -0.113116616               0.000000000               0.264297486              -0.125560560               0.000000000               0.287867738              -0.138004504               0.000000000               0.311437989              -0.150448448               0.000000000               0.335008240              -0.162892392               0.000000000               0.358578492              -0.175336336               0.000000000               0.382148743              -0.187780280               0.000000000               0.405718994              -0.200224224               0.000000000               0.429289246              -0.212668168               0.000000000               0.452859497              -0.225112112               0.000000000               0.476429749              -0.237556056               0.000000000               0.500000000              -0.250000000               0.000000000               0.117295528              -0.062695766               0.000000000               0.141214558              -0.078308531               0.000000000               0.165133587              -0.093921295               0.000000000               0.189052617              -0.109534060               0.000000000               0.212971646              -0.125146824               0.000000000               0.236890676              -0.140759589               0.000000000               0.260809705              -0.156372354               0.000000000               0.284728735              -0.171985118               0.000000000               0.308647764              -0.187597883               0.000000000               0.332566794              -0.203210648               0.000000000               0.356485823              -0.218823412               0.000000000               0.380404853              -0.234436177               0.000000000               0.404323882              -0.250048941               0.000000000               0.428242912              -0.265661706               0.000000000               0.452161941              -0.281274471               0.000000000               0.476080971              -0.296887235               0.000000000               0.500000000              -0.312500000               0.000000000               0.110585458              -0.073890841               0.000000000               0.134923867              -0.092710163               0.000000000               0.159262276              -0.111529486               0.000000000               0.183600685              -0.130348808               0.000000000               0.207939094              -0.149168131               0.000000000               0.232277503              -0.167987453               0.000000000               0.256615912              -0.186806776               0.000000000               0.280954320              -0.205626098               0.000000000               0.305292729              -0.224445420               0.000000000               0.329631138              -0.243264743               0.000000000               0.353969547              -0.262084065               0.000000000               0.378307956              -0.280903388               0.000000000               0.402646365              -0.299722710               0.000000000               0.426984773              -0.318542033               0.000000000               0.451323182              -0.337361355               0.000000000               0.475661591              -0.356180678               0.000000000               0.500000000              -0.375000000               0.000000000               0.102810390              -0.084374307               0.000000000               0.127634741              -0.106444663               0.000000000               0.152459092              -0.128515018               0.000000000               0.177283442              -0.150585374               0.000000000               0.202107793              -0.172655730               0.000000000               0.226932143              -0.194726086               0.000000000               0.251756494              -0.216796442               0.000000000               0.276580845              -0.238866798               0.000000000               0.301405195              -0.260937153               0.000000000               0.326229546              -0.283007509               0.000000000               0.351053896              -0.305077865               0.000000000               0.375878247              -0.327148221               0.000000000               0.400702598              -0.349218577               0.000000000               0.425526948              -0.371288933               0.000000000               0.450351299              -0.393359288               0.000000000               0.475175649              -0.415429644               0.000000000               0.500000000              -0.437500000               0.000000000               0.094045202              -0.094045202               0.000000000               0.119417377              -0.119417377               0.000000000               0.144789552              -0.144789552               0.000000000               0.170161727              -0.170161727               0.000000000               0.195533901              -0.195533901               0.000000000               0.220906076              -0.220906076               0.000000000               0.246278251              -0.246278251               0.000000000               0.271650426              -0.271650426               0.000000000               0.297022601              -0.297022601               0.000000000               0.322394776              -0.322394776               0.000000000               0.347766951              -0.347766951               0.000000000               0.373139126              -0.373139126               0.000000000               0.398511300              -0.398511300               0.000000000               0.423883475              -0.423883475               0.000000000               0.449255650              -0.449255650               0.000000000               0.474627825              -0.474627825               0.000000000               0.500000000              -0.500000000               0.000000000               0.084374307              -0.102810390               0.000000000               0.106444663              -0.127634741               0.000000000               0.128515018              -0.152459092               0.000000000               0.150585374              -0.177283442               0.000000000               0.172655730              -0.202107793               0.000000000               0.194726086              -0.226932143               0.000000000               0.216796442              -0.251756494               0.000000000               0.238866798              -0.276580845               0.000000000               0.260937153              -0.301405195               0.000000000               0.283007509              -0.326229546               0.000000000               0.305077865              -0.351053896               0.000000000               0.327148221              -0.375878247               0.000000000               0.349218577              -0.400702598               0.000000000               0.371288933              -0.425526948               0.000000000               0.393359288              -0.450351299               0.000000000               0.415429644              -0.475175649               0.000000000               0.437500000              -0.500000000               0.000000000               0.073890841              -0.110585458               0.000000000               0.092710163              -0.134923867               0.000000000               0.111529486              -0.159262276               0.000000000               0.130348808              -0.183600685               0.000000000               0.149168131              -0.207939094               0.000000000               0.167987453              -0.232277503               0.000000000               0.186806776              -0.256615912               0.000000000               0.205626098              -0.280954320               0.000000000               0.224445420              -0.305292729               0.000000000               0.243264743              -0.329631138               0.000000000               0.262084065              -0.353969547               0.000000000               0.280903388              -0.378307956               0.000000000               0.299722710              -0.402646365               0.000000000               0.318542033              -0.426984773               0.000000000               0.337361355              -0.451323182               0.000000000               0.356180678              -0.475661591               0.000000000               0.375000000              -0.500000000               0.000000000               0.062695766              -0.117295528               0.000000000               0.078308531              -0.141214558               0.000000000               0.093921295              -0.165133587               0.000000000               0.109534060              -0.189052617               0.000000000               0.125146824              -0.212971646               0.000000000               0.140759589              -0.236890676               0.000000000               0.156372354              -0.260809705               0.000000000               0.171985118              -0.284728735               0.000000000               0.187597883              -0.308647764               0.000000000               0.203210648              -0.332566794               0.000000000               0.218823412              -0.356485823               0.000000000               0.234436177              -0.380404853               0.000000000               0.250048941              -0.404323882               0.000000000               0.265661706              -0.428242912               0.000000000               0.281274471              -0.452161941               0.000000000               0.296887235              -0.476080971               0.000000000               0.312500000              -0.500000000               0.000000000               0.050896897              -0.122875978               0.000000000               0.063340840              -0.146446229               0.000000000               0.075784784              -0.170016481               0.000000000               0.088228728              -0.193586732               0.000000000               0.100672672              -0.217156983               0.000000000               0.113116616              -0.240727235               0.000000000               0.125560560              -0.264297486               0.000000000               0.138004504              -0.287867738               0.000000000               0.150448448              -0.311437989               0.000000000               0.162892392              -0.335008240               0.000000000               0.175336336              -0.358578492               0.000000000               0.187780280              -0.382148743               0.000000000               0.200224224              -0.405718994               0.000000000               0.212668168              -0.429289246               0.000000000               0.225112112              -0.452859497               0.000000000               0.237556056              -0.476429749               0.000000000               0.250000000              -0.500000000               0.000000000               0.038607862              -0.127273065               0.000000000               0.047913621              -0.150568498               0.000000000               0.057219379              -0.173863932               0.000000000               0.066525138              -0.197159365               0.000000000               0.075830897              -0.220454798               0.000000000               0.085136655              -0.243750232               0.000000000               0.094442414              -0.267045665               0.000000000               0.103748172              -0.290341099               0.000000000               0.113053931              -0.313636532               0.000000000               0.122359690              -0.336931966               0.000000000               0.131665448              -0.360227399               0.000000000               0.140971207              -0.383522833               0.000000000               0.150276966              -0.406818266               0.000000000               0.159582724              -0.430113700               0.000000000               0.168888483              -0.453409133               0.000000000               0.178194241              -0.476704567               0.000000000               0.187500000              -0.500000000               0.000000000               0.025947013              -0.130444442               0.000000000               0.032137825              -0.153541665               0.000000000               0.038328636              -0.176638887               0.000000000               0.044519448              -0.199736109               0.000000000               0.050710260              -0.222833332               0.000000000               0.056901071              -0.245930554               0.000000000               0.063091883              -0.269027776               0.000000000               0.069282695              -0.292124999               0.000000000               0.075473506              -0.315222221               0.000000000               0.081664318              -0.338319444               0.000000000               0.087855130              -0.361416666               0.000000000               0.094045942              -0.384513888               0.000000000               0.100236753              -0.407611111               0.000000000               0.106427565              -0.430708333               0.000000000               0.112618377              -0.453805555               0.000000000               0.118809188              -0.476902778               0.000000000               0.125000000              -0.500000000               0.000000000               0.013036280              -0.132359569               0.000000000               0.016127762              -0.155337096               0.000000000               0.019219245              -0.178314623               0.000000000               0.022310727              -0.201292150               0.000000000               0.025402210              -0.224269676               0.000000000               0.028493692              -0.247247203               0.000000000               0.031585175              -0.270224730               0.000000000               0.034676657              -0.293202257               0.000000000               0.037768140              -0.316179784               0.000000000               0.040859622              -0.339157311               0.000000000               0.043951105              -0.362134838               0.000000000               0.047042587              -0.385112365               0.000000000               0.050134070              -0.408089892               0.000000000               0.053225552              -0.431067419               0.000000000               0.056317035              -0.454044946               0.000000000               0.059408517              -0.477022473               0.000000000               0.062500000              -0.500000000               0.000000000               0.000000000              -0.133000000               0.000000000               0.000000000              -0.155937500               0.000000000               0.000000000              -0.178875000               0.000000000               0.000000000              -0.201812500               0.000000000               0.000000000              -0.224750000               0.000000000               0.000000000              -0.247687500               0.000000000               0.000000000              -0.270625000               0.000000000               0.000000000              -0.293562500               0.000000000               0.000000000              -0.316500000               0.000000000               0.000000000              -0.339437500               0.000000000               0.000000000              -0.362375000               0.000000000               0.000000000              -0.385312500               0.000000000               0.000000000              -0.408250000               0.000000000               0.000000000              -0.431187500               0.000000000               0.000000000              -0.454125000               0.000000000               0.000000000              -0.477062500               0.000000000               0.000000000              -0.500000000               0.000000000              -0.133000000               0.000000000               0.000000000              -0.155937500               0.000000000               0.000000000              -0.178875000               0.000000000               0.000000000              -0.201812500               0.000000000               0.000000000              -0.224750000               0.000000000               0.000000000              -0.247687500               0.000000000               0.000000000              -0.270625000               0.000000000               0.000000000              -0.293562500               0.000000000               0.000000000              -0.316500000               0.000000000               0.000000000              -0.339437500               0.000000000               0.000000000              -0.362375000               0.000000000               0.000000000              -0.385312500               0.000000000               0.000000000              -0.408250000               0.000000000               0.000000000              -0.431187500               0.000000000               0.000000000              -0.454125000               0.000000000               0.000000000              -0.477062500               0.000000000               0.000000000              -0.500000000               0.000000000               0.000000000              -0.132359569              -0.013036280               0.000000000              -0.155337096              -0.016127762               0.000000000              -0.178314623              -0.019219245               0.000000000              -0.201292150              -0.022310727               0.000000000              -0.224269676              -0.025402210               0.000000000              -0.247247203              -0.028493692               0.000000000              -0.270224730              -0.031585175               0.000000000              -0.293202257              -0.034676657               0.000000000              -0.316179784              -0.037768140               0.000000000              -0.339157311              -0.040859622               0.000000000              -0.362134838              -0.043951105               0.000000000              -0.385112365              -0.047042587               0.000000000              -0.408089892              -0.050134070               0.000000000              -0.431067419              -0.053225552               0.000000000              -0.454044946              -0.056317035               0.000000000              -0.477022473              -0.059408517               0.000000000              -0.500000000              -0.062500000               0.000000000              -0.130444442              -0.025947013               0.000000000              -0.153541665              -0.032137825               0.000000000              -0.176638887              -0.038328636               0.000000000              -0.199736109              -0.044519448               0.000000000              -0.222833332              -0.050710260               0.000000000              -0.245930554              -0.056901071               0.000000000              -0.269027776              -0.063091883               0.000000000              -0.292124999              -0.069282695               0.000000000              -0.315222221              -0.075473506               0.000000000              -0.338319444              -0.081664318               0.000000000              -0.361416666              -0.087855130               0.000000000              -0.384513888              -0.094045942               0.000000000              -0.407611111              -0.100236753               0.000000000              -0.430708333              -0.106427565               0.000000000              -0.453805555              -0.112618377               0.000000000              -0.476902778              -0.118809188               0.000000000              -0.500000000              -0.125000000               0.000000000              -0.127273065              -0.038607862               0.000000000              -0.150568498              -0.047913621               0.000000000              -0.173863932              -0.057219379               0.000000000              -0.197159365              -0.066525138               0.000000000              -0.220454798              -0.075830897               0.000000000              -0.243750232              -0.085136655               0.000000000              -0.267045665              -0.094442414               0.000000000              -0.290341099              -0.103748172               0.000000000              -0.313636532              -0.113053931               0.000000000              -0.336931966              -0.122359690               0.000000000              -0.360227399              -0.131665448               0.000000000              -0.383522833              -0.140971207               0.000000000              -0.406818266              -0.150276966               0.000000000              -0.430113700              -0.159582724               0.000000000              -0.453409133              -0.168888483               0.000000000              -0.476704567              -0.178194241               0.000000000              -0.500000000              -0.187500000               0.000000000              -0.122875978              -0.050896897               0.000000000              -0.146446229              -0.063340840               0.000000000              -0.170016481              -0.075784784               0.000000000              -0.193586732              -0.088228728               0.000000000              -0.217156983              -0.100672672               0.000000000              -0.240727235              -0.113116616               0.000000000              -0.264297486              -0.125560560               0.000000000              -0.287867738              -0.138004504               0.000000000              -0.311437989              -0.150448448               0.000000000              -0.335008240              -0.162892392               0.000000000              -0.358578492              -0.175336336               0.000000000              -0.382148743              -0.187780280               0.000000000              -0.405718994              -0.200224224               0.000000000              -0.429289246              -0.212668168               0.000000000              -0.452859497              -0.225112112               0.000000000              -0.476429749              -0.237556056               0.000000000              -0.500000000              -0.250000000               0.000000000              -0.117295528              -0.062695766               0.000000000              -0.141214558              -0.078308531               0.000000000              -0.165133587              -0.093921295               0.000000000              -0.189052617              -0.109534060               0.000000000              -0.212971646              -0.125146824               0.000000000              -0.236890676              -0.140759589               0.000000000              -0.260809705              -0.156372354               0.000000000              -0.284728735              -0.171985118               0.000000000              -0.308647764              -0.187597883               0.000000000              -0.332566794              -0.203210648               0.000000000              -0.356485823              -0.218823412               0.000000000              -0.380404853              -0.234436177               0.000000000              -0.404323882              -0.250048941               0.000000000              -0.428242912              -0.265661706               0.000000000              -0.452161941              -0.281274471               0.000000000              -0.476080971              -0.296887235               0.000000000              -0.500000000              -0.312500000               0.000000000              -0.110585458              -0.073890841               0.000000000              -0.134923867              -0.092710163               0.000000000              -0.159262276              -0.111529486               0.000000000              -0.183600685              -0.130348808               0.000000000              -0.207939094              -0.149168131               0.000000000              -0.232277503              -0.167987453               0.000000000              -0.256615912              -0.186806776               0.000000000              -0.280954320              -0.205626098               0.000000000              -0.305292729              -0.224445420               0.000000000              -0.329631138              -0.243264743               0.000000000              -0.353969547              -0.262084065               0.000000000              -0.378307956              -0.280903388               0.000000000              -0.402646365              -0.299722710               0.000000000              -0.426984773              -0.318542033               0.000000000              -0.451323182              -0.337361355               0.000000000              -0.475661591              -0.356180678               0.000000000              -0.500000000              -0.375000000               0.000000000              -0.102810390              -0.084374307               0.000000000              -0.127634741              -0.106444663               0.000000000              -0.152459092              -0.128515018               0.000000000              -0.177283442              -0.150585374               0.000000000              -0.202107793              -0.172655730               0.000000000              -0.226932143              -0.194726086               0.000000000              -0.251756494              -0.216796442               0.000000000              -0.276580845              -0.238866798               0.000000000              -0.301405195              -0.260937153               0.000000000              -0.326229546              -0.283007509               0.000000000              -0.351053896              -0.305077865               0.000000000              -0.375878247              -0.327148221               0.000000000              -0.400702598              -0.349218577               0.000000000              -0.425526948              -0.371288933               0.000000000              -0.450351299              -0.393359288               0.000000000              -0.475175649              -0.415429644               0.000000000              -0.500000000              -0.437500000               0.000000000              -0.094045202              -0.094045202               0.000000000              -0.119417377              -0.119417377               0.000000000              -0.144789552              -0.144789552               0.000000000              -0.170161727              -0.170161727               0.000000000              -0.195533901              -0.195533901               0.000000000              -0.220906076              -0.220906076               0.000000000              -0.246278251              -0.246278251               0.000000000              -0.271650426              -0.271650426               0.000000000              -0.297022601              -0.297022601               0.000000000              -0.322394776              -0.322394776               0.000000000              -0.347766951              -0.347766951               0.000000000              -0.373139126              -0.373139126               0.000000000              -0.398511300              -0.398511300               0.000000000              -0.423883475              -0.423883475               0.000000000              -0.449255650              -0.449255650               0.000000000              -0.474627825              -0.474627825               0.000000000              -0.500000000              -0.500000000               0.000000000              -0.084374307              -0.102810390               0.000000000              -0.106444663              -0.127634741               0.000000000              -0.128515018              -0.152459092               0.000000000              -0.150585374              -0.177283442               0.000000000              -0.172655730              -0.202107793               0.000000000              -0.194726086              -0.226932143               0.000000000              -0.216796442              -0.251756494               0.000000000              -0.238866798              -0.276580845               0.000000000              -0.260937153              -0.301405195               0.000000000              -0.283007509              -0.326229546               0.000000000              -0.305077865              -0.351053896               0.000000000              -0.327148221              -0.375878247               0.000000000              -0.349218577              -0.400702598               0.000000000              -0.371288933              -0.425526948               0.000000000              -0.393359288              -0.450351299               0.000000000              -0.415429644              -0.475175649               0.000000000              -0.437500000              -0.500000000               0.000000000              -0.073890841              -0.110585458               0.000000000              -0.092710163              -0.134923867               0.000000000              -0.111529486              -0.159262276               0.000000000              -0.130348808              -0.183600685               0.000000000              -0.149168131              -0.207939094               0.000000000              -0.167987453              -0.232277503               0.000000000              -0.186806776              -0.256615912               0.000000000              -0.205626098              -0.280954320               0.000000000              -0.224445420              -0.305292729               0.000000000              -0.243264743              -0.329631138               0.000000000              -0.262084065              -0.353969547               0.000000000              -0.280903388              -0.378307956               0.000000000              -0.299722710              -0.402646365               0.000000000              -0.318542033              -0.426984773               0.000000000              -0.337361355              -0.451323182               0.000000000              -0.356180678              -0.475661591               0.000000000              -0.375000000              -0.500000000               0.000000000              -0.062695766              -0.117295528               0.000000000              -0.078308531              -0.141214558               0.000000000              -0.093921295              -0.165133587               0.000000000              -0.109534060              -0.189052617               0.000000000              -0.125146824              -0.212971646               0.000000000              -0.140759589              -0.236890676               0.000000000              -0.156372354              -0.260809705               0.000000000              -0.171985118              -0.284728735               0.000000000              -0.187597883              -0.308647764               0.000000000              -0.203210648              -0.332566794               0.000000000              -0.218823412              -0.356485823               0.000000000              -0.234436177              -0.380404853               0.000000000              -0.250048941              -0.404323882               0.000000000              -0.265661706              -0.428242912               0.000000000              -0.281274471              -0.452161941               0.000000000              -0.296887235              -0.476080971               0.000000000              -0.312500000              -0.500000000               0.000000000              -0.050896897              -0.122875978               0.000000000              -0.063340840              -0.146446229               0.000000000              -0.075784784              -0.170016481               0.000000000              -0.088228728              -0.193586732               0.000000000              -0.100672672              -0.217156983               0.000000000              -0.113116616              -0.240727235               0.000000000              -0.125560560              -0.264297486               0.000000000              -0.138004504              -0.287867738               0.000000000              -0.150448448              -0.311437989               0.000000000              -0.162892392              -0.335008240               0.000000000              -0.175336336              -0.358578492               0.000000000              -0.187780280              -0.382148743               0.000000000              -0.200224224              -0.405718994               0.000000000              -0.212668168              -0.429289246               0.000000000              -0.225112112              -0.452859497               0.000000000              -0.237556056              -0.476429749               0.000000000              -0.250000000              -0.500000000               0.000000000              -0.038607862              -0.127273065               0.000000000              -0.047913621              -0.150568498               0.000000000              -0.057219379              -0.173863932               0.000000000              -0.066525138              -0.197159365               0.000000000              -0.075830897              -0.220454798               0.000000000              -0.085136655              -0.243750232               0.000000000              -0.094442414              -0.267045665               0.000000000              -0.103748172              -0.290341099               0.000000000              -0.113053931              -0.313636532               0.000000000              -0.122359690              -0.336931966               0.000000000              -0.131665448              -0.360227399               0.000000000              -0.140971207              -0.383522833               0.000000000              -0.150276966              -0.406818266               0.000000000              -0.159582724              -0.430113700               0.000000000              -0.168888483              -0.453409133               0.000000000              -0.178194241              -0.476704567               0.000000000              -0.187500000              -0.500000000               0.000000000              -0.025947013              -0.130444442               0.000000000              -0.032137825              -0.153541665               0.000000000              -0.038328636              -0.176638887               0.000000000              -0.044519448              -0.199736109               0.000000000              -0.050710260              -0.222833332               0.000000000              -0.056901071              -0.245930554               0.000000000              -0.063091883              -0.269027776               0.000000000              -0.069282695              -0.292124999               0.000000000              -0.075473506              -0.315222221               0.000000000              -0.081664318              -0.338319444               0.000000000              -0.087855130              -0.361416666               0.000000000              -0.094045942              -0.384513888               0.000000000              -0.100236753              -0.407611111               0.000000000              -0.106427565              -0.430708333               0.000000000              -0.112618377              -0.453805555               0.000000000              -0.118809188              -0.476902778               0.000000000              -0.125000000              -0.500000000               0.000000000              -0.013036280              -0.132359569               0.000000000              -0.016127762              -0.155337096               0.000000000              -0.019219245              -0.178314623               0.000000000              -0.022310727              -0.201292150               0.000000000              -0.025402210              -0.224269676               0.000000000              -0.028493692              -0.247247203               0.000000000              -0.031585175              -0.270224730               0.000000000              -0.034676657              -0.293202257               0.000000000              -0.037768140              -0.316179784               0.000000000              -0.040859622              -0.339157311               0.000000000              -0.043951105              -0.362134838               0.000000000              -0.047042587              -0.385112365               0.000000000              -0.050134070              -0.408089892               0.000000000              -0.053225552              -0.431067419               0.000000000              -0.056317035              -0.454044946               0.000000000              -0.059408517              -0.477022473               0.000000000              -0.062500000              -0.500000000               0.000000000               0.000000000              -0.133000000               0.000000000               0.000000000              -0.155937500               0.000000000               0.000000000              -0.178875000               0.000000000               0.000000000              -0.201812500               0.000000000               0.000000000              -0.224750000               0.000000000               0.000000000              -0.247687500               0.000000000               0.000000000              -0.270625000               0.000000000               0.000000000              -0.293562500               0.000000000               0.000000000              -0.316500000               0.000000000               0.000000000              -0.339437500               0.000000000               0.000000000              -0.362375000               0.000000000               0.000000000              -0.385312500               0.000000000               0.000000000              -0.408250000               0.000000000               0.000000000              -0.431187500               0.000000000               0.000000000              -0.454125000               0.000000000               0.000000000              -0.477062500               0.000000000               0.000000000              -0.500000000               0.000000000              -0.133000000               0.000000000               0.000000000              -0.155937500               0.000000000               0.000000000              -0.178875000               0.000000000               0.000000000              -0.201812500               0.000000000               0.000000000              -0.224750000               0.000000000               0.000000000              -0.247687500               0.000000000               0.000000000              -0.270625000               0.000000000               0.000000000              -0.293562500               0.000000000               0.000000000              -0.316500000               0.000000000               0.000000000              -0.339437500               0.000000000               0.000000000              -0.362375000               0.000000000               0.000000000              -0.385312500               0.000000000               0.000000000              -0.408250000               0.000000000               0.000000000              -0.431187500               0.000000000               0.000000000              -0.454125000               0.000000000               0.000000000              -0.477062500               0.000000000               0.000000000              -0.500000000               0.000000000               0.000000000              -0.132359569               0.013036280               0.000000000              -0.155337096               0.016127762               0.000000000              -0.178314623               0.019219245               0.000000000              -0.201292150               0.022310727               0.000000000              -0.224269676               0.025402210               0.000000000              -0.247247203               0.028493692               0.000000000              -0.270224730               0.031585175               0.000000000              -0.293202257               0.034676657               0.000000000              -0.316179784               0.037768140               0.000000000              -0.339157311               0.040859622               0.000000000              -0.362134838               0.043951105               0.000000000              -0.385112365               0.047042587               0.000000000              -0.408089892               0.050134070               0.000000000              -0.431067419               0.053225552               0.000000000              -0.454044946               0.056317035               0.000000000              -0.477022473               0.059408517               0.000000000              -0.500000000               0.062500000               0.000000000              -0.130444442               0.025947013               0.000000000              -0.153541665               0.032137825               0.000000000              -0.176638887               0.038328636               0.000000000              -0.199736109               0.044519448               0.000000000              -0.222833332               0.050710260               0.000000000              -0.245930554               0.056901071               0.000000000              -0.269027776               0.063091883               0.000000000              -0.292124999               0.069282695               0.000000000              -0.315222221               0.075473506               0.000000000              -0.338319444               0.081664318               0.000000000              -0.361416666               0.087855130               0.000000000              -0.384513888               0.094045942               0.000000000              -0.407611111               0.100236753               0.000000000              -0.430708333               0.106427565               0.000000000              -0.453805555               0.112618377               0.000000000              -0.476902778               0.118809188               0.000000000              -0.500000000               0.125000000               0.000000000              -0.127273065               0.038607862               0.000000000              -0.150568498               0.047913621               0.000000000              -0.173863932               0.057219379               0.000000000              -0.197159365               0.066525138               0.000000000              -0.220454798               0.075830897               0.000000000              -0.243750232               0.085136655               0.000000000              -0.267045665               0.094442414               0.000000000              -0.290341099               0.103748172               0.000000000              -0.313636532               0.113053931               0.000000000              -0.336931966               0.122359690               0.000000000              -0.360227399               0.131665448               0.000000000              -0.383522833               0.140971207               0.000000000              -0.406818266               0.150276966               0.000000000              -0.430113700               0.159582724               0.000000000              -0.453409133               0.168888483               0.000000000              -0.476704567               0.178194241               0.000000000              -0.500000000               0.187500000               0.000000000              -0.122875978               0.050896897               0.000000000              -0.146446229               0.063340840               0.000000000              -0.170016481               0.075784784               0.000000000              -0.193586732               0.088228728               0.000000000              -0.217156983               0.100672672               0.000000000              -0.240727235               0.113116616               0.000000000              -0.264297486               0.125560560               0.000000000              -0.287867738               0.138004504               0.000000000              -0.311437989               0.150448448               0.000000000              -0.335008240               0.162892392               0.000000000              -0.358578492               0.175336336               0.000000000              -0.382148743               0.187780280               0.000000000              -0.405718994               0.200224224               0.000000000              -0.429289246               0.212668168               0.000000000              -0.452859497               0.225112112               0.000000000              -0.476429749               0.237556056               0.000000000              -0.500000000               0.250000000               0.000000000              -0.117295528               0.062695766               0.000000000              -0.141214558               0.078308531               0.000000000              -0.165133587               0.093921295               0.000000000              -0.189052617               0.109534060               0.000000000              -0.212971646               0.125146824               0.000000000              -0.236890676               0.140759589               0.000000000              -0.260809705               0.156372354               0.000000000              -0.284728735               0.171985118               0.000000000              -0.308647764               0.187597883               0.000000000              -0.332566794               0.203210648               0.000000000              -0.356485823               0.218823412               0.000000000              -0.380404853               0.234436177               0.000000000              -0.404323882               0.250048941               0.000000000              -0.428242912               0.265661706               0.000000000              -0.452161941               0.281274471               0.000000000              -0.476080971               0.296887235               0.000000000              -0.500000000               0.312500000               0.000000000              -0.110585458               0.073890841               0.000000000              -0.134923867               0.092710163               0.000000000              -0.159262276               0.111529486               0.000000000              -0.183600685               0.130348808               0.000000000              -0.207939094               0.149168131               0.000000000              -0.232277503               0.167987453               0.000000000              -0.256615912               0.186806776               0.000000000              -0.280954320               0.205626098               0.000000000              -0.305292729               0.224445420               0.000000000              -0.329631138               0.243264743               0.000000000              -0.353969547               0.262084065               0.000000000              -0.378307956               0.280903388               0.000000000              -0.402646365               0.299722710               0.000000000              -0.426984773               0.318542033               0.000000000              -0.451323182               0.337361355               0.000000000              -0.475661591               0.356180678               0.000000000              -0.500000000               0.375000000               0.000000000              -0.102810390               0.084374307               0.000000000              -0.127634741               0.106444663               0.000000000              -0.152459092               0.128515018               0.000000000              -0.177283442               0.150585374               0.000000000              -0.202107793               0.172655730               0.000000000              -0.226932143               0.194726086               0.000000000              -0.251756494               0.216796442               0.000000000              -0.276580845               0.238866798               0.000000000              -0.301405195               0.260937153               0.000000000              -0.326229546               0.283007509               0.000000000              -0.351053896               0.305077865               0.000000000              -0.375878247               0.327148221               0.000000000              -0.400702598               0.349218577               0.000000000              -0.425526948               0.371288933               0.000000000              -0.450351299               0.393359288               0.000000000              -0.475175649               0.415429644               0.000000000              -0.500000000               0.437500000               0.000000000              -0.094045202               0.094045202               0.000000000              -0.119417377               0.119417377               0.000000000              -0.144789552               0.144789552               0.000000000              -0.170161727               0.170161727               0.000000000              -0.195533901               0.195533901               0.000000000              -0.220906076               0.220906076               0.000000000              -0.246278251               0.246278251               0.000000000              -0.271650426               0.271650426               0.000000000              -0.297022601               0.297022601               0.000000000              -0.322394776               0.322394776               0.000000000              -0.347766951               0.347766951               0.000000000              -0.373139126               0.373139126               0.000000000              -0.398511300               0.398511300               0.000000000              -0.423883475               0.423883475               0.000000000              -0.449255650               0.449255650               0.000000000              -0.474627825               0.474627825               0.000000000              -0.500000000               0.500000000               0.000000000              -0.084374307               0.102810390               0.000000000              -0.106444663               0.127634741               0.000000000              -0.128515018               0.152459092               0.000000000              -0.150585374               0.177283442               0.000000000              -0.172655730               0.202107793               0.000000000              -0.194726086               0.226932143               0.000000000              -0.216796442               0.251756494               0.000000000              -0.238866798               0.276580845               0.000000000              -0.260937153               0.301405195               0.000000000              -0.283007509               0.326229546               0.000000000              -0.305077865               0.351053896               0.000000000              -0.327148221               0.375878247               0.000000000              -0.349218577               0.400702598               0.000000000              -0.371288933               0.425526948               0.000000000              -0.393359288               0.450351299               0.000000000              -0.415429644               0.475175649               0.000000000              -0.437500000               0.500000000               0.000000000              -0.073890841               0.110585458               0.000000000              -0.092710163               0.134923867               0.000000000              -0.111529486               0.159262276               0.000000000              -0.130348808               0.183600685               0.000000000              -0.149168131               0.207939094               0.000000000              -0.167987453               0.232277503               0.000000000              -0.186806776               0.256615912               0.000000000              -0.205626098               0.280954320               0.000000000              -0.224445420               0.305292729               0.000000000              -0.243264743               0.329631138               0.000000000              -0.262084065               0.353969547               0.000000000              -0.280903388               0.378307956               0.000000000              -0.299722710               0.402646365               0.000000000              -0.318542033               0.426984773               0.000000000              -0.337361355               0.451323182               0.000000000              -0.356180678               0.475661591               0.000000000              -0.375000000               0.500000000               0.000000000              -0.062695766               0.117295528               0.000000000              -0.078308531               0.141214558               0.000000000              -0.093921295               0.165133587               0.000000000              -0.109534060               0.189052617               0.000000000              -0.125146824               0.212971646               0.000000000              -0.140759589               0.236890676               0.000000000              -0.156372354               0.260809705               0.000000000              -0.171985118               0.284728735               0.000000000              -0.187597883               0.308647764               0.000000000              -0.203210648               0.332566794               0.000000000              -0.218823412               0.356485823               0.000000000              -0.234436177               0.380404853               0.000000000              -0.250048941               0.404323882               0.000000000              -0.265661706               0.428242912               0.000000000              -0.281274471               0.452161941               0.000000000              -0.296887235               0.476080971               0.000000000              -0.312500000               0.500000000               0.000000000              -0.050896897               0.122875978               0.000000000              -0.063340840               0.146446229               0.000000000              -0.075784784               0.170016481               0.000000000              -0.088228728               0.193586732               0.000000000              -0.100672672               0.217156983               0.000000000              -0.113116616               0.240727235               0.000000000              -0.125560560               0.264297486               0.000000000              -0.138004504               0.287867738               0.000000000              -0.150448448               0.311437989               0.000000000              -0.162892392               0.335008240               0.000000000              -0.175336336               0.358578492               0.000000000              -0.187780280               0.382148743               0.000000000              -0.200224224               0.405718994               0.000000000              -0.212668168               0.429289246               0.000000000              -0.225112112               0.452859497               0.000000000              -0.237556056               0.476429749               0.000000000              -0.250000000               0.500000000               0.000000000              -0.038607862               0.127273065               0.000000000              -0.047913621               0.150568498               0.000000000              -0.057219379               0.173863932               0.000000000              -0.066525138               0.197159365               0.000000000              -0.075830897               0.220454798               0.000000000              -0.085136655               0.243750232               0.000000000              -0.094442414               0.267045665               0.000000000              -0.103748172               0.290341099               0.000000000              -0.113053931               0.313636532               0.000000000              -0.122359690               0.336931966               0.000000000              -0.131665448               0.360227399               0.000000000              -0.140971207               0.383522833               0.000000000              -0.150276966               0.406818266               0.000000000              -0.159582724               0.430113700               0.000000000              -0.168888483               0.453409133               0.000000000              -0.178194241               0.476704567               0.000000000              -0.187500000               0.500000000               0.000000000              -0.025947013               0.130444442               0.000000000              -0.032137825               0.153541665               0.000000000              -0.038328636               0.176638887               0.000000000              -0.044519448               0.199736109               0.000000000              -0.050710260               0.222833332               0.000000000              -0.056901071               0.245930554               0.000000000              -0.063091883               0.269027776               0.000000000              -0.069282695               0.292124999               0.000000000              -0.075473506               0.315222221               0.000000000              -0.081664318               0.338319444               0.000000000              -0.087855130               0.361416666               0.000000000              -0.094045942               0.384513888               0.000000000              -0.100236753               0.407611111               0.000000000              -0.106427565               0.430708333               0.000000000              -0.112618377               0.453805555               0.000000000              -0.118809188               0.476902778               0.000000000              -0.125000000               0.500000000               0.000000000              -0.013036280               0.132359569               0.000000000              -0.016127762               0.155337096               0.000000000              -0.019219245               0.178314623               0.000000000              -0.022310727               0.201292150               0.000000000              -0.025402210               0.224269676               0.000000000              -0.028493692               0.247247203               0.000000000              -0.031585175               0.270224730               0.000000000              -0.034676657               0.293202257               0.000000000              -0.037768140               0.316179784               0.000000000              -0.040859622               0.339157311               0.000000000              -0.043951105               0.362134838               0.000000000              -0.047042587               0.385112365               0.000000000              -0.050134070               0.408089892               0.000000000              -0.053225552               0.431067419               0.000000000              -0.056317035               0.454044946               0.000000000              -0.059408517               0.477022473               0.000000000              -0.062500000               0.500000000               0.000000000               0.000000000               0.133000000               0.000000000               0.000000000               0.155937500               0.000000000               0.000000000               0.178875000               0.000000000               0.000000000               0.201812500               0.000000000               0.000000000               0.224750000               0.000000000               0.000000000               0.247687500               0.000000000               0.000000000               0.270625000               0.000000000               0.000000000               0.293562500               0.000000000               0.000000000               0.316500000               0.000000000               0.000000000               0.339437500               0.000000000               0.000000000               0.362375000               0.000000000               0.000000000               0.385312500               0.000000000               0.000000000               0.408250000               0.000000000               0.000000000               0.431187500               0.000000000               0.000000000               0.454125000               0.000000000               0.000000000               0.477062500               0.000000000               0.000000000               0.500000000               0.000000000 </DataArray>
</Points>
<Cells>
<DataArray type="Int32"                                    Name="connectivity"                                                      NumberOfComponents=" 1" format="ascii">
         0          1         18         17          1          2         19         18          2          3         20         19          3          4         21         20          4          5         22         21          5          6         23         22          6          7         24         23          7          8         25         24          8          9         26         25          9         10         27         26         10         11         28         27         11         12         29         28         12         13         30         29         13         14         31         30         14         15         32         31         15         16         33         32         17         18         35         34         18         19         36         35         19         20         37         36         20         21         38         37         21         22         39         38         22         23         40         39         23         24         41         40         24         25         42         41         25         26         43         42         26         27         44         43         27         28         45         44         28         29         46         45         29         30         47         46         30         31         48         47         31         32         49         48         32         33         50         49         34         35         52         51         35         36         53         52         36         37         54         53         37         38         55         54         38         39         56         55         39         40         57         56         40         41         58         57         41         42         59         58         42         43         60         59         43         44         61         60         44         45         62         61         45         46         63         62         46         47         64         63         47         48         65         64         48         49         66         65         49         50         67         66         51         52         69         68         52         53         70         69         53         54         71         70         54         55         72         71         55         56         73         72         56         57         74         73         57         58         75         74         58         59         76         75         59         60         77         76         60         61         78         77         61         62         79         78         62         63         80         79         63         64         81         80         64         65         82         81         65         66         83         82         66         67         84         83         68         69         86         85         69         70         87         86         70         71         88         87         71         72         89         88         72         73         90         89         73         74         91         90         74         75         92         91         75         76         93         92         76         77         94         93         77         78         95         94         78         79         96         95         79         80         97         96         80         81         98         97         81         82         99         98         82         83        100         99         83         84        101        100         85         86        103        102         86         87        104        103         87         88        105        104         88         89        106        105         89         90        107        106         90         91        108        107         91         92        109        108         92         93        110        109         93         94        111        110         94         95        112        111         95         96        113        112         96         97        114        113         97         98        115        114         98         99        116        115         99        100        117        116        100        101        118        117        102        103        120        119        103        104        121        120        104        105        122        121        105        106        123        122        106        107        124        123        107        108        125        124        108        109        126        125        109        110        127        126        110        111        128        127        111        112        129        128        112        113        130        129        113        114        131        130        114        115        132        131        115        116        133        132        116        117        134        133        117        118        135        134        119        120        137        136        120        121        138        137        121        122        139        138        122        123        140        139        123        124        141        140        124        125        142        141        125        126        143        142        126        127        144        143        127        128        145        144        128        129        146        145        129        130        147        146        130        131        148        147        131        132        149        148        132        133        150        149        133        134        151        150        134        135        152        151        136        137        154        153        137        138        155        154        138        139        156        155        139        140        157        156        140        141        158        157        141        142        159        158        142        143        160        159        143        144        161        160        144        145        162        161        145        146        163        162        146        147        164        163        147        148        165        164        148        149        166        165        149        150        167        166        150        151        168        167        151        152        169        168        153        154        171        170        154        155        172        171        155        156        173        172        156        157        174        173        157        158        175        174        158        159        176        175        159        160        177        176        160        161        178        177        161        162        179        178        162        163        180        179        163        164        181        180        164        165        182        181        165        166        183        182        166        167        184        183        167        168        185        184        168        169        186        185        170        171        188        187        171        172        189        188        172        173        190        189        173        174        191        190        174        175        192        191        175        176        193        192        176        177        194        193        177        178        195        194        178        179        196        195        179        180        197        196        180        181        198        197        181        182        199        198        182        183        200        199        183        184        201        200        184        185        202        201        185        186        203        202        187        188        205        204        188        189        206        205        189        190        207        206        190        191        208        207        191        192        209        208        192        193        210        209        193        194        211        210        194        195        212        211        195        196        213        212        196        197        214        213        197        198        215        214        198        199        216        215        199        200        217        216        200        201        218        217        201        202        219        218        202        203        220        219        204        205        222        221        205        206        223        222        206        207        224        223        207        208        225        224        208        209        226        225        209        210        227        226        210        211        228        227        211        212        229        228        212        213        230        229        213        214        231        230        214        215        232        231        215        216        233        232        216        217        234        233        217        218        235        234        218        219        236        235        219        220        237        236        221        222        239        238        222        223        240        239        223        224        241        240        224        225        242        241        225        226        243        242        226        227        244        243        227        228        245        244        228        229        246        245        229        230        247        246        230        231        248        247        231        232        249        248        232        233        250        249        233        234        251        250        234        235        252        251        235        236        253        252        236        237        254        253        238        239        256        255        239        240        257        256        240        241        258        257        241        242        259        258        242        243        260        259        243        244        261        260        244        245        262        261        245        246        263        262        246        247        264        263        247        248        265        264        248        249        266        265        249        250        267        266        250        251        268        267        251        252        269        268        252        253        270        269        253        254        271        270        255        256        273        272        256        257        274        273        257        258        275        274        258        259        276        275        259        260        277        276        260        261        278        277        261        262        279        278        262        263        280        279        263        264        281        280        264        265        282        281        265        266        283        282        266        267        284        283        267        268        285        284        268        269        286        285        269        270        287        286        270        271        288        287        306        307          1          0        307        308          2          1        308        309          3          2        309        310          4          3        310        311          5          4        311        312          6          5        312        313          7          6        313        314          8          7        314        315          9          8        315        316         10          9        316        317         11         10        317        318         12         11        318        319         13         12        319        320         14         13        320        321         15         14        321        322         16         15        323        324        307        306        324        325        308        307        325        326        309        308        326        327        310        309        327        328        311        310        328        329        312        311        329        330        313        312        330        331        314        313        331        332        315        314        332        333        316        315        333        334        317        316        334        335        318        317        335        336        319        318        336        337        320        319        337        338        321        320        338        339        322        321        340        341        324        323        341        342        325        324        342        343        326        325        343        344        327        326        344        345        328        327        345        346        329        328        346        347        330        329        347        348        331        330        348        349        332        331        349        350        333        332        350        351        334        333        351        352        335        334        352        353        336        335        353        354        337        336        354        355        338        337        355        356        339        338        357        358        341        340        358        359        342        341        359        360        343        342        360        361        344        343        361        362        345        344        362        363        346        345        363        364        347        346        364        365        348        347        365        366        349        348        366        367        350        349        367        368        351        350        368        369        352        351        369        370        353        352        370        371        354        353        371        372        355        354        372        373        356        355        374        375        358        357        375        376        359        358        376        377        360        359        377        378        361        360        378        379        362        361        379        380        363        362        380        381        364        363        381        382        365        364        382        383        366        365        383        384        367        366        384        385        368        367        385        386        369        368        386        387        370        369        387        388        371        370        388        389        372        371        389        390        373        372        391        392        375        374        392        393        376        375        393        394        377        376        394        395        378        377        395        396        379        378        396        397        380        379        397        398        381        380        398        399        382        381        399        400        383        382        400        401        384        383        401        402        385        384        402        403        386        385        403        404        387        386        404        405        388        387        405        406        389        388        406        407        390        389        408        409        392        391        409        410        393        392        410        411        394        393        411        412        395        394        412        413        396        395        413        414        397        396        414        415        398        397        415        416        399        398        416        417        400        399        417        418        401        400        418        419        402        401        419        420        403        402        420        421        404        403        421        422        405        404        422        423        406        405        423        424        407        406        425        426        409        408        426        427        410        409        427        428        411        410        428        429        412        411        429        430        413        412        430        431        414        413        431        432        415        414        432        433        416        415        433        434        417        416        434        435        418        417        435        436        419        418        436        437        420        419        437        438        421        420        438        439        422        421        439        440        423        422        440        441        424        423        442        443        426        425        443        444        427        426        444        445        428        427        445        446        429        428        446        447        430        429        447        448        431        430        448        449        432        431        449        450        433        432        450        451        434        433        451        452        435        434        452        453        436        435        453        454        437        436        454        455        438        437        455        456        439        438        456        457        440        439        457        458        441        440        459        460        443        442        460        461        444        443        461        462        445        444        462        463        446        445        463        464        447        446        464        465        448        447        465        466        449        448        466        467        450        449        467        468        451        450        468        469        452        451        469        470        453        452        470        471        454        453        471        472        455        454        472        473        456        455        473        474        457        456        474        475        458        457        476        477        460        459        477        478        461        460        478        479        462        461        479        480        463        462        480        481        464        463        481        482        465        464        482        483        466        465        483        484        467        466        484        485        468        467        485        486        469        468        486        487        470        469        487        488        471        470        488        489        472        471        489        490        473        472        490        491        474        473        491        492        475        474        493        494        477        476        494        495        478        477        495        496        479        478        496        497        480        479        497        498        481        480        498        499        482        481        499        500        483        482        500        501        484        483        501        502        485        484        502        503        486        485        503        504        487        486        504        505        488        487        505        506        489        488        506        507        490        489        507        508        491        490        508        509        492        491        510        511        494        493        511        512        495        494        512        513        496        495        513        514        497        496        514        515        498        497        515        516        499        498        516        517        500        499        517        518        501        500        518        519        502        501        519        520        503        502        520        521        504        503        521        522        505        504        522        523        506        505        523        524        507        506        524        525        508        507        525        526        509        508        527        528        511        510        528        529        512        511        529        530        513        512        530        531        514        513        531        532        515        514        532        533        516        515        533        534        517        516        534        535        518        517        535        536        519        518        536        537        520        519        537        538        521        520        538        539        522        521        539        540        523        522        540        541        524        523        541        542        525        524        542        543        526        525        544        545        528        527        545        546        529        528        546        547        530        529        547        548        531        530        548        549        532        531        549        550        533        532        550        551        534        533        551        552        535        534        552        553        536        535        553        554        537        536        554        555        538        537        555        556        539        538        556        557        540        539        557        558        541        540        558        559        542        541        559        560        543        542        561        562        545        544        562        563        546        545        563        564        547        546        564        565        548        547        565        566        549        548        566        567        550        549        567        568        551        550        568        569        552        551        569        570        553        552        570        571        554        553        571        572        555        554        572        573        556        555        573        574        557        556        574        575        558        557        575        576        559        558        576        577        560        559        578        579        596        595        579        580        597        596        580        581        598        597        581        582        599        598        582        583        600        599        583        584        601        600        584        585        602        601        585        586        603        602        586        587        604        603        587        588        605        604        588        589        606        605        589        590        607        606        590        591        608        607        591        592        609        608        592        593        610        609        593        594        611        610        595        596        613        612        596        597        614        613        597        598        615        614        598        599        616        615        599        600        617        616        600        601        618        617        601        602        619        618        602        603        620        619        603        604        621        620        604        605        622        621        605        606        623        622        606        607        624        623        607        608        625        624        608        609        626        625        609        610        627        626        610        611        628        627        612        613        630        629        613        614        631        630        614        615        632        631        615        616        633        632        616        617        634        633        617        618        635        634        618        619        636        635        619        620        637        636        620        621        638        637        621        622        639        638        622        623        640        639        623        624        641        640        624        625        642        641        625        626        643        642        626        627        644        643        627        628        645        644        629        630        647        646        630        631        648        647        631        632        649        648        632        633        650        649        633        634        651        650        634        635        652        651        635        636        653        652        636        637        654        653        637        638        655        654        638        639        656        655        639        640        657        656        640        641        658        657        641        642        659        658        642        643        660        659        643        644        661        660        644        645        662        661        646        647        664        663        647        648        665        664        648        649        666        665        649        650        667        666        650        651        668        667        651        652        669        668        652        653        670        669        653        654        671        670        654        655        672        671        655        656        673        672        656        657        674        673        657        658        675        674        658        659        676        675        659        660        677        676        660        661        678        677        661        662        679        678        663        664        681        680        664        665        682        681        665        666        683        682        666        667        684        683        667        668        685        684        668        669        686        685        669        670        687        686        670        671        688        687        671        672        689        688        672        673        690        689        673        674        691        690        674        675        692        691        675        676        693        692        676        677        694        693        677        678        695        694        678        679        696        695        680        681        698        697        681        682        699        698        682        683        700        699        683        684        701        700        684        685        702        701        685        686        703        702        686        687        704        703        687        688        705        704        688        689        706        705        689        690        707        706        690        691        708        707        691        692        709        708        692        693        710        709        693        694        711        710        694        695        712        711        695        696        713        712        697        698        715        714        698        699        716        715        699        700        717        716        700        701        718        717        701        702        719        718        702        703        720        719        703        704        721        720        704        705        722        721        705        706        723        722        706        707        724        723        707        708        725        724        708        709        726        725        709        710        727        726        710        711        728        727        711        712        729        728        712        713        730        729        714        715        732        731        715        716        733        732        716        717        734        733        717        718        735        734        718        719        736        735        719        720        737        736        720        721        738        737        721        722        739        738        722        723        740        739        723        724        741        740        724        725        742        741        725        726        743        742        726        727        744        743        727        728        745        744        728        729        746        745        729        730        747        746        731        732        749        748        732        733        750        749        733        734        751        750        734        735        752        751        735        736        753        752        736        737        754        753        737        738        755        754        738        739        756        755        739        740        757        756        740        741        758        757        741        742        759        758        742        743        760        759        743        744        761        760        744        745        762        761        745        746        763        762        746        747        764        763        748        749        766        765        749        750        767        766        750        751        768        767        751        752        769        768        752        753        770        769        753        754        771        770        754        755        772        771        755        756        773        772        756        757        774        773        757        758        775        774        758        759        776        775        759        760        777        776        760        761        778        777        761        762        779        778        762        763        780        779        763        764        781        780        765        766        783        782        766        767        784        783        767        768        785        784        768        769        786        785        769        770        787        786        770        771        788        787        771        772        789        788        772        773        790        789        773        774        791        790        774        775        792        791        775        776        793        792        776        777        794        793        777        778        795        794        778        779        796        795        779        780        797        796        780        781        798        797        782        783        800        799        783        784        801        800        784        785        802        801        785        786        803        802        786        787        804        803        787        788        805        804        788        789        806        805        789        790        807        806        790        791        808        807        791        792        809        808        792        793        810        809        793        794        811        810        794        795        812        811        795        796        813        812        796        797        814        813        797        798        815        814        799        800        817        816        800        801        818        817        801        802        819        818        802        803        820        819        803        804        821        820        804        805        822        821        805        806        823        822        806        807        824        823        807        808        825        824        808        809        826        825        809        810        827        826        810        811        828        827        811        812        829        828        812        813        830        829        813        814        831        830        814        815        832        831        816        817        834        833        817        818        835        834        818        819        836        835        819        820        837        836        820        821        838        837        821        822        839        838        822        823        840        839        823        824        841        840        824        825        842        841        825        826        843        842        826        827        844        843        827        828        845        844        828        829        846        845        829        830        847        846        830        831        848        847        831        832        849        848        833        834        562        561        834        835        563        562        835        836        564        563        836        837        565        564        837        838        566        565        838        839        567        566        839        840        568        567        840        841        569        568        841        842        570        569        842        843        571        570        843        844        572        571        844        845        573        572        845        846        574        573        846        847        575        574        847        848        576        575        848        849        577        576        884        885        579        578        885        886        580        579        886        887        581        580        887        888        582        581        888        889        583        582        889        890        584        583        890        891        585        584        891        892        586        585        892        893        587        586        893        894        588        587        894        895        589        588        895        896        590        589        896        897        591        590        897        898        592        591        898        899        593        592        899        900        594        593        901        902        885        884        902        903        886        885        903        904        887        886        904        905        888        887        905        906        889        888        906        907        890        889        907        908        891        890        908        909        892        891        909        910        893        892        910        911        894        893        911        912        895        894        912        913        896        895        913        914        897        896        914        915        898        897        915        916        899        898        916        917        900        899        918        919        902        901        919        920        903        902        920        921        904        903        921        922        905        904        922        923        906        905        923        924        907        906        924        925        908        907        925        926        909        908        926        927        910        909        927        928        911        910        928        929        912        911        929        930        913        912        930        931        914        913        931        932        915        914        932        933        916        915        933        934        917        916        935        936        919        918        936        937        920        919        937        938        921        920        938        939        922        921        939        940        923        922        940        941        924        923        941        942        925        924        942        943        926        925        943        944        927        926        944        945        928        927        945        946        929        928        946        947        930        929        947        948        931        930        948        949        932        931        949        950        933        932        950        951        934        933        952        953        936        935        953        954        937        936        954        955        938        937        955        956        939        938        956        957        940        939        957        958        941        940        958        959        942        941        959        960        943        942        960        961        944        943        961        962        945        944        962        963        946        945        963        964        947        946        964        965        948        947        965        966        949        948        966        967        950        949        967        968        951        950        969        970        953        952        970        971        954        953        971        972        955        954        972        973        956        955        973        974        957        956        974        975        958        957        975        976        959        958        976        977        960        959        977        978        961        960        978        979        962        961        979        980        963        962        980        981        964        963        981        982        965        964        982        983        966        965        983        984        967        966        984        985        968        967        986        987        970        969        987        988        971        970        988        989        972        971        989        990        973        972        990        991        974        973        991        992        975        974        992        993        976        975        993        994        977        976        994        995        978        977        995        996        979        978        996        997        980        979        997        998        981        980        998        999        982        981        999       1000        983        982       1000       1001        984        983       1001       1002        985        984       1003       1004        987        986       1004       1005        988        987       1005       1006        989        988       1006       1007        990        989       1007       1008        991        990       1008       1009        992        991       1009       1010        993        992       1010       1011        994        993       1011       1012        995        994       1012       1013        996        995       1013       1014        997        996       1014       1015        998        997       1015       1016        999        998       1016       1017       1000        999       1017       1018       1001       1000       1018       1019       1002       1001       1020       1021       1004       1003       1021       1022       1005       1004       1022       1023       1006       1005       1023       1024       1007       1006       1024       1025       1008       1007       1025       1026       1009       1008       1026       1027       1010       1009       1027       1028       1011       1010       1028       1029       1012       1011       1029       1030       1013       1012       1030       1031       1014       1013       1031       1032       1015       1014       1032       1033       1016       1015       1033       1034       1017       1016       1034       1035       1018       1017       1035       1036       1019       1018       1037       1038       1021       1020       1038       1039       1022       1021       1039       1040       1023       1022       1040       1041       1024       1023       1041       1042       1025       1024       1042       1043       1026       1025       1043       1044       1027       1026       1044       1045       1028       1027       1045       1046       1029       1028       1046       1047       1030       1029       1047       1048       1031       1030       1048       1049       1032       1031       1049       1050       1033       1032       1050       1051       1034       1033       1051       1052       1035       1034       1052       1053       1036       1035       1054       1055       1038       1037       1055       1056       1039       1038       1056       1057       1040       1039       1057       1058       1041       1040       1058       1059       1042       1041       1059       1060       1043       1042       1060       1061       1044       1043       1061       1062       1045       1044       1062       1063       1046       1045       1063       1064       1047       1046       1064       1065       1048       1047       1065       1066       1049       1048       1066       1067       1050       1049       1067       1068       1051       1050       1068       1069       1052       1051       1069       1070       1053       1052       1071       1072       1055       1054       1072       1073       1056       1055       1073       1074       1057       1056       1074       1075       1058       1057       1075       1076       1059       1058       1076       1077       1060       1059       1077       1078       1061       1060       1078       1079       1062       1061       1079       1080       1063       1062       1080       1081       1064       1063       1081       1082       1065       1064       1082       1083       1066       1065       1083       1084       1067       1066       1084       1085       1068       1067       1085       1086       1069       1068       1086       1087       1070       1069       1088       1089       1072       1071       1089       1090       1073       1072       1090       1091       1074       1073       1091       1092       1075       1074       1092       1093       1076       1075       1093       1094       1077       1076       1094       1095       1078       1077       1095       1096       1079       1078       1096       1097       1080       1079       1097       1098       1081       1080       1098       1099       1082       1081       1099       1100       1083       1082       1100       1101       1084       1083       1101       1102       1085       1084       1102       1103       1086       1085       1103       1104       1087       1086       1105       1106       1089       1088       1106       1107       1090       1089       1107       1108       1091       1090       1108       1109       1092       1091       1109       1110       1093       1092       1110       1111       1094       1093       1111       1112       1095       1094       1112       1113       1096       1095       1113       1114       1097       1096       1114       1115       1098       1097       1115       1116       1099       1098       1116       1117       1100       1099       1117       1118       1101       1100       1118       1119       1102       1101       1119       1120       1103       1102       1120       1121       1104       1103       1122       1123       1106       1105       1123       1124       1107       1106       1124       1125       1108       1107       1125       1126       1109       1108       1126       1127       1110       1109       1127       1128       1111       1110       1128       1129       1112       1111       1129       1130       1113       1112       1130       1131       1114       1113       1131       1132       1115       1114       1132       1133       1116       1115       1133       1134       1117       1116       1134       1135       1118       1117       1135       1136       1119       1118       1136       1137       1120       1119       1137       1138       1121       1120        272        273       1123       1122        273        274       1124       1123        274        275       1125       1124        275        276       1126       1125        276        277       1127       1126        277        278       1128       1127        278        279       1129       1128        279        280       1130       1129        280        281       1131       1130        281        282       1132       1131        282        283       1133       1132        283        284       1134       1133        284        285       1135       1134        285        286       1136       1135        286        287       1137       1136        287        288       1138       1137 </DataArray>
<DataArray type="Int32"                                    Name="offsets"                                                      NumberOfComponents=" 1" format="ascii">
         4          8         12         16         20         24         28         32         36         40         44         48         52         56         60         64         68         72         76         80         84         88         92         96        100        104        108        112        116        120        124        128        132        136        140        144        148        152        156        160        164        168        172        176        180        184        188        192        196        200        204        208        212        216        220        224        228        232        236        240        244        248        252        256        260        264        268        272        276        280        284        288        292        296        300        304        308        312        316        320        324        328        332        336        340        344        348        352        356        360        364        368        372        376        380        384        388        392        396        400        404        408        412        416        420        424        428        432        436        440        444        448        452        456        460        464        468        472        476        480        484        488        492        496        500        504        508        512        516        520        524        528        532        536        540        544        548        552        556        560        564        568        572        576        580        584        588        592        596        600        604        608        612        616        620        624        628        632        636        640        644        648        652        656        660        664        668        672        676        680        684        688        692        696        700        704        708        712        716        720        724        728        732        736        740        744        748        752        756        760        764        768        772        776        780        784        788        792        796        800        804        808        812        816        820        824        828        832        836        840        844        848        852        856        860        864        868        872        876        880        884        888        892        896        900        904        908        912        916        920        924        928        932        936        940        944        948        952        956        960        964        968        972        976        980        984        988        992        996       1000       1004       1008       1012       1016       1020       1024       1028       1032       1036       1040       1044       1048       1052       1056       1060       1064       1068       1072       1076       1080       1084       1088       1092       1096       1100       1104       1108       1112       1116       1120       1124       1128       1132       1136       1140       1144       1148       1152       1156       1160       1164       1168       1172       1176       1180       1184       1188       1192       1196       1200       1204       1208       1212       1216       1220       1224       1228       1232       1236       1240       1244       1248       1252       1256       1260       1264       1268       1272       1276       1280       1284       1288       1292       1296       1300       1304       1308       1312       1316       1320       1324       1328       1332       1336       1340       1344       1348       1352       1356       1360       1364       1368       1372       1376       1380       1384       1388       1392       1396       1400       1404       1408       1412       1416       1420       1424       1428       1432       1436       1440       1444       1448       1452       1456       1460       1464       1468       1472       1476       1480       1484       1488       1492       1496       1500       1504       1508       1512       1516       1520       1524       1528       1532       1536       1540       1544       1548       1552       1556       1560       1564       1568       1572       1576       1580       1584       1588       1592       1596       1600       1604       1608       1612       1616       1620       1624       1628       1632       1636       1640       1644       1648       1652       1656       1660       1664       1668       1672       1676       1680       1684       1688       1692       1696       1700       1704       1708       1712       1716       1720       1724       1728       1732       1736       1740       1744       1748       1752       1756       1760       1764       1768       1772       1776       1780       1784       1788       1792       1796       1800       1804       1808       1812       1816       1820       1824       1828       1832       1836       1840       1844       1848       1852       1856       1860       1864       1868       1872       1876       1880       1884       1888       1892       1896       1900       1904       1908       1912       1916       1920       1924       1928       1932       1936       1940       1944       1948       1952       1956       1960       1964       1968       1972       1976       1980       1984       1988       1992       1996       2000       2004       2008       2012       2016       2020       2024       2028       2032       2036       2040       2044       2048       2052       2056       2060       2064       2068       2072       2076       2080       2084       2088       2092       2096       2100       2104       2108       2112       2116       2120       2124       2128       2132       2136       2140       2144       2148       2152       2156       2160       2164       2168       2172       2176       2180       2184       2188       2192       2196       2200       2204       2208       2212       2216       2220       2224       2228       2232       2236       2240       2244       2248       2252       2256       2260       2264       2268       2272       2276       2280       2284       2288       2292       2296       2300       2304       2308       2312       2316       2320       2324       2328       2332       2336       2340       2344       2348       2352       2356       2360       2364       2368       2372       2376       2380       2384       2388       2392       2396       2400       2404       2408       2412       2416       2420       2424       2428       2432       2436       2440       2444       2448       2452       2456       2460       2464       2468       2472       2476       2480       2484       2488       2492       2496       2500       2504       2508       2512       2516       2520       2524       2528       2532       2536       2540       2544       2548       2552       2556       2560       2564       2568       2572       2576       2580       2584       2588       2592       2596       2600       2604       2608       2612       2616       2620       2624       2628       2632       2636       2640       2644       2648       2652       2656       2660       2664       2668       2672       2676       2680       2684       2688       2692       2696       2700       2704       2708       2712       2716       2720       2724       2728       2732       2736       2740       2744       2748       2752       2756       2760       2764       2768       2772       2776       2780       2784       2788       2792       2796       2800       2804       2808       2812       2816       2820       2824       2828       2832       2836       2840       2844       2848       2852       2856       2860       2864       2868       2872       2876       2880       2884       2888       2892       2896       2900       2904       2908       2912       2916       2920       2924       2928       2932       2936       2940       2944       2948       2952       2956       2960       2964       2968       2972       2976       2980       2984       2988       2992       2996       3000       3004       3008       3012       3016       3020       3024       3028       3032       3036       3040       3044       3048       3052       3056       3060       3064       3068       3072       3076       3080       3084       3088       3092       3096       3100       3104       3108       3112       3116       3120       3124       3128       3132       3136       3140       3144       3148       3152       3156       3160       3164       3168       3172       3176       3180       3184       3188       3192       3196       3200       3204       3208       3212       3216       3220       3224       3228       3232       3236       3240       3244       3248       3252       3256       3260       3264       3268       3272       3276       3280       3284       3288       3292       3296       3300       3304       3308       3312       3316       3320       3324       3328       3332       3336       3340       3344       3348       3352       3356       3360       3364       3368       3372       3376       3380       3384       3388       3392       3396       3400       3404       3408       3412       3416       3420       3424       3428       3432       3436       3440       3444       3448       3452       3456       3460       3464       3468       3472       3476       3480       3484       3488       3492       3496       3500       3504       3508       3512       3516       3520       3524       3528       3532       3536       3540       3544       3548       3552       3556       3560       3564       3568       3572       3576       3580       3584       3588       3592       3596       3600       3604       3608       3612       3616       3620       3624       3628       3632       3636       3640       3644       3648       3652       3656       3660       3664       3668       3672       3676       3680       3684       3688       3692       3696       3700       3704       3708       3712       3716       3720       3724       3728       3732       3736       3740       3744       3748       3752       3756       3760       3764       3768       3772       3776       3780       3784       3788       3792       3796       3800       3804       3808       3812       3816       3820       3824       3828       3832       3836       3840       3844       3848       3852       3856       3860       3864       3868       3872       3876       3880       3884       3888       3892       3896       3900       3904       3908       3912       3916       3920       3924       3928       3932       3936       3940       3944       3948       3952       3956       3960       3964       3968       3972       3976       3980       3984       3988       3992       3996       4000       4004       4008       4012       4016       4020       4024       4028       4032       4036       4040       4044       4048       4052       4056       4060       4064       4068       4072       4076       4080       4084       4088       4092       4096 </DataArray>
<DataArray type="UInt8"                                    Name="types"                                                      NumberOfComponents=" 1" format="ascii">
         9          9          9          9          9          9          9          9          9          9          9          9          9          9          9          9          9          9          9          9          9          9          9          9          9          9          9          9          9          9          9          9          9          9          9          9          9          9          9          9          9          9          9          9          9          9          9          9          9          9          9          9          9          9          9          9          9          9          9          9          9          9          9          9          9          9          9          9          9          9          9          9          9          9          9          9          9          9          9          9          9          9          9          9          9          9          9          9          9          9          9          9          9          9          9          9          9          9          9          9          9          9          9          9          9          9          9          9          9          9          9          9          9          9          9          9          9          9          9          9          9          9          9          9          9          9          9          9          9          9          9          9          9          9          9          9          9          9          9          9          9          9          9          9          9          9          9          9          9          9          9          9          9          9          9          9          9          9          9          9          9          9          9          9          9          9          9          9          9          9          9          9          9          9          9          9          9          9          9          9          9          9          9          9          9          9          9          9          9          9          9          9          9          9          9          9          9          9          9          9          9          9          9          9          9          9          9          9          9          9          9          9          9          9          9          9          9          9          9          9          9          9          9          9          9          9          9          9          9          9          9          9          9          9          9          9          9          9          9          9          9          9          9          9          9          9          9          9          9          9          9          9          9          9          9          9          9          9          9          9          9          9          9          9          9          9          9          9          9          9          9          9          9          9          9          9          9          9          9          9          9          9          9          9          9          9          9          9          9          9          9          9          9          9          9          9          9          9          9          9          9          9          9          9          9          9          9          9          9          9          9          9          9          9          9          9          9          9          9          9          9          9          9          9          9          9          9          9          9          9          9          9          9          9          9          9          9          9          9          9          9          9          9          9          9          9          9          9          9          9          9          9          9          9          9          9          9          9          9          9          9          9          9          9          9          9          9          9          9          9          9          9          9          9          9          9          9          9          9          9          9          9          9          9          9          9          9          9          9          9          9          9          9          9          9          9          9          9          9          9          9          9          9          9          9          9          9          9          9          9          9          9          9          9          9          9          9          9          9          9          9          9          9          9          9          9          9          9          9          9          9          9          9          9          9          9          9          9          9          9          9          9          9          9          9          9          9          9          9          9          9          9          9          9          9          9          9          9          9          9          9          9          9          9          9          9          9          9          9          9          9          9          9          9          9          9          9          9          9          9          9          9          9          9          9          9          9          9          9          9          9          9          9          9          9          9          9          9          9          9          9          9          9          9          9          9          9          9          9          9          9          9          9          9          9          9          9          9          9          9          9          9          9          9          9          9          9          9          9          9          9          9          9          9          9          9          9          9          9          9          9          9          9          9          9          9          9          9          9          9          9          9          9          9          9          9          9          9          9          9          9          9          9          9          9          9          9          9          9          9          9          9          9          9          9          9          9          9          9          9          9          9          9          9          9          9          9          9          9          9          9          9          9          9          9          9          9          9          9          9          9          9          9          9          9          9          9          9          9          9          9          9          9          9          9          9          9          9          9          9          9          9          9          9          9          9          9          9          9          9          9          9          9          9          9          9          9          9          9          9          9          9          9          9          9          9          9          9          9          9          9          9          9          9          9          9          9          9          9          9          9          9          9          9          9          9          9          9          9          9          9          9          9          9          9          9          9          9          9          9          9          9          9          9          9          9          9          9          9          9          9          9          9          9          9          9          9          9          9          9          9          9          9          9          9          9          9          9          9          9          9          9          9          9          9          9          9          9          9          9          9          9          9          9          9          9          9          9          9          9          9          9          9          9          9          9          9          9          9          9          9          9          9          9          9          9          9          9          9          9          9          9          9          9          9          9          9          9          9          9          9          9          9          9          9          9          9          9          9          9          9          9          9          9          9          9          9          9          9          9          9          9          9          9          9          9          9          9          9          9          9          9          9          9          9          9          9          9          9          9          9          9          9          9          9          9          9          9          9          9          9          9          9          9          9          9          9          9          9          9          9          9          9          9          9          9          9          9          9          9          9          9          9          9          9          9          9          9          9          9          9          9          9          9          9          9          9          9          9          9          9          9          9          9          9          9          9          9          9          9          9          9          9          9          9          9          9          9          9          9          9          9          9          9          9          9          9          9          9          9          9          9          9          9          9          9          9          9          9          9          9          9          9          9          9          9          9          9          9          9          9          9          9          9          9          9          9          9          9          9          9          9          9          9          9          9          9          9          9          9          9          9          9          9          9          9          9          9          9          9          9          9          9          9          9          9          9          9          9          9          9          9          9          9          9          9          9          9          9          9          9          9          9          9          9          9          9          9          9          9          9          9          9          9          9          9          9          9          9          9          9          9          9          9          9          9          9          9          9          9          9          9          9          9          9          9          9          9          9          9          9          9          9          9          9          9          9          9          9          9          9          9          9          9          9          9          9          9          9          9          9          9          9          9          9          9          9          9          9          9          9          9          9          9 </DataArray>
</Cells>
<CellData>
<DataArray type="Int32"                                    Name="material"                                                      NumberOfComponents=" 1" format="ascii">
         1          1          1          1          1          1          1          1          1          1          1          1          1          1          1          1          1          1          1          1          1          1          1          1          1          1          1          1          1          1          1          1          1          1          1          1          1          1          1          1          1          1          1          1          1          1          1          1          1          1          1          1          1          1          1          1          1          1          1          1          1          1          1          1          1          1          1          1          1          1          1          1          1          1          1          1          1          1          1          1          1          1          1          1          1          1          1          1          1          1          1          1          1          1          1          1          1          1          1          1          1          1          1          1          1          1          1          1          1          1          1          1          1          1          1          1          1          1          1          1          1          1          1          1          1          1          1          1          1          1          1          1          1          1          1          1          1          1          1          1          1          1          1          1          1          1          1          1          1          1          1          1          1          1          1          1          1          1          1          1          1          1          1          1          1          1          1          1          1          1          1          1          1          1          1          1          1          1          1          1          1          1          1          1          1          1          1          1          1          1          1          1          1          1          1          1          1          1          1          1          1          1          1          1          1          1          1          1          1          1          1          1          1          1          1          1          1          1          1          1          1          1          1          1          1          1          1          1          1          1          1          1          1          1          1          1          1          1          1          1          1          1          1          1          1          1          1          1          1          1          1          1          1          1          1          1          1          1          1          1          1          1          1          1          1          1          1          1          1          1          1          1          1          1          1          1          1          1          1          1          1          1          1          1          1          1          1          1          1          1          1          1          1          1          1          1          1          1          1          1          1          1          1          1          1          1          1          1          1          1          1          1          1          1          1          1          1          1          1          1          1          1          1          1          1          1          1          1          1          1          1          1          1          1          1          1          1          1          1          1          1          1          1          1          1          1          1          1          1          1          1          1          1          1          1          1          1          1          1          1          1          1          1          1          1          1          1          1          1          1          1          1          1          1          1          1          1          1          1          1          1          1          1          1          1          1          1          1          1          1          1          1          1          1          1          1          1          1          1          1          1          1          1          1          1          1          1          1          1          1          1          1          1          1          1          1          1          1          1          1          1          1          1          1          1          1          1          1          1          1          1          1          1          1          1          1          1          1          1          1          1          1          1          1          1          1          1          1          1          1          1          1          1          1          1          1          1          1          1          1          1          1          1          1          1          1          1          1          1          1          1          1          1          1          1          1          1          1          1          1          1          1          1          1          1          1          1          1          1          1          1          1          1          1          1          1          1          1          1          1          1          1          1          1          1          1          1          1          1          1          1          1          1          1          1          1          1          1          1          1          1          1          1          1          1          1          1          1          1          1          1          1          1          1          1          1          1          1          1          1          1          1          1          1          1          1          1          1          1          1          1          1          1          1          1          1          1          1          1          1          1          1          1          1          1          1          1          1          1          1          1          1          1          1          1          1          1          1          1          1          1          1          1          1          1          1          1          1          1          1          1          1          1          1          1          1          1          1          1          1          1          1          1          1          1          1          1          1          1          1          1          1          1          1          1          1          1          1          1          1          1          1          1          1          1          1          1          1          1          1          1          1          1          1          1          1          1          1          1          1          1          1          1          1          1          1          1          1          1          1          1          1          1          1          1          1          1          1          1          1          1          1          1          1          1          1          1          1          1          1          1          1          1          1          1          1          1          1          1          1          1          1          1          1          1          1          1          1          1          1          1          1          1          1          1          1          1          1          1          1          1          1          1          1          1          1          1          1          1          1          1          1          1          1          1          1          1          1          1          1          1          1          1          1          1          1          1          1          1          1          1          1          1          1          1          1          1          1          1          1          1          1          1          1          1          1          1          1          1          1          1          1          1          1          1          1          1          1          1          1          1          1          1          1          1          1          1          1          1          1          1          1          1          1          1          1          1          1          1          1          1          1          1          1          1          1          1          1          1          1          1          1          1          1          1          1          1          1          1          1          1          1          1          1          1          1          1          1          1          1          1          1          1          1          1          1          1          1          1          1          1          1          1          1          1          1          1          1          1          1          1          1          1          1          1          1          1          1          1          1          1          1          1          1          1          1          1          1          1          1          1          1          1          1          1          1          1          1          1          1          1          1          1          1          1          1          1          1          1          1          1          1          1          1          1          1          1          1          1          1          1          1          1          1          1          1          1          1          1          1          1          1          1          1          1          1          1          1          1          1          1          1          1          1          1          1          1          1          1          1          1          1          1          1          1          1          1          1          1          1          1          1          1          1          1          1          1          1          1          1          1          1          1          1          1          1          1          1          1          1          1          1          1          1          1          1          1          1          1          1          1          1          1          1          1          1          1          1          1          1          1          1          1          1          1          1          1          1          1          1          1          1          1          1          1          1          1          1          1          1          1          1          1          1          1          1          1          1          1          1          1          1          1          1          1          1          1          1          1          1          1          1          1          1          1          1          1          1          1          1          1          1          1          1          1          1          1          1          1          1          1          1          1          1 </DataArray>
</CellData>
<PointData>
<DataArray type="Float64"                                    Name="u"                                                      NumberOfComponents=" 3" format="ascii">
              0.000008629               0.000000000               0.999999999               0.000000518              -0.000000000               0.999999999              -0.000003289              -0.000000000               0.999999999              -0.000005282               0.000000000               0.999999999              -0.000006597              -0.000000000               0.999999999              -0.000007817               0.000000000               0.999999999              -0.000009252              -0.000000000               0.999999999              -0.000011009              -0.000000000               0.999999999              -0.000013234              -0.000000000               0.999999999              -0.000015929              -0.000000000               0.999999999              -0.000019094              -0.000000000               0.999999999              -0.000022842              -0.000000000               0.999999999              -0.000027191              -0.000000000               0.999999999              -0.000032041              -0.000000000               0.999999999              -0.000037338              -0.000000000               0.999999999              -0.000043078              -0.000000000               0.999999999              -0.000049199              -0.000000000               0.999999999               0.000008538               0.000020163               0.999999999               0.000000698               0.000018185               0.999999999              -0.000002973               0.000017710               0.999999999              -0.000004939               0.000018135               0.999999999              -0.000006289               0.000019171               0.999999999              -0.000007586               0.000020647               0.999999999              -0.000009123               0.000022511               0.999999999              -0.000011036               0.000024570               0.999999999              -0.000013403               0.000026895               0.999999999              -0.000016279               0.000029367               0.999999999              -0.000019663               0.000032066               0.999999999              -0.000023582               0.000034921               0.999999999              -0.000028023               0.000038099               0.999999999              -0.000032994               0.000041379               0.999999999              -0.000038486               0.000044775               0.999999999              -0.000044388               0.000048176               0.999999999              -0.000050660               0.000051689               0.999999999               0.000008258               0.000040118               0.999999999               0.000001224               0.000036157               0.999999999              -0.000002054               0.000035270               0.999999999              -0.000003929               0.000036207               0.999999999              -0.000005411               0.000038350               0.999999999              -0.000007001               0.000041368               0.999999999              -0.000008894               0.000045012               0.999999999              -0.000011225               0.000049247               0.999999999              -0.000014075               0.000053859               0.999999999              -0.000017423               0.000058843               0.999999999              -0.000021303               0.000064188               0.999999999              -0.000025747               0.000069976               0.999999999              -0.000030771               0.000076171               0.999999999              -0.000036343               0.000082676               0.999999999              -0.000042291               0.000089347               0.999999999              -0.000048592               0.000096103               0.999999999              -0.000055277               0.000103072               0.999999999               0.000007864               0.000059710               0.999999999               0.000002112               0.000053731               0.999999999              -0.000000604               0.000052596               0.999999999              -0.000002421               0.000054210               0.999999999              -0.000004180               0.000057588               0.999999999              -0.000006286               0.000062180               0.999999999              -0.000008832               0.000067766               0.999999999              -0.000011894               0.000074039               0.999999999              -0.000015465               0.000080945               0.999999999              -0.000019569               0.000088385               0.999999999              -0.000024218               0.000096419               0.999999999              -0.000029475               0.000105064               0.999999999              -0.000035317               0.000114340               0.999999999              -0.000041603               0.000123825               0.999999999              -0.000048250               0.000133447               0.999999999              -0.000055189               0.000143219               0.999999999              -0.000062422               0.000153412               0.999999999               0.000007384               0.000078782               0.999999999               0.000003340               0.000070777               0.999999999               0.000001261               0.000069623               0.999999999              -0.000000659               0.000072110               0.999999999              -0.000002932               0.000076794               0.999999999              -0.000005773               0.000083086               0.999999999              -0.000009190               0.000090503               0.999999999              -0.000013146               0.000098894               0.999999999              -0.000017689               0.000108057               0.999999999              -0.000022755               0.000117977               0.999999999              -0.000028422               0.000128686               0.999999999              -0.000034721               0.000140243               0.999999999              -0.000041449               0.000152337               0.999999999              -0.000048558               0.000164580               0.999999999              -0.000055922               0.000176887               0.999999999              -0.000063518               0.000189581               0.999999999              -0.000071442               0.000202821               0.999999999               0.000006835               0.000097126               0.999999999               0.000004892               0.000087244               0.999999999               0.000003305               0.000086259               0.999999999               0.000001076               0.000089748               0.999999999              -0.000001903               0.000095879               0.999999999              -0.000005654               0.000103904               0.999999999              -0.000010083               0.000113297               0.999999999              -0.000015143               0.000123831               0.999999999              -0.000020714               0.000135253               0.999999999              -0.000026851               0.000147701               0.999999999              -0.000033588               0.000161093               0.999999999              -0.000040825               0.000175401               0.999999999              -0.000048407               0.000190131               0.999999999              -0.000056218               0.000205077               0.999999999              -0.000064295               0.000220089               0.999999999              -0.000072683               0.000235639               0.999999999              -0.000081358               0.000251765               0.999999999               0.000006254               0.000114521               0.999999999               0.000006617               0.000103044               0.999999999               0.000005320               0.000102438               0.999999999               0.000002565               0.000107054               0.999999999              -0.000001318               0.000114766               0.999999999              -0.000006066               0.000124586               0.999999999              -0.000011602               0.000135969               0.999999999              -0.000017661               0.000148621               0.999999999              -0.000024271               0.000162413               0.999999999              -0.000031506               0.000177421               0.999999999              -0.000039227               0.000193597               0.999999999              -0.000047318               0.000210551               0.999999999              -0.000055641               0.000227903               0.999999999              -0.000064175               0.000245557               0.999999999              -0.000073070               0.000263522               0.999999999              -0.000082339               0.000282155               0.999999999              -0.000091962               0.000301326               0.999999999               0.000005703               0.000130791               0.999999999               0.000008342               0.000118106               0.999999999               0.000007089               0.000118061               0.999999999               0.000003605               0.000123909               0.999999999              -0.000001227               0.000133234               0.999999999              -0.000007000               0.000144877               0.999999999              -0.000013487               0.000158381               0.999999999              -0.000020507               0.000173291               0.999999999              -0.000028140               0.000189644               0.999999999              -0.000036348               0.000207378               0.999999999              -0.000044971               0.000226360               0.999999999              -0.000053847               0.000245975               0.999999999              -0.000062974               0.000266014               0.999999999              -0.000072430               0.000286511               0.999999999              -0.000082221               0.000307689               0.999999999              -0.000092363               0.000329702               0.999999999              -0.000102944               0.000352269               0.999999999               0.000005062               0.000145608               0.999999999               0.000009971               0.000132442               0.999999999               0.000008435               0.000133011               0.999999999               0.000004147               0.000140110               0.999999999              -0.000001634               0.000151058               0.999999999              -0.000008345               0.000164674               0.999999999              -0.000015625               0.000180362               0.999999999              -0.000023514               0.000197808               0.999999999              -0.000032067               0.000216961               0.999999999              -0.000041122               0.000237662               0.999999999              -0.000050548               0.000259390               0.999999999              -0.000060212               0.000281822               0.999999999              -0.000070070               0.000304917               0.999999999              -0.000080143               0.000329026               0.999999999              -0.000090583               0.000354268               0.999999999              -0.000101466               0.000380585               0.999999999              -0.000112650               0.000407643               0.999999999               0.000004137               0.000159419               0.999999999               0.000010847               0.000147271               0.999999999               0.000010233               0.000146433               0.999999999               0.000006613               0.000151917               0.999999999               0.000001466               0.000161217               0.999999999              -0.000004540               0.000173211               0.999999999              -0.000011027               0.000187238               0.999999999              -0.000017877               0.000202991               0.999999999              -0.000025222               0.000220335               0.999999999              -0.000033112               0.000239103               0.999999999              -0.000041455               0.000259068               0.999999999              -0.000049958               0.000279938               0.999999999              -0.000058508               0.000301528               0.999999999              -0.000067072               0.000323976               0.999999999              -0.000075815               0.000347554               0.999999999              -0.000084999               0.000372430               0.999999999              -0.000094556               0.000398469               0.999999999               0.000003329               0.000171905               0.999999999               0.000011019               0.000161407               0.999999999               0.000011389               0.000159903               0.999999999               0.000008517               0.000164019               0.999999999               0.000004157               0.000171898               0.999999999              -0.000001124               0.000182381               0.999999999              -0.000006809               0.000194906               0.999999999              -0.000012749               0.000209072               0.999999999              -0.000018929               0.000224696               0.999999999              -0.000025630               0.000241728               0.999999999              -0.000032766               0.000259946               0.999999999              -0.000040012               0.000279242               0.999999999              -0.000047354               0.000299392               0.999999999              -0.000054621               0.000320338               0.999999999              -0.000061898               0.000342251               0.999999999              -0.000069486               0.000365358               0.999999999              -0.000077468               0.000389802               0.999999999               0.000002591               0.000182841               0.999999999               0.000010485               0.000174452               0.999999999               0.000011643               0.000172870               0.999999999               0.000009651               0.000176098               0.999999999               0.000006056               0.000182762               0.999999999               0.000001614               0.000191975               0.999999999              -0.000003242               0.000203149               0.999999999              -0.000008241               0.000215896               0.999999999              -0.000013427               0.000230014               0.999999999              -0.000018963               0.000245429               0.999999999              -0.000024752               0.000262088               0.999999999              -0.000030657               0.000279847               0.999999999              -0.000036737               0.000298596               0.999999999              -0.000042946               0.000318141               0.999999999              -0.000049036               0.000338497               0.999999999              -0.000054899               0.000360088               0.999999999              -0.000060929               0.000383037               0.999999999               0.000001931               0.000192055               0.999999999               0.000009311               0.000186011               0.999999999               0.000010923               0.000184814               0.999999999               0.000009739               0.000187545               0.999999999               0.000006989               0.000193358               0.999999999               0.000003418               0.000201564               0.999999999              -0.000000540               0.000211670               0.999999999              -0.000004552               0.000223225               0.999999999              -0.000008716               0.000236133               0.999999999              -0.000013093               0.000250249               0.999999999              -0.000017633               0.000265567               0.999999999              -0.000022189               0.000281979               0.999999999              -0.000027103               0.000299395               0.999999999              -0.000032219               0.000317775               0.999999999              -0.000036970               0.000337003               0.999999999              -0.000041242               0.000357278               0.999999999              -0.000045274               0.000378863               0.999999999               0.000001346               0.000199366               0.999999999               0.000007543               0.000195603               0.999999999               0.000009252               0.000195092               0.999999999               0.000008674               0.000197689               0.999999999               0.000006779               0.000202976               0.999999999               0.000004107               0.000210517               0.999999999               0.000001137               0.000219801               0.999999999              -0.000001909               0.000230508               0.999999999              -0.000005008               0.000242490               0.999999999              -0.000008201               0.000255611               0.999999999              -0.000011554               0.000269892               0.999999999              -0.000015096               0.000285171               0.999999999              -0.000018725               0.000301482               0.999999999              -0.000022444               0.000318948               0.999999999              -0.000025918               0.000337479               0.999999999              -0.000028790               0.000356997               0.999999999              -0.000031013               0.000377688               0.999999999               0.000000848               0.000204666               0.999999999               0.000005294               0.000202825               0.999999999               0.000006716               0.000203007               0.999999999               0.000006526               0.000205728               0.999999999               0.000005374               0.000210774               0.999999999               0.000003618               0.000217870               0.999999999               0.000001662               0.000226646               0.999999999              -0.000000394               0.000236769               0.999999999              -0.000002444               0.000248084               0.999999999              -0.000004591               0.000260531               0.999999999              -0.000006825               0.000274041               0.999999999              -0.000009235               0.000288642               0.999999999              -0.000011598               0.000304396               0.999999999              -0.000013841               0.000321291               0.999999999              -0.000016034               0.000339390               0.999999999              -0.000017795               0.000358557               0.999999999              -0.000018680               0.000378754               0.999999999               0.000000412               0.000207864               0.999999999               0.000002721               0.000207305               0.999999999               0.000003524               0.000208039               0.999999999               0.000003514               0.000210905               0.999999999               0.000002963               0.000215880               0.999999999               0.000002125               0.000222745               0.999999999               0.000001116               0.000231238               0.999999999               0.000000128               0.000241058               0.999999999              -0.000000938               0.000251991               0.999999999              -0.000002028               0.000264017               0.999999999              -0.000003170               0.000277112               0.999999999              -0.000004215               0.000291414               0.999999999              -0.000005442               0.000306905               0.999999999              -0.000006634               0.000323571               0.999999999              -0.000007508               0.000341549               0.999999999              -0.000008337               0.000360654               0.999999999              -0.000008681               0.000380682               0.999999999              -0.000000000               0.000208937               0.999999999              -0.000000000               0.000208813               0.999999999               0.000000000               0.000209761               0.999999999              -0.000000000               0.000212698               0.999999999               0.000000000               0.000217650               0.999999999               0.000000000               0.000224456               0.999999999               0.000000000               0.000232856               0.999999999              -0.000000000               0.000242541               0.999999999               0.000000000               0.000253410               0.999999999               0.000000000               0.000265372               0.999999999               0.000000000               0.000278361               0.999999999               0.000000000               0.000292470               0.999999999              -0.000000000               0.000307799               0.999999999              -0.000000000               0.000324515               0.999999999               0.000000000               0.000342454               0.999999999              -0.000000000               0.000361570               0.999999999              -0.000000000               0.000381687               0.999999999               0.000008629               0.000000000               0.999999999               0.000000518              -0.000000000               0.999999999              -0.000003289              -0.000000000               0.999999999              -0.000005282               0.000000000               0.999999999              -0.000006597              -0.000000000               0.999999999              -0.000007817               0.000000000               0.999999999              -0.000009252              -0.000000000               0.999999999              -0.000011009              -0.000000000               0.999999999              -0.000013234              -0.000000000               0.999999999              -0.000015929              -0.000000000               0.999999999              -0.000019094              -0.000000000               0.999999999              -0.000022842              -0.000000000               0.999999999              -0.000027191              -0.000000000               0.999999999              -0.000032041              -0.000000000               0.999999999              -0.000037338              -0.000000000               0.999999999              -0.000043078              -0.000000000               0.999999999              -0.000049199              -0.000000000               0.999999999               0.000008538              -0.000020163               0.999999999               0.000000698              -0.000018185               0.999999999              -0.000002973              -0.000017710               0.999999999              -0.000004939              -0.000018135               0.999999999              -0.000006289              -0.000019171               0.999999999              -0.000007586              -0.000020647               0.999999999              -0.000009123              -0.000022511               0.999999999              -0.000011036              -0.000024570               0.999999999              -0.000013403              -0.000026895               0.999999999              -0.000016279              -0.000029367               0.999999999              -0.000019663              -0.000032066               0.999999999              -0.000023582              -0.000034921               0.999999999              -0.000028023              -0.000038099               0.999999999              -0.000032994              -0.000041379               0.999999999              -0.000038486              -0.000044775               0.999999999              -0.000044388              -0.000048176               0.999999999              -0.000050660              -0.000051689               0.999999999               0.000008258              -0.000040118               0.999999999               0.000001224              -0.000036157               0.999999999              -0.000002054              -0.000035270               0.999999999              -0.000003929              -0.000036207               0.999999999              -0.000005411              -0.000038350               0.999999999              -0.000007001              -0.000041368               0.999999999              -0.000008894              -0.000045012               0.999999999              -0.000011225              -0.000049247               0.999999999              -0.000014075              -0.000053859               0.999999999              -0.000017423              -0.000058843               0.999999999              -0.000021303              -0.000064188               0.999999999              -0.000025747              -0.000069976               0.999999999              -0.000030771              -0.000076171               0.999999999              -0.000036343              -0.000082676               0.999999999              -0.000042291              -0.000089347               0.999999999              -0.000048592              -0.000096103               0.999999999              -0.000055277              -0.000103072               0.999999999               0.000007864              -0.000059710               0.999999999               0.000002112              -0.000053731               0.999999999              -0.000000604              -0.000052596               0.999999999              -0.000002421              -0.000054210               0.999999999              -0.000004180              -0.000057588               0.999999999              -0.000006286              -0.000062180               0.999999999              -0.000008832              -0.000067766               0.999999999              -0.000011894              -0.000074039               0.999999999              -0.000015465              -0.000080945               0.999999999              -0.000019569              -0.000088385               0.999999999              -0.000024218              -0.000096419               0.999999999              -0.000029475              -0.000105064               0.999999999              -0.000035317              -0.000114340               0.999999999              -0.000041603              -0.000123825               0.999999999              -0.000048250              -0.000133447               0.999999999              -0.000055189              -0.000143219               0.999999999              -0.000062422              -0.000153412               0.999999999               0.000007384              -0.000078782               0.999999999               0.000003340              -0.000070777               0.999999999               0.000001261              -0.000069623               0.999999999              -0.000000659              -0.000072110               0.999999999              -0.000002932              -0.000076794               0.999999999              -0.000005773              -0.000083086               0.999999999              -0.000009190              -0.000090503               0.999999999              -0.000013146              -0.000098894               0.999999999              -0.000017689              -0.000108057               0.999999999              -0.000022755              -0.000117977               0.999999999              -0.000028422              -0.000128686               0.999999999              -0.000034721              -0.000140243               0.999999999              -0.000041449              -0.000152337               0.999999999              -0.000048558              -0.000164580               0.999999999              -0.000055922              -0.000176887               0.999999999              -0.000063518              -0.000189581               0.999999999              -0.000071442              -0.000202821               0.999999999               0.000006835              -0.000097126               0.999999999               0.000004892              -0.000087244               0.999999999               0.000003305              -0.000086259               0.999999999               0.000001076              -0.000089748               0.999999999              -0.000001903              -0.000095879               0.999999999              -0.000005654              -0.000103904               0.999999999              -0.000010083              -0.000113297               0.999999999              -0.000015143              -0.000123831               0.999999999              -0.000020714              -0.000135253               0.999999999              -0.000026851              -0.000147701               0.999999999              -0.000033588              -0.000161093               0.999999999              -0.000040825              -0.000175401               0.999999999              -0.000048407              -0.000190131               0.999999999              -0.000056218              -0.000205077               0.999999999              -0.000064295              -0.000220089               0.999999999              -0.000072683              -0.000235639               0.999999999              -0.000081358              -0.000251765               0.999999999               0.000006254              -0.000114521               0.999999999               0.000006617              -0.000103044               0.999999999               0.000005320              -0.000102438               0.999999999               0.000002565              -0.000107054               0.999999999              -0.000001318              -0.000114766               0.999999999              -0.000006066              -0.000124586               0.999999999              -0.000011602              -0.000135969               0.999999999              -0.000017661              -0.000148621               0.999999999              -0.000024271              -0.000162413               0.999999999              -0.000031506              -0.000177421               0.999999999              -0.000039227              -0.000193597               0.999999999              -0.000047318              -0.000210551               0.999999999              -0.000055641              -0.000227903               0.999999999              -0.000064175              -0.000245557               0.999999999              -0.000073070              -0.000263522               0.999999999              -0.000082339              -0.000282155               0.999999999              -0.000091962              -0.000301326               0.999999999               0.000005703              -0.000130791               0.999999999               0.000008342              -0.000118106               0.999999999               0.000007089              -0.000118061               0.999999999               0.000003605              -0.000123909               0.999999999              -0.000001227              -0.000133234               0.999999999              -0.000007000              -0.000144877               0.999999999              -0.000013487              -0.000158381               0.999999999              -0.000020507              -0.000173291               0.999999999              -0.000028140              -0.000189644               0.999999999              -0.000036348              -0.000207378               0.999999999              -0.000044971              -0.000226360               0.999999999              -0.000053847              -0.000245975               0.999999999              -0.000062974              -0.000266014               0.999999999              -0.000072430              -0.000286511               0.999999999              -0.000082221              -0.000307689               0.999999999              -0.000092363              -0.000329702               0.999999999              -0.000102944              -0.000352269               0.999999999               0.000005062              -0.000145608               0.999999999               0.000009971              -0.000132442               0.999999999               0.000008435              -0.000133011               0.999999999               0.000004147              -0.000140110               0.999999999              -0.000001634              -0.000151058               0.999999999              -0.000008345              -0.000164674               0.999999999              -0.000015625              -0.000180362               0.999999999              -0.000023514              -0.000197808               0.999999999              -0.000032067              -0.000216961               0.999999999              -0.000041122              -0.000237662               0.999999999              -0.000050548              -0.000259390               0.999999999              -0.000060212              -0.000281822               0.999999999              -0.000070070              -0.000304917               0.999999999              -0.000080143              -0.000329026               0.999999999              -0.000090583              -0.000354268               0.999999999              -0.000101466              -0.000380585               0.999999999              -0.000112650              -0.000407643               0.999999999               0.000004137              -0.000159419               0.999999999               0.000010847              -0.000147271               0.999999999               0.000010233              -0.000146433               0.999999999               0.000006613              -0.000151917               0.999999999               0.000001466              -0.000161217               0.999999999              -0.000004540              -0.000173211               0.999999999              -0.000011027              -0.000187238               0.999999999              -0.000017877              -0.000202991               0.999999999              -0.000025222              -0.000220335               0.999999999              -0.000033112              -0.000239103               0.999999999              -0.000041455              -0.000259068               0.999999999              -0.000049958              -0.000279938               0.999999999              -0.000058508              -0.000301528               0.999999999              -0.000067072              -0.000323976               0.999999999              -0.000075815              -0.000347554               0.999999999              -0.000084999              -0.000372430               0.999999999              -0.000094556              -0.000398469               0.999999999               0.000003329              -0.000171905               0.999999999               0.000011019              -0.000161407               0.999999999               0.000011389              -0.000159903               0.999999999               0.000008517              -0.000164019               0.999999999               0.000004157              -0.000171898               0.999999999              -0.000001124              -0.000182381               0.999999999              -0.000006809              -0.000194906               0.999999999              -0.000012749              -0.000209072               0.999999999              -0.000018929              -0.000224696               0.999999999              -0.000025630              -0.000241728               0.999999999              -0.000032766              -0.000259946               0.999999999              -0.000040012              -0.000279242               0.999999999              -0.000047354              -0.000299392               0.999999999              -0.000054621              -0.000320338               0.999999999              -0.000061898              -0.000342251               0.999999999              -0.000069486              -0.000365358               0.999999999              -0.000077468              -0.000389802               0.999999999               0.000002591              -0.000182841               0.999999999               0.000010485              -0.000174452               0.999999999               0.000011643              -0.000172870               0.999999999               0.000009651              -0.000176098               0.999999999               0.000006056              -0.000182762               0.999999999               0.000001614              -0.000191975               0.999999999              -0.000003242              -0.000203149               0.999999999              -0.000008241              -0.000215896               0.999999999              -0.000013427              -0.000230014               0.999999999              -0.000018963              -0.000245429               0.999999999              -0.000024752              -0.000262088               0.999999999              -0.000030657              -0.000279847               0.999999999              -0.000036737              -0.000298596               0.999999999              -0.000042946              -0.000318141               0.999999999              -0.000049036              -0.000338497               0.999999999              -0.000054899              -0.000360088               0.999999999              -0.000060929              -0.000383037               0.999999999               0.000001931              -0.000192055               0.999999999               0.000009311              -0.000186011               0.999999999               0.000010923              -0.000184814               0.999999999               0.000009739              -0.000187545               0.999999999               0.000006989              -0.000193358               0.999999999               0.000003418              -0.000201564               0.999999999              -0.000000540              -0.000211670               0.999999999              -0.000004552              -0.000223225               0.999999999              -0.000008716              -0.000236133               0.999999999              -0.000013093              -0.000250249               0.999999999              -0.000017633              -0.000265567               0.999999999              -0.000022189              -0.000281979               0.999999999              -0.000027103              -0.000299395               0.999999999              -0.000032219              -0.000317775               0.999999999              -0.000036970              -0.000337003               0.999999999              -0.000041242              -0.000357278               0.999999999              -0.000045274              -0.000378863               0.999999999               0.000001346              -0.000199366               0.999999999               0.000007543              -0.000195603               0.999999999               0.000009252              -0.000195092               0.999999999               0.000008674              -0.000197689               0.999999999               0.000006779              -0.000202976               0.999999999               0.000004107              -0.000210517               0.999999999               0.000001137              -0.000219801               0.999999999              -0.000001909              -0.000230508               0.999999999              -0.000005008              -0.000242490               0.999999999              -0.000008201              -0.000255611               0.999999999              -0.000011554              -0.000269892               0.999999999              -0.000015096              -0.000285171               0.999999999              -0.000018725              -0.000301482               0.999999999              -0.000022444              -0.000318948               0.999999999              -0.000025918              -0.000337479               0.999999999              -0.000028790              -0.000356997               0.999999999              -0.000031013              -0.000377688               0.999999999               0.000000848              -0.000204666               0.999999999               0.000005294              -0.000202825               0.999999999               0.000006716              -0.000203007               0.999999999               0.000006526              -0.000205728               0.999999999               0.000005374              -0.000210774               0.999999999               0.000003618              -0.000217870               0.999999999               0.000001662              -0.000226646               0.999999999              -0.000000394              -0.000236769               0.999999999              -0.000002444              -0.000248084               0.999999999              -0.000004591              -0.000260531               0.999999999              -0.000006825              -0.000274041               0.999999999              -0.000009235              -0.000288642               0.999999999              -0.000011598              -0.000304396               0.999999999              -0.000013841              -0.000321291               0.999999999              -0.000016034              -0.000339390               0.999999999              -0.000017795              -0.000358557               0.999999999              -0.000018680              -0.000378754               0.999999999               0.000000412              -0.000207864               0.999999999               0.000002721              -0.000207305               0.999999999               0.000003524              -0.000208039               0.999999999               0.000003514              -0.000210905               0.999999999               0.000002963              -0.000215880               0.999999999               0.000002125              -0.000222745               0.999999999               0.000001116              -0.000231238               0.999999999               0.000000128              -0.000241058               0.999999999              -0.000000938              -0.000251991               0.999999999              -0.000002028              -0.000264017               0.999999999              -0.000003170              -0.000277112               0.999999999              -0.000004215              -0.000291414               0.999999999              -0.000005442              -0.000306905               0.999999999              -0.000006634              -0.000323571               0.999999999              -0.000007508              -0.000341549               0.999999999              -0.000008337              -0.000360654               0.999999999              -0.000008681              -0.000380682               0.999999999               0.000000000              -0.000208937               0.999999999              -0.000000000              -0.000208813               0.999999999              -0.000000000              -0.000209761               0.999999999              -0.000000000              -0.000212698               0.999999999               0.000000000              -0.000217650               0.999999999               0.000000000              -0.000224456               0.999999999              -0.000000000              -0.000232856               0.999999999               0.000000000              -0.000242541               0.999999999              -0.000000000              -0.000253410               0.999999999              -0.000000000              -0.000265372               0.999999999               0.000000000              -0.000278361               0.999999999               0.000000000              -0.000292470               0.999999999              -0.000000000              -0.000307799               0.999999999              -0.000000000              -0.000324515               0.999999999              -0.000000000              -0.000342454               0.999999999              -0.000000000              -0.000361570               0.999999999              -0.000000000              -0.000381687               0.999999999              -0.000008629              -0.000000000               0.999999999              -0.000000518               0.000000000               0.999999999               0.000003289               0.000000000               0.999999999               0.000005282               0.000000000               0.999999999               0.000006597               0.000000000               0.999999999               0.000007817               0.000000000               0.999999999               0.000009252               0.000000000               0.999999999               0.000011009               0.000000000               0.999999999               0.000013234               0.000000000               0.999999999               0.000015929               0.000000000               0.999999999               0.000019094               0.000000000               0.999999999               0.000022842               0.000000000               0.999999999               0.000027191               0.000000000               0.999999999               0.000032041               0.000000000               0.999999999               0.000037338               0.000000000               0.999999999               0.000043078               0.000000000               0.999999999               0.000049199               0.000000000               0.999999999              -0.000008538              -0.000020163               0.999999999              -0.000000698              -0.000018185               0.999999999               0.000002973              -0.000017710               0.999999999               0.000004939              -0.000018135               0.999999999               0.000006289              -0.000019171               0.999999999               0.000007586              -0.000020647               0.999999999               0.000009123              -0.000022511               0.999999999               0.000011036              -0.000024570               0.999999999               0.000013403              -0.000026895               0.999999999               0.000016279              -0.000029367               0.999999999               0.000019663              -0.000032066               0.999999999               0.000023582              -0.000034921               0.999999999               0.000028023              -0.000038099               0.999999999               0.000032994              -0.000041379               0.999999999               0.000038486              -0.000044775               0.999999999               0.000044388              -0.000048176               0.999999999               0.000050660              -0.000051689               0.999999999              -0.000008258              -0.000040118               0.999999999              -0.000001224              -0.000036157               0.999999999               0.000002054              -0.000035270               0.999999999               0.000003929              -0.000036207               0.999999999               0.000005411              -0.000038350               0.999999999               0.000007001              -0.000041368               0.999999999               0.000008894              -0.000045012               0.999999999               0.000011225              -0.000049247               0.999999999               0.000014075              -0.000053859               0.999999999               0.000017423              -0.000058843               0.999999999               0.000021303              -0.000064188               0.999999999               0.000025747              -0.000069976               0.999999999               0.000030771              -0.000076171               0.999999999               0.000036343              -0.000082676               0.999999999               0.000042291              -0.000089347               0.999999999               0.000048592              -0.000096103               0.999999999               0.000055277              -0.000103072               0.999999999              -0.000007864              -0.000059710               0.999999999              -0.000002112              -0.000053731               0.999999999               0.000000604              -0.000052596               0.999999999               0.000002421              -0.000054210               0.999999999               0.000004180              -0.000057588               0.999999999               0.000006286              -0.000062180               0.999999999               0.000008832              -0.000067766               0.999999999               0.000011894              -0.000074039               0.999999999               0.000015465              -0.000080945               0.999999999               0.000019569              -0.000088385               0.999999999               0.000024218              -0.000096419               0.999999999               0.000029475              -0.000105064               0.999999999               0.000035317              -0.000114340               0.999999999               0.000041603              -0.000123825               0.999999999               0.000048250              -0.000133447               0.999999999               0.000055189              -0.000143219               0.999999999               0.000062422              -0.000153412               0.999999999              -0.000007384              -0.000078782               0.999999999              -0.000003340              -0.000070777               0.999999999              -0.000001261              -0.000069623               0.999999999               0.000000659              -0.000072110               0.999999999               0.000002932              -0.000076794               0.999999999               0.000005773              -0.000083086               0.999999999               0.000009190              -0.000090503               0.999999999               0.000013146              -0.000098894               0.999999999               0.000017689              -0.000108057               0.999999999               0.000022755              -0.000117977               0.999999999               0.000028422              -0.000128686               0.999999999               0.000034721              -0.000140243               0.999999999               0.000041449              -0.000152337               0.999999999               0.000048558              -0.000164580               0.999999999               0.000055922              -0.000176887               0.999999999               0.000063518              -0.000189581               0.999999999               0.000071442              -0.000202821               0.999999999              -0.000006835              -0.000097126               0.999999999              -0.000004892              -0.000087244               0.999999999              -0.000003305              -0.000086259               0.999999999              -0.000001076              -0.000089748               0.999999999               0.000001903              -0.000095879               0.999999999               0.000005654              -0.000103904               0.999999999               0.000010083              -0.000113297               0.999999999               0.000015143              -0.000123831               0.999999999               0.000020714              -0.000135253               0.999999999               0.000026851              -0.000147701               0.999999999               0.000033588              -0.000161093               0.999999999               0.000040825              -0.000175401               0.999999999               0.000048407              -0.000190131               0.999999999               0.000056218              -0.000205077               0.999999999               0.000064295              -0.000220089               0.999999999               0.000072683              -0.000235639               0.999999999               0.000081358              -0.000251765               0.999999999              -0.000006254              -0.000114521               0.999999999              -0.000006617              -0.000103044               0.999999999              -0.000005320              -0.000102438               0.999999999              -0.000002565              -0.000107054               0.999999999               0.000001318              -0.000114766               0.999999999               0.000006066              -0.000124586               0.999999999               0.000011602              -0.000135969               0.999999999               0.000017661              -0.000148621               0.999999999               0.000024271              -0.000162413               0.999999999               0.000031506              -0.000177421               0.999999999               0.000039227              -0.000193597               0.999999999               0.000047318              -0.000210551               0.999999999               0.000055641              -0.000227903               0.999999999               0.000064175              -0.000245557               0.999999999               0.000073070              -0.000263522               0.999999999               0.000082339              -0.000282155               0.999999999               0.000091962              -0.000301326               0.999999999              -0.000005703              -0.000130791               0.999999999              -0.000008342              -0.000118106               0.999999999              -0.000007089              -0.000118061               0.999999999              -0.000003605              -0.000123909               0.999999999               0.000001227              -0.000133234               0.999999999               0.000007000              -0.000144877               0.999999999               0.000013487              -0.000158381               0.999999999               0.000020507              -0.000173291               0.999999999               0.000028140              -0.000189644               0.999999999               0.000036348              -0.000207378               0.999999999               0.000044971              -0.000226360               0.999999999               0.000053847              -0.000245975               0.999999999               0.000062974              -0.000266014               0.999999999               0.000072430              -0.000286511               0.999999999               0.000082221              -0.000307689               0.999999999               0.000092363              -0.000329702               0.999999999               0.000102944              -0.000352269               0.999999999              -0.000005062              -0.000145608               0.999999999              -0.000009971              -0.000132442               0.999999999              -0.000008435              -0.000133011               0.999999999              -0.000004147              -0.000140110               0.999999999               0.000001634              -0.000151058               0.999999999               0.000008345              -0.000164674               0.999999999               0.000015625              -0.000180362               0.999999999               0.000023514              -0.000197808               0.999999999               0.000032067              -0.000216961               0.999999999               0.000041122              -0.000237662               0.999999999               0.000050548              -0.000259390               0.999999999               0.000060212              -0.000281822               0.999999999               0.000070070              -0.000304917               0.999999999               0.000080143              -0.000329026               0.999999999               0.000090583              -0.000354268               0.999999999               0.000101466              -0.000380585               0.999999999               0.000112650              -0.000407643               0.999999999              -0.000004137              -0.000159419               0.999999999              -0.000010847              -0.000147271               0.999999999              -0.000010233              -0.000146433               0.999999999              -0.000006613              -0.000151917               0.999999999              -0.000001466              -0.000161217               0.999999999               0.000004540              -0.000173211               0.999999999               0.000011027              -0.000187238               0.999999999               0.000017877              -0.000202991               0.999999999               0.000025222              -0.000220335               0.999999999               0.000033112              -0.000239103               0.999999999               0.000041455              -0.000259068               0.999999999               0.000049958              -0.000279938               0.999999999               0.000058508              -0.000301528               0.999999999               0.000067072              -0.000323976               0.999999999               0.000075815              -0.000347554               0.999999999               0.000084999              -0.000372430               0.999999999               0.000094556              -0.000398469               0.999999999              -0.000003329              -0.000171905               0.999999999              -0.000011019              -0.000161407               0.999999999              -0.000011389              -0.000159903               0.999999999              -0.000008517              -0.000164019               0.999999999              -0.000004157              -0.000171898               0.999999999               0.000001124              -0.000182381               0.999999999               0.000006809              -0.000194906               0.999999999               0.000012749              -0.000209072               0.999999999               0.000018929              -0.000224696               0.999999999               0.000025630              -0.000241728               0.999999999               0.000032766              -0.000259946               0.999999999               0.000040012              -0.000279242               0.999999999               0.000047354              -0.000299392               0.999999999               0.000054621              -0.000320338               0.999999999               0.000061898              -0.000342251               0.999999999               0.000069486              -0.000365358               0.999999999               0.000077468              -0.000389802               0.999999999              -0.000002591              -0.000182841               0.999999999              -0.000010485              -0.000174452               0.999999999              -0.000011643              -0.000172870               0.999999999              -0.000009651              -0.000176098               0.999999999              -0.000006056              -0.000182762               0.999999999              -0.000001614              -0.000191975               0.999999999               0.000003242              -0.000203149               0.999999999               0.000008241              -0.000215896               0.999999999               0.000013427              -0.000230014               0.999999999               0.000018963              -0.000245429               0.999999999               0.000024752              -0.000262088               0.999999999               0.000030657              -0.000279847               0.999999999               0.000036737              -0.000298596               0.999999999               0.000042946              -0.000318141               0.999999999               0.000049036              -0.000338497               0.999999999               0.000054899              -0.000360088               0.999999999               0.000060929              -0.000383037               0.999999999              -0.000001931              -0.000192055               0.999999999              -0.000009311              -0.000186011               0.999999999              -0.000010923              -0.000184814               0.999999999              -0.000009739              -0.000187545               0.999999999              -0.000006989              -0.000193358               0.999999999              -0.000003418              -0.000201564               0.999999999               0.000000540              -0.000211670               0.999999999               0.000004552              -0.000223225               0.999999999               0.000008716              -0.000236133               0.999999999               0.000013093              -0.000250249               0.999999999               0.000017633              -0.000265567               0.999999999               0.000022189              -0.000281979               0.999999999               0.000027103              -0.000299395               0.999999999               0.000032219              -0.000317775               0.999999999               0.000036970              -0.000337003               0.999999999               0.000041242              -0.000357278               0.999999999               0.000045274              -0.000378863               0.999999999              -0.000001346              -0.000199366               0.999999999              -0.000007543              -0.000195603               0.999999999              -0.000009252              -0.000195092               0.999999999              -0.000008674              -0.000197689               0.999999999              -0.000006779              -0.000202976               0.999999999              -0.000004107              -0.000210517               0.999999999              -0.000001137              -0.000219801               0.999999999               0.000001909              -0.000230508               0.999999999               0.000005008              -0.000242490               0.999999999               0.000008201              -0.000255611               0.999999999               0.000011554              -0.000269892               0.999999999               0.000015096              -0.000285171               0.999999999               0.000018725              -0.000301482               0.999999999               0.000022444              -0.000318948               0.999999999               0.000025918              -0.000337479               0.999999999               0.000028790              -0.000356997               0.999999999               0.000031013              -0.000377688               0.999999999              -0.000000848              -0.000204666               0.999999999              -0.000005294              -0.000202825               0.999999999              -0.000006716              -0.000203007               0.999999999              -0.000006526              -0.000205728               0.999999999              -0.000005374              -0.000210774               0.999999999              -0.000003618              -0.000217870               0.999999999              -0.000001662              -0.000226646               0.999999999               0.000000394              -0.000236769               0.999999999               0.000002444              -0.000248084               0.999999999               0.000004591              -0.000260531               0.999999999               0.000006825              -0.000274041               0.999999999               0.000009235              -0.000288642               0.999999999               0.000011598              -0.000304396               0.999999999               0.000013841              -0.000321291               0.999999999               0.000016034              -0.000339390               0.999999999               0.000017795              -0.000358557               0.999999999               0.000018680              -0.000378754               0.999999999              -0.000000412              -0.000207864               0.999999999              -0.000002721              -0.000207305               0.999999999              -0.000003524              -0.000208039               0.999999999              -0.000003514              -0.000210905               0.999999999              -0.000002963              -0.000215880               0.999999999              -0.000002125              -0.000222745               0.999999999              -0.000001116              -0.000231238               0.999999999              -0.000000128              -0.000241058               0.999999999               0.000000938              -0.000251991               0.999999999               0.000002028              -0.000264017               0.999999999               0.000003170              -0.000277112               0.999999999               0.000004215              -0.000291414               0.999999999               0.000005442              -0.000306905               0.999999999               0.000006634              -0.000323571               0.999999999               0.000007508              -0.000341549               0.999999999               0.000008337              -0.000360654               0.999999999               0.000008681              -0.000380682               0.999999999               0.000000000              -0.000208937               0.999999999              -0.000000000              -0.000208813               0.999999999              -0.000000000              -0.000209761               0.999999999              -0.000000000              -0.000212698               0.999999999               0.000000000              -0.000217650               0.999999999               0.000000000              -0.000224456               0.999999999              -0.000000000              -0.000232856               0.999999999               0.000000000              -0.000242541               0.999999999              -0.000000000              -0.000253410               0.999999999              -0.000000000              -0.000265372               0.999999999               0.000000000              -0.000278361               0.999999999               0.000000000              -0.000292470               0.999999999              -0.000000000              -0.000307799               0.999999999              -0.000000000              -0.000324515               0.999999999              -0.000000000              -0.000342454               0.999999999              -0.000000000              -0.000361570               0.999999999              -0.000000000              -0.000381687               0.999999999              -0.000008629              -0.000000000               0.999999999              -0.000000518               0.000000000               0.999999999               0.000003289               0.000000000               0.999999999               0.000005282               0.000000000               0.999999999               0.000006597               0.000000000               0.999999999               0.000007817               0.000000000               0.999999999               0.000009252               0.000000000               0.999999999               0.000011009               0.000000000               0.999999999               0.000013234               0.000000000               0.999999999               0.000015929               0.000000000               0.999999999               0.000019094               0.000000000               0.999999999               0.000022842               0.000000000               0.999999999               0.000027191               0.000000000               0.999999999               0.000032041               0.000000000               0.999999999               0.000037338               0.000000000               0.999999999               0.000043078               0.000000000               0.999999999               0.000049199               0.000000000               0.999999999              -0.000008538               0.000020163               0.999999999              -0.000000698               0.000018185               0.999999999               0.000002973               0.000017710               0.999999999               0.000004939               0.000018135               0.999999999               0.000006289               0.000019171               0.999999999               0.000007586               0.000020647               0.999999999               0.000009123               0.000022511               0.999999999               0.000011036               0.000024570               0.999999999               0.000013403               0.000026895               0.999999999               0.000016279               0.000029367               0.999999999               0.000019663               0.000032066               0.999999999               0.000023582               0.000034921               0.999999999               0.000028023               0.000038099               0.999999999               0.000032994               0.000041379               0.999999999               0.000038486               0.000044775               0.999999999               0.000044388               0.000048176               0.999999999               0.000050660               0.000051689               0.999999999              -0.000008258               0.000040118               0.999999999              -0.000001224               0.000036157               0.999999999               0.000002054               0.000035270               0.999999999               0.000003929               0.000036207               0.999999999               0.000005411               0.000038350               0.999999999               0.000007001               0.000041368               0.999999999               0.000008894               0.000045012               0.999999999               0.000011225               0.000049247               0.999999999               0.000014075               0.000053859               0.999999999               0.000017423               0.000058843               0.999999999               0.000021303               0.000064188               0.999999999               0.000025747               0.000069976               0.999999999               0.000030771               0.000076171               0.999999999               0.000036343               0.000082676               0.999999999               0.000042291               0.000089347               0.999999999               0.000048592               0.000096103               0.999999999               0.000055277               0.000103072               0.999999999              -0.000007864               0.000059710               0.999999999              -0.000002112               0.000053731               0.999999999               0.000000604               0.000052596               0.999999999               0.000002421               0.000054210               0.999999999               0.000004180               0.000057588               0.999999999               0.000006286               0.000062180               0.999999999               0.000008832               0.000067766               0.999999999               0.000011894               0.000074039               0.999999999               0.000015465               0.000080945               0.999999999               0.000019569               0.000088385               0.999999999               0.000024218               0.000096419               0.999999999               0.000029475               0.000105064               0.999999999               0.000035317               0.000114340               0.999999999               0.000041603               0.000123825               0.999999999               0.000048250               0.000133447               0.999999999               0.000055189               0.000143219               0.999999999               0.000062422               0.000153412               0.999999999              -0.000007384               0.000078782               0.999999999              -0.000003340               0.000070777               0.999999999              -0.000001261               0.000069623               0.999999999               0.000000659               0.000072110               0.999999999               0.000002932               0.000076794               0.999999999               0.000005773               0.000083086               0.999999999               0.000009190               0.000090503               0.999999999               0.000013146               0.000098894               0.999999999               0.000017689               0.000108057               0.999999999               0.000022755               0.000117977               0.999999999               0.000028422               0.000128686               0.999999999               0.000034721               0.000140243               0.999999999               0.000041449               0.000152337               0.999999999               0.000048558               0.000164580               0.999999999               0.000055922               0.000176887               0.999999999               0.000063518               0.000189581               0.999999999               0.000071442               0.000202821               0.999999999              -0.000006835               0.000097126               0.999999999              -0.000004892               0.000087244               0.999999999              -0.000003305               0.000086259               0.999999999              -0.000001076               0.000089748               0.999999999               0.000001903               0.000095879               0.999999999               0.000005654               0.000103904               0.999999999               0.000010083               0.000113297               0.999999999               0.000015143               0.000123831               0.999999999               0.000020714               0.000135253               0.999999999               0.000026851               0.000147701               0.999999999               0.000033588               0.000161093               0.999999999               0.000040825               0.000175401               0.999999999               0.000048407               0.000190131               0.999999999               0.000056218               0.000205077               0.999999999               0.000064295               0.000220089               0.999999999               0.000072683               0.000235639               0.999999999               0.000081358               0.000251765               0.999999999              -0.000006254               0.000114521               0.999999999              -0.000006617               0.000103044               0.999999999              -0.000005320               0.000102438               0.999999999              -0.000002565               0.000107054               0.999999999               0.000001318               0.000114766               0.999999999               0.000006066               0.000124586               0.999999999               0.000011602               0.000135969               0.999999999               0.000017661               0.000148621               0.999999999               0.000024271               0.000162413               0.999999999               0.000031506               0.000177421               0.999999999               0.000039227               0.000193597               0.999999999               0.000047318               0.000210551               0.999999999               0.000055641               0.000227903               0.999999999               0.000064175               0.000245557               0.999999999               0.000073070               0.000263522               0.999999999               0.000082339               0.000282155               0.999999999               0.000091962               0.000301326               0.999999999              -0.000005703               0.000130791               0.999999999              -0.000008342               0.000118106               0.999999999              -0.000007089               0.000118061               0.999999999              -0.000003605               0.000123909               0.999999999               0.000001227               0.000133234               0.999999999               0.000007000               0.000144877               0.999999999               0.000013487               0.000158381               0.999999999               0.000020507               0.000173291               0.999999999               0.000028140               0.000189644               0.999999999               0.000036348               0.000207378               0.999999999               0.000044971               0.000226360               0.999999999               0.000053847               0.000245975               0.999999999               0.000062974               0.000266014               0.999999999               0.000072430               0.000286511               0.999999999               0.000082221               0.000307689               0.999999999               0.000092363               0.000329702               0.999999999               0.000102944               0.000352269               0.999999999              -0.000005062               0.000145608               0.999999999              -0.000009971               0.000132442               0.999999999              -0.000008435               0.000133011               0.999999999              -0.000004147               0.000140110               0.999999999               0.000001634               0.000151058               0.999999999               0.000008345               0.000164674               0.999999999               0.000015625               0.000180362               0.999999999               0.000023514               0.000197808               0.999999999               0.000032067               0.000216961               0.999999999               0.000041122               0.000237662               0.999999999               0.000050548               0.000259390               0.999999999               0.000060212               0.000281822               0.999999999               0.000070070               0.000304917               0.999999999               0.000080143               0.000329026               0.999999999               0.000090583               0.000354268               0.999999999               0.000101466               0.000380585               0.999999999               0.000112650               0.000407643               0.999999999              -0.000004137               0.000159419               0.999999999              -0.000010847               0.000147271               0.999999999              -0.000010233               0.000146433               0.999999999              -0.000006613               0.000151917               0.999999999              -0.000001466               0.000161217               0.999999999               0.000004540               0.000173211               0.999999999               0.000011027               0.000187238               0.999999999               0.000017877               0.000202991               0.999999999               0.000025222               0.000220335               0.999999999               0.000033112               0.000239103               0.999999999               0.000041455               0.000259068               0.999999999               0.000049958               0.000279938               0.999999999               0.000058508               0.000301528               0.999999999               0.000067072               0.000323976               0.999999999               0.000075815               0.000347554               0.999999999               0.000084999               0.000372430               0.999999999               0.000094556               0.000398469               0.999999999              -0.000003329               0.000171905               0.999999999              -0.000011019               0.000161407               0.999999999              -0.000011389               0.000159903               0.999999999              -0.000008517               0.000164019               0.999999999              -0.000004157               0.000171898               0.999999999               0.000001124               0.000182381               0.999999999               0.000006809               0.000194906               0.999999999               0.000012749               0.000209072               0.999999999               0.000018929               0.000224696               0.999999999               0.000025630               0.000241728               0.999999999               0.000032766               0.000259946               0.999999999               0.000040012               0.000279242               0.999999999               0.000047354               0.000299392               0.999999999               0.000054621               0.000320338               0.999999999               0.000061898               0.000342251               0.999999999               0.000069486               0.000365358               0.999999999               0.000077468               0.000389802               0.999999999              -0.000002591               0.000182841               0.999999999              -0.000010485               0.000174452               0.999999999              -0.000011643               0.000172870               0.999999999              -0.000009651               0.000176098               0.999999999              -0.000006056               0.000182762               0.999999999              -0.000001614               0.000191975               0.999999999               0.000003242               0.000203149               0.999999999               0.000008241               0.000215896               0.999999999               0.000013427               0.000230014               0.999999999               0.000018963               0.000245429               0.999999999               0.000024752               0.000262088               0.999999999               0.000030657               0.000279847               0.999999999               0.000036737               0.000298596               0.999999999               0.000042946               0.000318141               0.999999999               0.000049036               0.000338497               0.999999999               0.000054899               0.000360088               0.999999999               0.000060929               0.000383037               0.999999999              -0.000001931               0.000192055               0.999999999              -0.000009311               0.000186011               0.999999999              -0.000010923               0.000184814               0.999999999              -0.000009739               0.000187545               0.999999999              -0.000006989               0.000193358               0.999999999              -0.000003418               0.000201564               0.999999999               0.000000540               0.000211670               0.999999999               0.000004552               0.000223225               0.999999999               0.000008716               0.000236133               0.999999999               0.000013093               0.000250249               0.999999999               0.000017633               0.000265567               0.999999999               0.000022189               0.000281979               0.999999999               0.000027103               0.000299395               0.999999999               0.000032219               0.000317775               0.999999999               0.000036970               0.000337003               0.999999999               0.000041242               0.000357278               0.999999999               0.000045274               0.000378863               0.999999999              -0.000001346               0.000199366               0.999999999              -0.000007543               0.000195603               0.999999999              -0.000009252               0.000195092               0.999999999              -0.000008674               0.000197689               0.999999999              -0.000006779               0.000202976               0.999999999              -0.000004107               0.000210517               0.999999999              -0.000001137               0.000219801               0.999999999               0.000001909               0.000230508               0.999999999               0.000005008               0.000242490               0.999999999               0.000008201               0.000255611               0.999999999               0.000011554               0.000269892               0.999999999               0.000015096               0.000285171               0.999999999               0.000018725               0.000301482               0.999999999               0.000022444               0.000318948               0.999999999               0.000025918               0.000337479               0.999999999               0.000028790               0.000356997               0.999999999               0.000031013               0.000377688               0.999999999              -0.000000848               0.000204666               0.999999999              -0.000005294               0.000202825               0.999999999              -0.000006716               0.000203007               0.999999999              -0.000006526               0.000205728               0.999999999              -0.000005374               0.000210774               0.999999999              -0.000003618               0.000217870               0.999999999              -0.000001662               0.000226646               0.999999999               0.000000394               0.000236769               0.999999999               0.000002444               0.000248084               0.999999999               0.000004591               0.000260531               0.999999999               0.000006825               0.000274041               0.999999999               0.000009235               0.000288642               0.999999999               0.000011598               0.000304396               0.999999999               0.000013841               0.000321291               0.999999999               0.000016034               0.000339390               0.999999999               0.000017795               0.000358557               0.999999999               0.000018680               0.000378754               0.999999999              -0.000000412               0.000207864               0.999999999              -0.000002721               0.000207305               0.999999999              -0.000003524               0.000208039               0.999999999              -0.000003514               0.000210905               0.999999999              -0.000002963               0.000215880               0.999999999              -0.000002125               0.000222745               0.999999999              -0.000001116               0.000231238               0.999999999              -0.000000128               0.000241058               0.999999999               0.000000938               0.000251991               0.999999999               0.000002028               0.000264017               0.999999999               0.000003170               0.000277112               0.999999999               0.000004215               0.000291414               0.999999999               0.000005442               0.000306905               0.999999999               0.000006634               0.000323571               0.999999999               0.000007508               0.000341549               0.999999999               0.000008337               0.000360654               0.999999999               0.000008681               0.000380682               0.999999999              -0.000000000               0.000208937               0.999999999              -0.000000000               0.000208813               0.999999999               0.000000000               0.000209761               0.999999999              -0.000000000               0.000212698               0.999999999               0.000000000               0.000217650               0.999999999               0.000000000               0.000224456               0.999999999               0.000000000               0.000232856               0.999999999              -0.000000000               0.000242541               0.999999999               0.000000000               0.000253410               0.999999999               0.000000000               0.000265372               0.999999999               0.000000000               0.000278361               0.999999999               0.000000000               0.000292470               0.999999999              -0.000000000               0.000307799               0.999999999              -0.000000000               0.000324515               0.999999999               0.000000000               0.000342454               0.999999999              -0.000000000               0.000361570               0.999999999              -0.000000000               0.000381687               0.999999999 </DataArray>
<DataArray type="Float64"                                    Name="defo"                                                      NumberOfComponents=" 3" format="ascii">
              0.000008629               0.000000000               0.999999999               0.000000518              -0.000000000               0.999999999              -0.000003289              -0.000000000               0.999999999              -0.000005282               0.000000000               0.999999999              -0.000006597              -0.000000000               0.999999999              -0.000007817               0.000000000               0.999999999              -0.000009252              -0.000000000               0.999999999              -0.000011009              -0.000000000               0.999999999              -0.000013234              -0.000000000               0.999999999              -0.000015929              -0.000000000               0.999999999              -0.000019094              -0.000000000               0.999999999              -0.000022842              -0.000000000               0.999999999              -0.000027191              -0.000000000               0.999999999              -0.000032041              -0.000000000               0.999999999              -0.000037338              -0.000000000               0.999999999              -0.000043078              -0.000000000               0.999999999              -0.000049199              -0.000000000               0.999999999               0.000008538               0.000020163               0.999999999               0.000000698               0.000018185               0.999999999              -0.000002973               0.000017710               0.999999999              -0.000004939               0.000018135               0.999999999              -0.000006289               0.000019171               0.999999999              -0.000007586               0.000020647               0.999999999              -0.000009123               0.000022511               0.999999999              -0.000011036               0.000024570               0.999999999              -0.000013403               0.000026895               0.999999999              -0.000016279               0.000029367               0.999999999              -0.000019663               0.000032066               0.999999999              -0.000023582               0.000034921               0.999999999              -0.000028023               0.000038099               0.999999999              -0.000032994               0.000041379               0.999999999              -0.000038486               0.000044775               0.999999999              -0.000044388               0.000048176               0.999999999              -0.000050660               0.000051689               0.999999999               0.000008258               0.000040118               0.999999999               0.000001224               0.000036157               0.999999999              -0.000002054               0.000035270               0.999999999              -0.000003929               0.000036207               0.999999999              -0.000005411               0.000038350               0.999999999              -0.000007001               0.000041368               0.999999999              -0.000008894               0.000045012               0.999999999              -0.000011225               0.000049247               0.999999999              -0.000014075               0.000053859               0.999999999              -0.000017423               0.000058843               0.999999999              -0.000021303               0.000064188               0.999999999              -0.000025747               0.000069976               0.999999999              -0.000030771               0.000076171               0.999999999              -0.000036343               0.000082676               0.999999999              -0.000042291               0.000089347               0.999999999              -0.000048592               0.000096103               0.999999999              -0.000055277               0.000103072               0.999999999               0.000007864               0.000059710               0.999999999               0.000002112               0.000053731               0.999999999              -0.000000604               0.000052596               0.999999999              -0.000002421               0.000054210               0.999999999              -0.000004180               0.000057588               0.999999999              -0.000006286               0.000062180               0.999999999              -0.000008832               0.000067766               0.999999999              -0.000011894               0.000074039               0.999999999              -0.000015465               0.000080945               0.999999999              -0.000019569               0.000088385               0.999999999              -0.000024218               0.000096419               0.999999999              -0.000029475               0.000105064               0.999999999              -0.000035317               0.000114340               0.999999999              -0.000041603               0.000123825               0.999999999              -0.000048250               0.000133447               0.999999999              -0.000055189               0.000143219               0.999999999              -0.000062422               0.000153412               0.999999999               0.000007384               0.000078782               0.999999999               0.000003340               0.000070777               0.999999999               0.000001261               0.000069623               0.999999999              -0.000000659               0.000072110               0.999999999              -0.000002932               0.000076794               0.999999999              -0.000005773               0.000083086               0.999999999              -0.000009190               0.000090503               0.999999999              -0.000013146               0.000098894               0.999999999              -0.000017689               0.000108057               0.999999999              -0.000022755               0.000117977               0.999999999              -0.000028422               0.000128686               0.999999999              -0.000034721               0.000140243               0.999999999              -0.000041449               0.000152337               0.999999999              -0.000048558               0.000164580               0.999999999              -0.000055922               0.000176887               0.999999999              -0.000063518               0.000189581               0.999999999              -0.000071442               0.000202821               0.999999999               0.000006835               0.000097126               0.999999999               0.000004892               0.000087244               0.999999999               0.000003305               0.000086259               0.999999999               0.000001076               0.000089748               0.999999999              -0.000001903               0.000095879               0.999999999              -0.000005654               0.000103904               0.999999999              -0.000010083               0.000113297               0.999999999              -0.000015143               0.000123831               0.999999999              -0.000020714               0.000135253               0.999999999              -0.000026851               0.000147701               0.999999999              -0.000033588               0.000161093               0.999999999              -0.000040825               0.000175401               0.999999999              -0.000048407               0.000190131               0.999999999              -0.000056218               0.000205077               0.999999999              -0.000064295               0.000220089               0.999999999              -0.000072683               0.000235639               0.999999999              -0.000081358               0.000251765               0.999999999               0.000006254               0.000114521               0.999999999               0.000006617               0.000103044               0.999999999               0.000005320               0.000102438               0.999999999               0.000002565               0.000107054               0.999999999              -0.000001318               0.000114766               0.999999999              -0.000006066               0.000124586               0.999999999              -0.000011602               0.000135969               0.999999999              -0.000017661               0.000148621               0.999999999              -0.000024271               0.000162413               0.999999999              -0.000031506               0.000177421               0.999999999              -0.000039227               0.000193597               0.999999999              -0.000047318               0.000210551               0.999999999              -0.000055641               0.000227903               0.999999999              -0.000064175               0.000245557               0.999999999              -0.000073070               0.000263522               0.999999999              -0.000082339               0.000282155               0.999999999              -0.000091962               0.000301326               0.999999999               0.000005703               0.000130791               0.999999999               0.000008342               0.000118106               0.999999999               0.000007089               0.000118061               0.999999999               0.000003605               0.000123909               0.999999999              -0.000001227               0.000133234               0.999999999              -0.000007000               0.000144877               0.999999999              -0.000013487               0.000158381               0.999999999              -0.000020507               0.000173291               0.999999999              -0.000028140               0.000189644               0.999999999              -0.000036348               0.000207378               0.999999999              -0.000044971               0.000226360               0.999999999              -0.000053847               0.000245975               0.999999999              -0.000062974               0.000266014               0.999999999              -0.000072430               0.000286511               0.999999999              -0.000082221               0.000307689               0.999999999              -0.000092363               0.000329702               0.999999999              -0.000102944               0.000352269               0.999999999               0.000005062               0.000145608               0.999999999               0.000009971               0.000132442               0.999999999               0.000008435               0.000133011               0.999999999               0.000004147               0.000140110               0.999999999              -0.000001634               0.000151058               0.999999999              -0.000008345               0.000164674               0.999999999              -0.000015625               0.000180362               0.999999999              -0.000023514               0.000197808               0.999999999              -0.000032067               0.000216961               0.999999999              -0.000041122               0.000237662               0.999999999              -0.000050548               0.000259390               0.999999999              -0.000060212               0.000281822               0.999999999              -0.000070070               0.000304917               0.999999999              -0.000080143               0.000329026               0.999999999              -0.000090583               0.000354268               0.999999999              -0.000101466               0.000380585               0.999999999              -0.000112650               0.000407643               0.999999999               0.000004137               0.000159419               0.999999999               0.000010847               0.000147271               0.999999999               0.000010233               0.000146433               0.999999999               0.000006613               0.000151917               0.999999999               0.000001466               0.000161217               0.999999999              -0.000004540               0.000173211               0.999999999              -0.000011027               0.000187238               0.999999999              -0.000017877               0.000202991               0.999999999              -0.000025222               0.000220335               0.999999999              -0.000033112               0.000239103               0.999999999              -0.000041455               0.000259068               0.999999999              -0.000049958               0.000279938               0.999999999              -0.000058508               0.000301528               0.999999999              -0.000067072               0.000323976               0.999999999              -0.000075815               0.000347554               0.999999999              -0.000084999               0.000372430               0.999999999              -0.000094556               0.000398469               0.999999999               0.000003329               0.000171905               0.999999999               0.000011019               0.000161407               0.999999999               0.000011389               0.000159903               0.999999999               0.000008517               0.000164019               0.999999999               0.000004157               0.000171898               0.999999999              -0.000001124               0.000182381               0.999999999              -0.000006809               0.000194906               0.999999999              -0.000012749               0.000209072               0.999999999              -0.000018929               0.000224696               0.999999999              -0.000025630               0.000241728               0.999999999              -0.000032766               0.000259946               0.999999999              -0.000040012               0.000279242               0.999999999              -0.000047354               0.000299392               0.999999999              -0.000054621               0.000320338               0.999999999              -0.000061898               0.000342251               0.999999999              -0.000069486               0.000365358               0.999999999              -0.000077468               0.000389802               0.999999999               0.000002591               0.000182841               0.999999999               0.000010485               0.000174452               0.999999999               0.000011643               0.000172870               0.999999999               0.000009651               0.000176098               0.999999999               0.000006056               0.000182762               0.999999999               0.000001614               0.000191975               0.999999999              -0.000003242               0.000203149               0.999999999              -0.000008241               0.000215896               0.999999999              -0.000013427               0.000230014               0.999999999              -0.000018963               0.000245429               0.999999999              -0.000024752               0.000262088               0.999999999              -0.000030657               0.000279847               0.999999999              -0.000036737               0.000298596               0.999999999              -0.000042946               0.000318141               0.999999999              -0.000049036               0.000338497               0.999999999              -0.000054899               0.000360088               0.999999999              -0.000060929               0.000383037               0.999999999               0.000001931               0.000192055               0.999999999               0.000009311               0.000186011               0.999999999               0.000010923               0.000184814               0.999999999               0.000009739               0.000187545               0.999999999               0.000006989               0.000193358               0.999999999               0.000003418               0.000201564               0.999999999              -0.000000540               0.000211670               0.999999999              -0.000004552               0.000223225               0.999999999              -0.000008716               0.000236133               0.999999999              -0.000013093               0.000250249               0.999999999              -0.000017633               0.000265567               0.999999999              -0.000022189               0.000281979               0.999999999              -0.000027103               0.000299395               0.999999999              -0.000032219               0.000317775               0.999999999              -0.000036970               0.000337003               0.999999999              -0.000041242               0.000357278               0.999999999              -0.000045274               0.000378863               0.999999999               0.000001346               0.000199366               0.999999999               0.000007543               0.000195603               0.999999999               0.000009252               0.000195092               0.999999999               0.000008674               0.000197689               0.999999999               0.000006779               0.000202976               0.999999999               0.000004107               0.000210517               0.999999999               0.000001137               0.000219801               0.999999999              -0.000001909               0.000230508               0.999999999              -0.000005008               0.000242490               0.999999999              -0.000008201               0.000255611               0.999999999              -0.000011554               0.000269892               0.999999999              -0.000015096               0.000285171               0.999999999              -0.000018725               0.000301482               0.999999999              -0.000022444               0.000318948               0.999999999              -0.000025918               0.000337479               0.999999999              -0.000028790               0.000356997               0.999999999              -0.000031013               0.000377688               0.999999999               0.000000848               0.000204666               0.999999999               0.000005294               0.000202825               0.999999999               0.000006716               0.000203007               0.999999999               0.000006526               0.000205728               0.999999999               0.000005374               0.000210774               0.999999999               0.000003618               0.000217870               0.999999999               0.000001662               0.000226646               0.999999999              -0.000000394               0.000236769               0.999999999              -0.000002444               0.000248084               0.999999999              -0.000004591               0.000260531               0.999999999              -0.000006825               0.000274041               0.999999999              -0.000009235               0.000288642               0.999999999              -0.000011598               0.000304396               0.999999999              -0.000013841               0.000321291               0.999999999              -0.000016034               0.000339390               0.999999999              -0.000017795               0.000358557               0.999999999              -0.000018680               0.000378754               0.999999999               0.000000412               0.000207864               0.999999999               0.000002721               0.000207305               0.999999999               0.000003524               0.000208039               0.999999999               0.000003514               0.000210905               0.999999999               0.000002963               0.000215880               0.999999999               0.000002125               0.000222745               0.999999999               0.000001116               0.000231238               0.999999999               0.000000128               0.000241058               0.999999999              -0.000000938               0.000251991               0.999999999              -0.000002028               0.000264017               0.999999999              -0.000003170               0.000277112               0.999999999              -0.000004215               0.000291414               0.999999999              -0.000005442               0.000306905               0.999999999              -0.000006634               0.000323571               0.999999999              -0.000007508               0.000341549               0.999999999              -0.000008337               0.000360654               0.999999999              -0.000008681               0.000380682               0.999999999              -0.000000000               0.000208937               0.999999999              -0.000000000               0.000208813               0.999999999               0.000000000               0.000209761               0.999999999              -0.000000000               0.000212698               0.999999999               0.000000000               0.000217650               0.999999999               0.000000000               0.000224456               0.999999999               0.000000000               0.000232856               0.999999999              -0.000000000               0.000242541               0.999999999               0.000000000               0.000253410               0.999999999               0.000000000               0.000265372               0.999999999               0.000000000               0.000278361               0.999999999               0.000000000               0.000292470               0.999999999              -0.000000000               0.000307799               0.999999999              -0.000000000               0.000324515               0.999999999               0.000000000               0.000342454               0.999999999              -0.000000000               0.000361570               0.999999999              -0.000000000               0.000381687               0.999999999               0.000008629               0.000000000               0.999999999               0.000000518              -0.000000000               0.999999999              -0.000003289              -0.000000000               0.999999999              -0.000005282               0.000000000               0.999999999              -0.000006597              -0.000000000               0.999999999              -0.000007817               0.000000000               0.999999999              -0.000009252              -0.000000000               0.999999999              -0.000011009              -0.000000000               0.999999999              -0.000013234              -0.000000000               0.999999999              -0.000015929              -0.000000000               0.999999999              -0.000019094              -0.000000000               0.999999999              -0.000022842              -0.000000000               0.999999999              -0.000027191              -0.000000000               0.999999999              -0.000032041              -0.000000000               0.999999999              -0.000037338              -0.000000000               0.999999999              -0.000043078              -0.000000000               0.999999999              -0.000049199              -0.000000000               0.999999999               0.000008538              -0.000020163               0.999999999               0.000000698              -0.000018185               0.999999999              -0.000002973              -0.000017710               0.999999999              -0.000004939              -0.000018135               0.999999999              -0.000006289              -0.000019171               0.999999999              -0.000007586              -0.000020647               0.999999999              -0.000009123              -0.000022511               0.999999999              -0.000011036              -0.000024570               0.999999999              -0.000013403              -0.000026895               0.999999999              -0.000016279              -0.000029367               0.999999999              -0.000019663              -0.000032066               0.999999999              -0.000023582              -0.000034921               0.999999999              -0.000028023              -0.000038099               0.999999999              -0.000032994              -0.000041379               0.999999999              -0.000038486              -0.000044775               0.999999999              -0.000044388              -0.000048176               0.999999999              -0.000050660              -0.000051689               0.999999999               0.000008258              -0.000040118               0.999999999               0.000001224              -0.000036157               0.999999999              -0.000002054              -0.000035270               0.999999999              -0.000003929              -0.000036207               0.999999999              -0.000005411              -0.000038350               0.999999999              -0.000007001              -0.000041368               0.999999999              -0.000008894              -0.000045012               0.999999999              -0.000011225              -0.000049247               0.999999999              -0.000014075              -0.000053859               0.999999999              -0.000017423              -0.000058843               0.999999999              -0.000021303              -0.000064188               0.999999999              -0.000025747              -0.000069976               0.999999999              -0.000030771              -0.000076171               0.999999999              -0.000036343              -0.000082676               0.999999999              -0.000042291              -0.000089347               0.999999999              -0.000048592              -0.000096103               0.999999999              -0.000055277              -0.000103072               0.999999999               0.000007864              -0.000059710               0.999999999               0.000002112              -0.000053731               0.999999999              -0.000000604              -0.000052596               0.999999999              -0.000002421              -0.000054210               0.999999999              -0.000004180              -0.000057588               0.999999999              -0.000006286              -0.000062180               0.999999999              -0.000008832              -0.000067766               0.999999999              -0.000011894              -0.000074039               0.999999999              -0.000015465              -0.000080945               0.999999999              -0.000019569              -0.000088385               0.999999999              -0.000024218              -0.000096419               0.999999999              -0.000029475              -0.000105064               0.999999999              -0.000035317              -0.000114340               0.999999999              -0.000041603              -0.000123825               0.999999999              -0.000048250              -0.000133447               0.999999999              -0.000055189              -0.000143219               0.999999999              -0.000062422              -0.000153412               0.999999999               0.000007384              -0.000078782               0.999999999               0.000003340              -0.000070777               0.999999999               0.000001261              -0.000069623               0.999999999              -0.000000659              -0.000072110               0.999999999              -0.000002932              -0.000076794               0.999999999              -0.000005773              -0.000083086               0.999999999              -0.000009190              -0.000090503               0.999999999              -0.000013146              -0.000098894               0.999999999              -0.000017689              -0.000108057               0.999999999              -0.000022755              -0.000117977               0.999999999              -0.000028422              -0.000128686               0.999999999              -0.000034721              -0.000140243               0.999999999              -0.000041449              -0.000152337               0.999999999              -0.000048558              -0.000164580               0.999999999              -0.000055922              -0.000176887               0.999999999              -0.000063518              -0.000189581               0.999999999              -0.000071442              -0.000202821               0.999999999               0.000006835              -0.000097126               0.999999999               0.000004892              -0.000087244               0.999999999               0.000003305              -0.000086259               0.999999999               0.000001076              -0.000089748               0.999999999              -0.000001903              -0.000095879               0.999999999              -0.000005654              -0.000103904               0.999999999              -0.000010083              -0.000113297               0.999999999              -0.000015143              -0.000123831               0.999999999              -0.000020714              -0.000135253               0.999999999              -0.000026851              -0.000147701               0.999999999              -0.000033588              -0.000161093               0.999999999              -0.000040825              -0.000175401               0.999999999              -0.000048407              -0.000190131               0.999999999              -0.000056218              -0.000205077               0.999999999              -0.000064295              -0.000220089               0.999999999              -0.000072683              -0.000235639               0.999999999              -0.000081358              -0.000251765               0.999999999               0.000006254              -0.000114521               0.999999999               0.000006617              -0.000103044               0.999999999               0.000005320              -0.000102438               0.999999999               0.000002565              -0.000107054               0.999999999              -0.000001318              -0.000114766               0.999999999              -0.000006066              -0.000124586               0.999999999              -0.000011602              -0.000135969               0.999999999              -0.000017661              -0.000148621               0.999999999              -0.000024271              -0.000162413               0.999999999              -0.000031506              -0.000177421               0.999999999              -0.000039227              -0.000193597               0.999999999              -0.000047318              -0.000210551               0.999999999              -0.000055641              -0.000227903               0.999999999              -0.000064175              -0.000245557               0.999999999              -0.000073070              -0.000263522               0.999999999              -0.000082339              -0.000282155               0.999999999              -0.000091962              -0.000301326               0.999999999               0.000005703              -0.000130791               0.999999999               0.000008342              -0.000118106               0.999999999               0.000007089              -0.000118061               0.999999999               0.000003605              -0.000123909               0.999999999              -0.000001227              -0.000133234               0.999999999              -0.000007000              -0.000144877               0.999999999              -0.000013487              -0.000158381               0.999999999              -0.000020507              -0.000173291               0.999999999              -0.000028140              -0.000189644               0.999999999              -0.000036348              -0.000207378               0.999999999              -0.000044971              -0.000226360               0.999999999              -0.000053847              -0.000245975               0.999999999              -0.000062974              -0.000266014               0.999999999              -0.000072430              -0.000286511               0.999999999              -0.000082221              -0.000307689               0.999999999              -0.000092363              -0.000329702               0.999999999              -0.000102944              -0.000352269               0.999999999               0.000005062              -0.000145608               0.999999999               0.000009971              -0.000132442               0.999999999               0.000008435              -0.000133011               0.999999999               0.000004147              -0.000140110               0.999999999              -0.000001634              -0.000151058               0.999999999              -0.000008345              -0.000164674               0.999999999              -0.000015625              -0.000180362               0.999999999              -0.000023514              -0.000197808               0.999999999              -0.000032067              -0.000216961               0.999999999              -0.000041122              -0.000237662               0.999999999              -0.000050548              -0.000259390               0.999999999              -0.000060212              -0.000281822               0.999999999              -0.000070070              -0.000304917               0.999999999              -0.000080143              -0.000329026               0.999999999              -0.000090583              -0.000354268               0.999999999              -0.000101466              -0.000380585               0.999999999              -0.000112650              -0.000407643               0.999999999               0.000004137              -0.000159419               0.999999999               0.000010847              -0.000147271               0.999999999               0.000010233              -0.000146433               0.999999999               0.000006613              -0.000151917               0.999999999               0.000001466              -0.000161217               0.999999999              -0.000004540              -0.000173211               0.999999999              -0.000011027              -0.000187238               0.999999999              -0.000017877              -0.000202991               0.999999999              -0.000025222              -0.000220335               0.999999999              -0.000033112              -0.000239103               0.999999999              -0.000041455              -0.000259068               0.999999999              -0.000049958              -0.000279938               0.999999999              -0.000058508              -0.000301528               0.999999999              -0.000067072              -0.000323976               0.999999999              -0.000075815              -0.000347554               0.999999999              -0.000084999              -0.000372430               0.999999999              -0.000094556              -0.000398469               0.999999999               0.000003329              -0.000171905               0.999999999               0.000011019              -0.000161407               0.999999999               0.000011389              -0.000159903               0.999999999               0.000008517              -0.000164019               0.999999999               0.000004157              -0.000171898               0.999999999              -0.000001124              -0.000182381               0.999999999              -0.000006809              -0.000194906               0.999999999              -0.000012749              -0.000209072               0.999999999              -0.000018929              -0.000224696               0.999999999              -0.000025630              -0.000241728               0.999999999              -0.000032766              -0.000259946               0.999999999              -0.000040012              -0.000279242               0.999999999              -0.000047354              -0.000299392               0.999999999              -0.000054621              -0.000320338               0.999999999              -0.000061898              -0.000342251               0.999999999              -0.000069486              -0.000365358               0.999999999              -0.000077468              -0.000389802               0.999999999               0.000002591              -0.000182841               0.999999999               0.000010485              -0.000174452               0.999999999               0.000011643              -0.000172870               0.999999999               0.000009651              -0.000176098               0.999999999               0.000006056              -0.000182762               0.999999999               0.000001614              -0.000191975               0.999999999              -0.000003242              -0.000203149               0.999999999              -0.000008241              -0.000215896               0.999999999              -0.000013427              -0.000230014               0.999999999              -0.000018963              -0.000245429               0.999999999              -0.000024752              -0.000262088               0.999999999              -0.000030657              -0.000279847               0.999999999              -0.000036737              -0.000298596               0.999999999              -0.000042946              -0.000318141               0.999999999              -0.000049036              -0.000338497               0.999999999              -0.000054899              -0.000360088               0.999999999              -0.000060929              -0.000383037               0.999999999               0.000001931              -0.000192055               0.999999999               0.000009311              -0.000186011               0.999999999               0.000010923              -0.000184814               0.999999999               0.000009739              -0.000187545               0.999999999               0.000006989              -0.000193358               0.999999999               0.000003418              -0.000201564               0.999999999              -0.000000540              -0.000211670               0.999999999              -0.000004552              -0.000223225               0.999999999              -0.000008716              -0.000236133               0.999999999              -0.000013093              -0.000250249               0.999999999              -0.000017633              -0.000265567               0.999999999              -0.000022189              -0.000281979               0.999999999              -0.000027103              -0.000299395               0.999999999              -0.000032219              -0.000317775               0.999999999              -0.000036970              -0.000337003               0.999999999              -0.000041242              -0.000357278               0.999999999              -0.000045274              -0.000378863               0.999999999               0.000001346              -0.000199366               0.999999999               0.000007543              -0.000195603               0.999999999               0.000009252              -0.000195092               0.999999999               0.000008674              -0.000197689               0.999999999               0.000006779              -0.000202976               0.999999999               0.000004107              -0.000210517               0.999999999               0.000001137              -0.000219801               0.999999999              -0.000001909              -0.000230508               0.999999999              -0.000005008              -0.000242490               0.999999999              -0.000008201              -0.000255611               0.999999999              -0.000011554              -0.000269892               0.999999999              -0.000015096              -0.000285171               0.999999999              -0.000018725              -0.000301482               0.999999999              -0.000022444              -0.000318948               0.999999999              -0.000025918              -0.000337479               0.999999999              -0.000028790              -0.000356997               0.999999999              -0.000031013              -0.000377688               0.999999999               0.000000848              -0.000204666               0.999999999               0.000005294              -0.000202825               0.999999999               0.000006716              -0.000203007               0.999999999               0.000006526              -0.000205728               0.999999999               0.000005374              -0.000210774               0.999999999               0.000003618              -0.000217870               0.999999999               0.000001662              -0.000226646               0.999999999              -0.000000394              -0.000236769               0.999999999              -0.000002444              -0.000248084               0.999999999              -0.000004591              -0.000260531               0.999999999              -0.000006825              -0.000274041               0.999999999              -0.000009235              -0.000288642               0.999999999              -0.000011598              -0.000304396               0.999999999              -0.000013841              -0.000321291               0.999999999              -0.000016034              -0.000339390               0.999999999              -0.000017795              -0.000358557               0.999999999              -0.000018680              -0.000378754               0.999999999               0.000000412              -0.000207864               0.999999999               0.000002721              -0.000207305               0.999999999               0.000003524              -0.000208039               0.999999999               0.000003514              -0.000210905               0.999999999               0.000002963              -0.000215880               0.999999999               0.000002125              -0.000222745               0.999999999               0.000001116              -0.000231238               0.999999999               0.000000128              -0.000241058               0.999999999              -0.000000938              -0.000251991               0.999999999              -0.000002028              -0.000264017               0.999999999              -0.000003170              -0.000277112               0.999999999              -0.000004215              -0.000291414               0.999999999              -0.000005442              -0.000306905               0.999999999              -0.000006634              -0.000323571               0.999999999              -0.000007508              -0.000341549               0.999999999              -0.000008337              -0.000360654               0.999999999              -0.000008681              -0.000380682               0.999999999               0.000000000              -0.000208937               0.999999999              -0.000000000              -0.000208813               0.999999999              -0.000000000              -0.000209761               0.999999999              -0.000000000              -0.000212698               0.999999999               0.000000000              -0.000217650               0.999999999               0.000000000              -0.000224456               0.999999999              -0.000000000              -0.000232856               0.999999999               0.000000000              -0.000242541               0.999999999              -0.000000000              -0.000253410               0.999999999              -0.000000000              -0.000265372               0.999999999               0.000000000              -0.000278361               0.999999999               0.000000000              -0.000292470               0.999999999              -0.000000000              -0.000307799               0.999999999              -0.000000000              -0.000324515               0.999999999              -0.000000000              -0.000342454               0.999999999              -0.000000000              -0.000361570               0.999999999              -0.000000000              -0.000381687               0.999999999              -0.000008629              -0.000000000               0.999999999              -0.000000518               0.000000000               0.999999999               0.000003289               0.000000000               0.999999999               0.000005282               0.000000000               0.999999999               0.000006597               0.000000000               0.999999999               0.000007817               0.000000000               0.999999999               0.000009252               0.000000000               0.999999999               0.000011009               0.000000000               0.999999999               0.000013234               0.000000000               0.999999999               0.000015929               0.000000000               0.999999999               0.000019094               0.000000000               0.999999999               0.000022842               0.000000000               0.999999999               0.000027191               0.000000000               0.999999999               0.000032041               0.000000000               0.999999999               0.000037338               0.000000000               0.999999999               0.000043078               0.000000000               0.999999999               0.000049199               0.000000000               0.999999999              -0.000008538              -0.000020163               0.999999999              -0.000000698              -0.000018185               0.999999999               0.000002973              -0.000017710               0.999999999               0.000004939              -0.000018135               0.999999999               0.000006289              -0.000019171               0.999999999               0.000007586              -0.000020647               0.999999999               0.000009123              -0.000022511               0.999999999               0.000011036              -0.000024570               0.999999999               0.000013403              -0.000026895               0.999999999               0.000016279              -0.000029367               0.999999999               0.000019663              -0.000032066               0.999999999               0.000023582              -0.000034921               0.999999999               0.000028023              -0.000038099               0.999999999               0.000032994              -0.000041379               0.999999999               0.000038486              -0.000044775               0.999999999               0.000044388              -0.000048176               0.999999999               0.000050660              -0.000051689               0.999999999              -0.000008258              -0.000040118               0.999999999              -0.000001224              -0.000036157               0.999999999               0.000002054              -0.000035270               0.999999999               0.000003929              -0.000036207               0.999999999               0.000005411              -0.000038350               0.999999999               0.000007001              -0.000041368               0.999999999               0.000008894              -0.000045012               0.999999999               0.000011225              -0.000049247               0.999999999               0.000014075              -0.000053859               0.999999999               0.000017423              -0.000058843               0.999999999               0.000021303              -0.000064188               0.999999999               0.000025747              -0.000069976               0.999999999               0.000030771              -0.000076171               0.999999999               0.000036343              -0.000082676               0.999999999               0.000042291              -0.000089347               0.999999999               0.000048592              -0.000096103               0.999999999               0.000055277              -0.000103072               0.999999999              -0.000007864              -0.000059710               0.999999999              -0.000002112              -0.000053731               0.999999999               0.000000604              -0.000052596               0.999999999               0.000002421              -0.000054210               0.999999999               0.000004180              -0.000057588               0.999999999               0.000006286              -0.000062180               0.999999999               0.000008832              -0.000067766               0.999999999               0.000011894              -0.000074039               0.999999999               0.000015465              -0.000080945               0.999999999               0.000019569              -0.000088385               0.999999999               0.000024218              -0.000096419               0.999999999               0.000029475              -0.000105064               0.999999999               0.000035317              -0.000114340               0.999999999               0.000041603              -0.000123825               0.999999999               0.000048250              -0.000133447               0.999999999               0.000055189              -0.000143219               0.999999999               0.000062422              -0.000153412               0.999999999              -0.000007384              -0.000078782               0.999999999              -0.000003340              -0.000070777               0.999999999              -0.000001261              -0.000069623               0.999999999               0.000000659              -0.000072110               0.999999999               0.000002932              -0.000076794               0.999999999               0.000005773              -0.000083086               0.999999999               0.000009190              -0.000090503               0.999999999               0.000013146              -0.000098894               0.999999999               0.000017689              -0.000108057               0.999999999               0.000022755              -0.000117977               0.999999999               0.000028422              -0.000128686               0.999999999               0.000034721              -0.000140243               0.999999999               0.000041449              -0.000152337               0.999999999               0.000048558              -0.000164580               0.999999999               0.000055922              -0.000176887               0.999999999               0.000063518              -0.000189581               0.999999999               0.000071442              -0.000202821               0.999999999              -0.000006835              -0.000097126               0.999999999              -0.000004892              -0.000087244               0.999999999              -0.000003305              -0.000086259               0.999999999              -0.000001076              -0.000089748               0.999999999               0.000001903              -0.000095879               0.999999999               0.000005654              -0.000103904               0.999999999               0.000010083              -0.000113297               0.999999999               0.000015143              -0.000123831               0.999999999               0.000020714              -0.000135253               0.999999999               0.000026851              -0.000147701               0.999999999               0.000033588              -0.000161093               0.999999999               0.000040825              -0.000175401               0.999999999               0.000048407              -0.000190131               0.999999999               0.000056218              -0.000205077               0.999999999               0.000064295              -0.000220089               0.999999999               0.000072683              -0.000235639               0.999999999               0.000081358              -0.000251765               0.999999999              -0.000006254              -0.000114521               0.999999999              -0.000006617              -0.000103044               0.999999999              -0.000005320              -0.000102438               0.999999999              -0.000002565              -0.000107054               0.999999999               0.000001318              -0.000114766               0.999999999               0.000006066              -0.000124586               0.999999999               0.000011602              -0.000135969               0.999999999               0.000017661              -0.000148621               0.999999999               0.000024271              -0.000162413               0.999999999               0.000031506              -0.000177421               0.999999999               0.000039227              -0.000193597               0.999999999               0.000047318              -0.000210551               0.999999999               0.000055641              -0.000227903               0.999999999               0.000064175              -0.000245557               0.999999999               0.000073070              -0.000263522               0.999999999               0.000082339              -0.000282155               0.999999999               0.000091962              -0.000301326               0.999999999              -0.000005703              -0.000130791               0.999999999              -0.000008342              -0.000118106               0.999999999              -0.000007089              -0.000118061               0.999999999              -0.000003605              -0.000123909               0.999999999               0.000001227              -0.000133234               0.999999999               0.000007000              -0.000144877               0.999999999               0.000013487              -0.000158381               0.999999999               0.000020507              -0.000173291               0.999999999               0.000028140              -0.000189644               0.999999999               0.000036348              -0.000207378               0.999999999               0.000044971              -0.000226360               0.999999999               0.000053847              -0.000245975               0.999999999               0.000062974              -0.000266014               0.999999999               0.000072430              -0.000286511               0.999999999               0.000082221              -0.000307689               0.999999999               0.000092363              -0.000329702               0.999999999               0.000102944              -0.000352269               0.999999999              -0.000005062              -0.000145608               0.999999999              -0.000009971              -0.000132442               0.999999999              -0.000008435              -0.000133011               0.999999999              -0.000004147              -0.000140110               0.999999999               0.000001634              -0.000151058               0.999999999               0.000008345              -0.000164674               0.999999999               0.000015625              -0.000180362               0.999999999               0.000023514              -0.000197808               0.999999999               0.000032067              -0.000216961               0.999999999               0.000041122              -0.000237662               0.999999999               0.000050548              -0.000259390               0.999999999               0.000060212              -0.000281822               0.999999999               0.000070070              -0.000304917               0.999999999               0.000080143              -0.000329026               0.999999999               0.000090583              -0.000354268               0.999999999               0.000101466              -0.000380585               0.999999999               0.000112650              -0.000407643               0.999999999              -0.000004137              -0.000159419               0.999999999              -0.000010847              -0.000147271               0.999999999              -0.000010233              -0.000146433               0.999999999              -0.000006613              -0.000151917               0.999999999              -0.000001466              -0.000161217               0.999999999               0.000004540              -0.000173211               0.999999999               0.000011027              -0.000187238               0.999999999               0.000017877              -0.000202991               0.999999999               0.000025222              -0.000220335               0.999999999               0.000033112              -0.000239103               0.999999999               0.000041455              -0.000259068               0.999999999               0.000049958              -0.000279938               0.999999999               0.000058508              -0.000301528               0.999999999               0.000067072              -0.000323976               0.999999999               0.000075815              -0.000347554               0.999999999               0.000084999              -0.000372430               0.999999999               0.000094556              -0.000398469               0.999999999              -0.000003329              -0.000171905               0.999999999              -0.000011019              -0.000161407               0.999999999              -0.000011389              -0.000159903               0.999999999              -0.000008517              -0.000164019               0.999999999              -0.000004157              -0.000171898               0.999999999               0.000001124              -0.000182381               0.999999999               0.000006809              -0.000194906               0.999999999               0.000012749              -0.000209072               0.999999999               0.000018929              -0.000224696               0.999999999               0.000025630              -0.000241728               0.999999999               0.000032766              -0.000259946               0.999999999               0.000040012              -0.000279242               0.999999999               0.000047354              -0.000299392               0.999999999               0.000054621              -0.000320338               0.999999999               0.000061898              -0.000342251               0.999999999               0.000069486              -0.000365358               0.999999999               0.000077468              -0.000389802               0.999999999              -0.000002591              -0.000182841               0.999999999              -0.000010485              -0.000174452               0.999999999              -0.000011643              -0.000172870               0.999999999              -0.000009651              -0.000176098               0.999999999              -0.000006056              -0.000182762               0.999999999              -0.000001614              -0.000191975               0.999999999               0.000003242              -0.000203149               0.999999999               0.000008241              -0.000215896               0.999999999               0.000013427              -0.000230014               0.999999999               0.000018963              -0.000245429               0.999999999               0.000024752              -0.000262088               0.999999999               0.000030657              -0.000279847               0.999999999               0.000036737              -0.000298596               0.999999999               0.000042946              -0.000318141               0.999999999               0.000049036              -0.000338497               0.999999999               0.000054899              -0.000360088               0.999999999               0.000060929              -0.000383037               0.999999999              -0.000001931              -0.000192055               0.999999999              -0.000009311              -0.000186011               0.999999999              -0.000010923              -0.000184814               0.999999999              -0.000009739              -0.000187545               0.999999999              -0.000006989              -0.000193358               0.999999999              -0.000003418              -0.000201564               0.999999999               0.000000540              -0.000211670               0.999999999               0.000004552              -0.000223225               0.999999999               0.000008716              -0.000236133               0.999999999               0.000013093              -0.000250249               0.999999999               0.000017633              -0.000265567               0.999999999               0.000022189              -0.000281979               0.999999999               0.000027103              -0.000299395               0.999999999               0.000032219              -0.000317775               0.999999999               0.000036970              -0.000337003               0.999999999               0.000041242              -0.000357278               0.999999999               0.000045274              -0.000378863               0.999999999              -0.000001346              -0.000199366               0.999999999              -0.000007543              -0.000195603               0.999999999              -0.000009252              -0.000195092               0.999999999              -0.000008674              -0.000197689               0.999999999              -0.000006779              -0.000202976               0.999999999              -0.000004107              -0.000210517               0.999999999              -0.000001137              -0.000219801               0.999999999               0.000001909              -0.000230508               0.999999999               0.000005008              -0.000242490               0.999999999               0.000008201              -0.000255611               0.999999999               0.000011554              -0.000269892               0.999999999               0.000015096              -0.000285171               0.999999999               0.000018725              -0.000301482               0.999999999               0.000022444              -0.000318948               0.999999999               0.000025918              -0.000337479               0.999999999               0.000028790              -0.000356997               0.999999999               0.000031013              -0.000377688               0.999999999              -0.000000848              -0.000204666               0.999999999              -0.000005294              -0.000202825               0.999999999              -0.000006716              -0.000203007               0.999999999              -0.000006526              -0.000205728               0.999999999              -0.000005374              -0.000210774               0.999999999              -0.000003618              -0.000217870               0.999999999              -0.000001662              -0.000226646               0.999999999               0.000000394              -0.000236769               0.999999999               0.000002444              -0.000248084               0.999999999               0.000004591              -0.000260531               0.999999999               0.000006825              -0.000274041               0.999999999               0.000009235              -0.000288642               0.999999999               0.000011598              -0.000304396               0.999999999               0.000013841              -0.000321291               0.999999999               0.000016034              -0.000339390               0.999999999               0.000017795              -0.000358557               0.999999999               0.000018680              -0.000378754               0.999999999              -0.000000412              -0.000207864               0.999999999              -0.000002721              -0.000207305               0.999999999              -0.000003524              -0.000208039               0.999999999              -0.000003514              -0.000210905               0.999999999              -0.000002963              -0.000215880               0.999999999              -0.000002125              -0.000222745               0.999999999              -0.000001116              -0.000231238               0.999999999              -0.000000128              -0.000241058               0.999999999               0.000000938              -0.000251991               0.999999999               0.000002028              -0.000264017               0.999999999               0.000003170              -0.000277112               0.999999999               0.000004215              -0.000291414               0.999999999               0.000005442              -0.000306905               0.999999999               0.000006634              -0.000323571               0.999999999               0.000007508              -0.000341549               0.999999999               0.000008337              -0.000360654               0.999999999               0.000008681              -0.000380682               0.999999999               0.000000000              -0.000208937               0.999999999              -0.000000000              -0.000208813               0.999999999              -0.000000000              -0.000209761               0.999999999              -0.000000000              -0.000212698               0.999999999               0.000000000              -0.000217650               0.999999999               0.000000000              -0.000224456               0.999999999              -0.000000000              -0.000232856               0.999999999               0.000000000              -0.000242541               0.999999999              -0.000000000              -0.000253410               0.999999999              -0.000000000              -0.000265372               0.999999999               0.000000000              -0.000278361               0.999999999               0.000000000              -0.000292470               0.999999999              -0.000000000              -0.000307799               0.999999999              -0.000000000              -0.000324515               0.999999999              -0.000000000              -0.000342454               0.999999999              -0.000000000              -0.000361570               0.999999999              -0.000000000              -0.000381687               0.999999999              -0.000008629              -0.000000000               0.999999999              -0.000000518               0.000000000               0.999999999               0.000003289               0.000000000               0.999999999               0.000005282               0.000000000               0.999999999               0.000006597               0.000000000               0.999999999               0.000007817               0.000000000               0.999999999               0.000009252               0.000000000               0.999999999               0.000011009               0.000000000               0.999999999               0.000013234               0.000000000               0.999999999               0.000015929               0.000000000               0.999999999               0.000019094               0.000000000               0.999999999               0.000022842               0.000000000               0.999999999               0.000027191               0.000000000               0.999999999               0.000032041               0.000000000               0.999999999               0.000037338               0.000000000               0.999999999               0.000043078               0.000000000               0.999999999               0.000049199               0.000000000               0.999999999              -0.000008538               0.000020163               0.999999999              -0.000000698               0.000018185               0.999999999               0.000002973               0.000017710               0.999999999               0.000004939               0.000018135               0.999999999               0.000006289               0.000019171               0.999999999               0.000007586               0.000020647               0.999999999               0.000009123               0.000022511               0.999999999               0.000011036               0.000024570               0.999999999               0.000013403               0.000026895               0.999999999               0.000016279               0.000029367               0.999999999               0.000019663               0.000032066               0.999999999               0.000023582               0.000034921               0.999999999               0.000028023               0.000038099               0.999999999               0.000032994               0.000041379               0.999999999               0.000038486               0.000044775               0.999999999               0.000044388               0.000048176               0.999999999               0.000050660               0.000051689               0.999999999              -0.000008258               0.000040118               0.999999999              -0.000001224               0.000036157               0.999999999               0.000002054               0.000035270               0.999999999               0.000003929               0.000036207               0.999999999               0.000005411               0.000038350               0.999999999               0.000007001               0.000041368               0.999999999               0.000008894               0.000045012               0.999999999               0.000011225               0.000049247               0.999999999               0.000014075               0.000053859               0.999999999               0.000017423               0.000058843               0.999999999               0.000021303               0.000064188               0.999999999               0.000025747               0.000069976               0.999999999               0.000030771               0.000076171               0.999999999               0.000036343               0.000082676               0.999999999               0.000042291               0.000089347               0.999999999               0.000048592               0.000096103               0.999999999               0.000055277               0.000103072               0.999999999              -0.000007864               0.000059710               0.999999999              -0.000002112               0.000053731               0.999999999               0.000000604               0.000052596               0.999999999               0.000002421               0.000054210               0.999999999               0.000004180               0.000057588               0.999999999               0.000006286               0.000062180               0.999999999               0.000008832               0.000067766               0.999999999               0.000011894               0.000074039               0.999999999               0.000015465               0.000080945               0.999999999               0.000019569               0.000088385               0.999999999               0.000024218               0.000096419               0.999999999               0.000029475               0.000105064               0.999999999               0.000035317               0.000114340               0.999999999               0.000041603               0.000123825               0.999999999               0.000048250               0.000133447               0.999999999               0.000055189               0.000143219               0.999999999               0.000062422               0.000153412               0.999999999              -0.000007384               0.000078782               0.999999999              -0.000003340               0.000070777               0.999999999              -0.000001261               0.000069623               0.999999999               0.000000659               0.000072110               0.999999999               0.000002932               0.000076794               0.999999999               0.000005773               0.000083086               0.999999999               0.000009190               0.000090503               0.999999999               0.000013146               0.000098894               0.999999999               0.000017689               0.000108057               0.999999999               0.000022755               0.000117977               0.999999999               0.000028422               0.000128686               0.999999999               0.000034721               0.000140243               0.999999999               0.000041449               0.000152337               0.999999999               0.000048558               0.000164580               0.999999999               0.000055922               0.000176887               0.999999999               0.000063518               0.000189581               0.999999999               0.000071442               0.000202821               0.999999999              -0.000006835               0.000097126               0.999999999              -0.000004892               0.000087244               0.999999999              -0.000003305               0.000086259               0.999999999              -0.000001076               0.000089748               0.999999999               0.000001903               0.000095879               0.999999999               0.000005654               0.000103904               0.999999999               0.000010083               0.000113297               0.999999999               0.000015143               0.000123831               0.999999999               0.000020714               0.000135253               0.999999999               0.000026851               0.000147701               0.999999999               0.000033588               0.000161093               0.999999999               0.000040825               0.000175401               0.999999999               0.000048407               0.000190131               0.999999999               0.000056218               0.000205077               0.999999999               0.000064295               0.000220089               0.999999999               0.000072683               0.000235639               0.999999999               0.000081358               0.000251765               0.999999999              -0.000006254               0.000114521               0.999999999              -0.000006617               0.000103044               0.999999999              -0.000005320               0.000102438               0.999999999              -0.000002565               0.000107054               0.999999999               0.000001318               0.000114766               0.999999999               0.000006066               0.000124586               0.999999999               0.000011602               0.000135969               0.999999999               0.000017661               0.000148621               0.999999999               0.000024271               0.000162413               0.999999999               0.000031506               0.000177421               0.999999999               0.000039227               0.000193597               0.999999999               0.000047318               0.000210551               0.999999999               0.000055641               0.000227903               0.999999999               0.000064175               0.000245557               0.999999999               0.000073070               0.000263522               0.999999999               0.000082339               0.000282155               0.999999999               0.000091962               0.000301326               0.999999999              -0.000005703               0.000130791               0.999999999              -0.000008342               0.000118106               0.999999999              -0.000007089               0.000118061               0.999999999              -0.000003605               0.000123909               0.999999999               0.000001227               0.000133234               0.999999999               0.000007000               0.000144877               0.999999999               0.000013487               0.000158381               0.999999999               0.000020507               0.000173291               0.999999999               0.000028140               0.000189644               0.999999999               0.000036348               0.000207378               0.999999999               0.000044971               0.000226360               0.999999999               0.000053847               0.000245975               0.999999999               0.000062974               0.000266014               0.999999999               0.000072430               0.000286511               0.999999999               0.000082221               0.000307689               0.999999999               0.000092363               0.000329702               0.999999999               0.000102944               0.000352269               0.999999999              -0.000005062               0.000145608               0.999999999              -0.000009971               0.000132442               0.999999999              -0.000008435               0.000133011               0.999999999              -0.000004147               0.000140110               0.999999999               0.000001634               0.000151058               0.999999999               0.000008345               0.000164674               0.999999999               0.000015625               0.000180362               0.999999999               0.000023514               0.000197808               0.999999999               0.000032067               0.000216961               0.999999999               0.000041122               0.000237662               0.999999999               0.000050548               0.000259390               0.999999999               0.000060212               0.000281822               0.999999999               0.000070070               0.000304917               0.999999999               0.000080143               0.000329026               0.999999999               0.000090583               0.000354268               0.999999999               0.000101466               0.000380585               0.999999999               0.000112650               0.000407643               0.999999999              -0.000004137               0.000159419               0.999999999              -0.000010847               0.000147271               0.999999999              -0.000010233               0.000146433               0.999999999              -0.000006613               0.000151917               0.999999999              -0.000001466               0.000161217               0.999999999               0.000004540               0.000173211               0.999999999               0.000011027               0.000187238               0.999999999               0.000017877               0.000202991               0.999999999               0.000025222               0.000220335               0.999999999               0.000033112               0.000239103               0.999999999               0.000041455               0.000259068               0.999999999               0.000049958               0.000279938               0.999999999               0.000058508               0.000301528               0.999999999               0.000067072               0.000323976               0.999999999               0.000075815               0.000347554               0.999999999               0.000084999               0.000372430               0.999999999               0.000094556               0.000398469               0.999999999              -0.000003329               0.000171905               0.999999999              -0.000011019               0.000161407               0.999999999              -0.000011389               0.000159903               0.999999999              -0.000008517               0.000164019               0.999999999              -0.000004157               0.000171898               0.999999999               0.000001124               0.000182381               0.999999999               0.000006809               0.000194906               0.999999999               0.000012749               0.000209072               0.999999999               0.000018929               0.000224696               0.999999999               0.000025630               0.000241728               0.999999999               0.000032766               0.000259946               0.999999999               0.000040012               0.000279242               0.999999999               0.000047354               0.000299392               0.999999999               0.000054621               0.000320338               0.999999999               0.000061898               0.000342251               0.999999999               0.000069486               0.000365358               0.999999999               0.000077468               0.000389802               0.999999999              -0.000002591               0.000182841               0.999999999              -0.000010485               0.000174452               0.999999999              -0.000011643               0.000172870               0.999999999              -0.000009651               0.000176098               0.999999999              -0.000006056               0.000182762               0.999999999              -0.000001614               0.000191975               0.999999999               0.000003242               0.000203149               0.999999999               0.000008241               0.000215896               0.999999999               0.000013427               0.000230014               0.999999999               0.000018963               0.000245429               0.999999999               0.000024752               0.000262088               0.999999999               0.000030657               0.000279847               0.999999999               0.000036737               0.000298596               0.999999999               0.000042946               0.000318141               0.999999999               0.000049036               0.000338497               0.999999999               0.000054899               0.000360088               0.999999999               0.000060929               0.000383037               0.999999999              -0.000001931               0.000192055               0.999999999              -0.000009311               0.000186011               0.999999999              -0.000010923               0.000184814               0.999999999              -0.000009739               0.000187545               0.999999999              -0.000006989               0.000193358               0.999999999              -0.000003418               0.000201564               0.999999999               0.000000540               0.000211670               0.999999999               0.000004552               0.000223225               0.999999999               0.000008716               0.000236133               0.999999999               0.000013093               0.000250249               0.999999999               0.000017633               0.000265567               0.999999999               0.000022189               0.000281979               0.999999999               0.000027103               0.000299395               0.999999999               0.000032219               0.000317775               0.999999999               0.000036970               0.000337003               0.999999999               0.000041242               0.000357278               0.999999999               0.000045274               0.000378863               0.999999999              -0.000001346               0.000199366               0.999999999              -0.000007543               0.000195603               0.999999999              -0.000009252               0.000195092               0.999999999              -0.000008674               0.000197689               0.999999999              -0.000006779               0.000202976               0.999999999              -0.000004107               0.000210517               0.999999999              -0.000001137               0.000219801               0.999999999               0.000001909               0.000230508               0.999999999               0.000005008               0.000242490               0.999999999               0.000008201               0.000255611               0.999999999               0.000011554               0.000269892               0.999999999               0.000015096               0.000285171               0.999999999               0.000018725               0.000301482               0.999999999               0.000022444               0.000318948               0.999999999               0.000025918               0.000337479               0.999999999               0.000028790               0.000356997               0.999999999               0.000031013               0.000377688               0.999999999              -0.000000848               0.000204666               0.999999999              -0.000005294               0.000202825               0.999999999              -0.000006716               0.000203007               0.999999999              -0.000006526               0.000205728               0.999999999              -0.000005374               0.000210774               0.999999999              -0.000003618               0.000217870               0.999999999              -0.000001662               0.000226646               0.999999999               0.000000394               0.000236769               0.999999999               0.000002444               0.000248084               0.999999999               0.000004591               0.000260531               0.999999999               0.000006825               0.000274041               0.999999999               0.000009235               0.000288642               0.999999999               0.000011598               0.000304396               0.999999999               0.000013841               0.000321291               0.999999999               0.000016034               0.000339390               0.999999999               0.000017795               0.000358557               0.999999999               0.000018680               0.000378754               0.999999999              -0.000000412               0.000207864               0.999999999              -0.000002721               0.000207305               0.999999999              -0.000003524               0.000208039               0.999999999              -0.000003514               0.000210905               0.999999999              -0.000002963               0.000215880               0.999999999              -0.000002125               0.000222745               0.999999999              -0.000001116               0.000231238               0.999999999              -0.000000128               0.000241058               0.999999999               0.000000938               0.000251991               0.999999999               0.000002028               0.000264017               0.999999999               0.000003170               0.000277112               0.999999999               0.000004215               0.000291414               0.999999999               0.000005442               0.000306905               0.999999999               0.000006634               0.000323571               0.999999999               0.000007508               0.000341549               0.999999999               0.000008337               0.000360654               0.999999999               0.000008681               0.000380682               0.999999999              -0.000000000               0.000208937               0.999999999              -0.000000000               0.000208813               0.999999999               0.000000000               0.000209761               0.999999999              -0.000000000               0.000212698               0.999999999               0.000000000               0.000217650               0.999999999               0.000000000               0.000224456               0.999999999               0.000000000               0.000232856               0.999999999              -0.000000000               0.000242541               0.999999999               0.000000000               0.000253410               0.999999999               0.000000000               0.000265372               0.999999999               0.000000000               0.000278361               0.999999999               0.000000000               0.000292470               0.999999999              -0.000000000               0.000307799               0.999999999              -0.000000000               0.000324515               0.999999999               0.000000000               0.000342454               0.999999999              -0.000000000               0.000361570               0.999999999              -0.000000000               0.000381687               0.999999999 </DataArray>
<DataArray type="Float64"                                    Name="stress"                                                      NumberOfComponents="10" format="ascii">
              0.000336108               0.003798622              -0.000000000              -0.000348786               0.001382457               0.001033670               0.000000000               0.000000000               0.000000000               0.000000000               0.000388165               0.003170791              -0.000000000              -0.000250787               0.001140515               0.000889729               0.000000000               0.000000000               0.000000000               0.000000000               0.000557171               0.002660553               0.000000000              -0.000123629               0.000928052               0.000804422               0.000000000               0.000000000               0.000000000               0.000000000               0.000600634               0.002378384              -0.000000000              -0.000072060               0.000816807               0.000744747               0.000000000               0.000000000               0.000000000               0.000000000               0.000587961               0.002215455              -0.000000000              -0.000056446               0.000757293               0.000700847               0.000000000               0.000000000               0.000000000               0.000000000               0.000547896               0.002120645              -0.000000000              -0.000059620               0.000726748               0.000667128               0.000000000               0.000000000               0.000000000               0.000000000               0.000498347               0.002069290              -0.000000000              -0.000071781               0.000713683               0.000641902               0.000000000               0.000000000               0.000000000               0.000000000               0.000442386               0.002040348               0.000000000              -0.000089149               0.000709825               0.000620677               0.000000000               0.000000000               0.000000000               0.000000000               0.000384049               0.002028789              -0.000000000              -0.000109580               0.000712783               0.000603203               0.000000000               0.000000000               0.000000000               0.000000000               0.000328493               0.002028694               0.000000000              -0.000130402               0.000719692               0.000589290               0.000000000               0.000000000               0.000000000               0.000000000               0.000270873               0.002037537              -0.000000000              -0.000153114               0.000730210               0.000577096               0.000000000               0.000000000               0.000000000               0.000000000               0.000209923               0.002052681              -0.000000000              -0.000177863               0.000743508               0.000565645               0.000000000               0.000000000               0.000000000               0.000000000               0.000156097               0.002079572               0.000000000              -0.000201410               0.000760320               0.000558911               0.000000000               0.000000000               0.000000000               0.000000000               0.000109703               0.002110782              -0.000000000              -0.000222709               0.000777823               0.000555115               0.000000000               0.000000000               0.000000000               0.000000000               0.000068250               0.002142996              -0.000000000              -0.000242280               0.000795085               0.000552805               0.000000000               0.000000000               0.000000000               0.000000000               0.000031809               0.002173948               0.000000000              -0.000259814               0.000811247               0.000551432               0.000000000               0.000000000               0.000000000               0.000000000               0.000018299               0.002197690               0.000000000              -0.000267848               0.000821839               0.000553990               0.000000000               0.000000000               0.000000000               0.000000000               0.000359851               0.003738984              -0.000297976              -0.000332428               0.001357125               0.001024697               0.000000000               0.000000000               0.000000000               0.000000000               0.000397530               0.003127720              -0.000201063              -0.000241891               0.001123193               0.000881303               0.000000000               0.000000000               0.000000000               0.000000000               0.000550308               0.002635864              -0.000099855              -0.000123117               0.000919652               0.000796534               0.000000000               0.000000000               0.000000000               0.000000000               0.000586536               0.002365129              -0.000050678              -0.000075690               0.000813598               0.000737908               0.000000000               0.000000000               0.000000000               0.000000000               0.000571558               0.002209383              -0.000026022              -0.000061839               0.000757067               0.000695228               0.000000000               0.000000000               0.000000000               0.000000000               0.000531838               0.002118433              -0.000013115              -0.000065365               0.000727925               0.000662561               0.000000000               0.000000000               0.000000000               0.000000000               0.000481750               0.002066412              -0.000007223              -0.000077645               0.000714679               0.000637034               0.000000000               0.000000000               0.000000000               0.000000000               0.000427577               0.002040444              -0.000005284              -0.000094714               0.000711713               0.000616999               0.000000000               0.000000000               0.000000000               0.000000000               0.000371056               0.002029288              -0.000004960              -0.000114515               0.000714594               0.000600079               0.000000000               0.000000000               0.000000000               0.000000000               0.000315702               0.002029316              -0.000004925              -0.000135276               0.000721524               0.000586248               0.000000000               0.000000000               0.000000000               0.000000000               0.000260193               0.002038044              -0.000004390              -0.000157183               0.000731736               0.000574553               0.000000000               0.000000000               0.000000000               0.000000000               0.000204939               0.002055227              -0.000001661              -0.000180051               0.000745086               0.000565035               0.000000000               0.000000000               0.000000000               0.000000000               0.000152970               0.002079544               0.000000273              -0.000202579               0.000760701               0.000558122               0.000000000               0.000000000               0.000000000               0.000000000               0.000105719               0.002108045              -0.000001289              -0.000223861               0.000777295               0.000553434               0.000000000               0.000000000               0.000000000               0.000000000               0.000065564               0.002138189              -0.000004038              -0.000242687               0.000793618               0.000550931               0.000000000               0.000000000               0.000000000               0.000000000               0.000031309               0.002168449              -0.000005526              -0.000259315               0.000809247               0.000549933               0.000000000               0.000000000               0.000000000               0.000000000               0.000018153               0.002191516              -0.000005811              -0.000267132               0.000819542               0.000552410               0.000000000               0.000000000               0.000000000               0.000000000               0.000424768               0.003569703              -0.000565571              -0.000286924               0.001285531               0.000998606               0.000000000               0.000000000               0.000000000               0.000000000               0.000422410               0.003005652              -0.000382223              -0.000217302               0.001074308               0.000857006               0.000000000               0.000000000               0.000000000               0.000000000               0.000531764               0.002569391              -0.000191411              -0.000121762               0.000897043               0.000775280               0.000000000               0.000000000               0.000000000               0.000000000               0.000548293               0.002331572              -0.000100296              -0.000085837               0.000805795               0.000719958               0.000000000               0.000000000               0.000000000               0.000000000               0.000524988               0.002194220              -0.000055484              -0.000077407               0.000757201               0.000679795               0.000000000               0.000000000               0.000000000               0.000000000               0.000485347               0.002113068              -0.000033705              -0.000082128               0.000731725               0.000649597               0.000000000               0.000000000               0.000000000               0.000000000               0.000439340               0.002066687              -0.000022823              -0.000093583               0.000720083               0.000626500               0.000000000               0.000000000               0.000000000               0.000000000               0.000388647               0.002041630              -0.000018296              -0.000109461               0.000717024               0.000607563               0.000000000               0.000000000               0.000000000               0.000000000               0.000337470               0.002030640              -0.000017057              -0.000127278               0.000719299               0.000592021               0.000000000               0.000000000               0.000000000               0.000000000               0.000287203               0.002030994              -0.000015454              -0.000146173               0.000725715               0.000579543               0.000000000               0.000000000               0.000000000               0.000000000               0.000235196               0.002039785              -0.000011994              -0.000166774               0.000735513               0.000568739               0.000000000               0.000000000               0.000000000               0.000000000               0.000182817               0.002056536              -0.000007299              -0.000188510               0.000748342               0.000559832               0.000000000               0.000000000               0.000000000               0.000000000               0.000133267               0.002077547              -0.000005553              -0.000209718               0.000762415               0.000552697               0.000000000               0.000000000               0.000000000               0.000000000               0.000092873               0.002100051              -0.000007592              -0.000227679               0.000775903               0.000548224               0.000000000               0.000000000               0.000000000               0.000000000               0.000061028               0.002122621              -0.000010928              -0.000242442               0.000788347               0.000545906               0.000000000               0.000000000               0.000000000               0.000000000               0.000029702               0.002145280              -0.000010885              -0.000257021               0.000800760               0.000543739               0.000000000               0.000000000               0.000000000               0.000000000               0.000016405               0.002164003              -0.000010055              -0.000264348               0.000809443               0.000545095               0.000000000               0.000000000               0.000000000               0.000000000               0.000513651               0.003311039              -0.000780920              -0.000221261               0.001177422               0.000956161               0.000000000               0.000000000               0.000000000               0.000000000               0.000453759               0.002821736              -0.000528673              -0.000182557               0.001001422               0.000818864               0.000000000               0.000000000               0.000000000               0.000000000               0.000500771               0.002473651              -0.000269037              -0.000121417               0.000865014               0.000743597               0.000000000               0.000000000               0.000000000               0.000000000               0.000491313               0.002284050              -0.000150242              -0.000101264               0.000795097               0.000693833               0.000000000               0.000000000               0.000000000               0.000000000               0.000458472               0.002170872              -0.000092986              -0.000099432               0.000756761               0.000657329               0.000000000               0.000000000               0.000000000               0.000000000               0.000418692               0.002103363              -0.000064080              -0.000105911               0.000736418               0.000630507               0.000000000               0.000000000               0.000000000               0.000000000               0.000378092               0.002063241              -0.000049424              -0.000116120               0.000726447               0.000610326               0.000000000               0.000000000               0.000000000               0.000000000               0.000335392               0.002039796              -0.000041875              -0.000129202               0.000722993               0.000593790               0.000000000               0.000000000               0.000000000               0.000000000               0.000293159               0.002030149              -0.000037141              -0.000143834               0.000724654               0.000580820               0.000000000               0.000000000               0.000000000               0.000000000               0.000250014               0.002031436              -0.000032000              -0.000160174               0.000730530               0.000570356               0.000000000               0.000000000               0.000000000               0.000000000               0.000203289               0.002041357              -0.000024847              -0.000178936               0.000740091               0.000561155               0.000000000               0.000000000               0.000000000               0.000000000               0.000156439               0.002057466              -0.000017027              -0.000198518               0.000751988               0.000553470               0.000000000               0.000000000               0.000000000               0.000000000               0.000115137               0.002073902              -0.000014706              -0.000216061               0.000763314               0.000547253               0.000000000               0.000000000               0.000000000               0.000000000               0.000081446               0.002086105              -0.000017992              -0.000230220               0.000772101               0.000541881               0.000000000               0.000000000               0.000000000               0.000000000               0.000053915               0.002096606              -0.000019378              -0.000241857               0.000779481               0.000537624               0.000000000               0.000000000               0.000000000               0.000000000               0.000027686               0.002110822              -0.000013710              -0.000253470               0.000788090               0.000534620               0.000000000               0.000000000               0.000000000               0.000000000               0.000016553               0.002124596              -0.000009572              -0.000259366               0.000794647               0.000535281               0.000000000               0.000000000               0.000000000               0.000000000               0.000608071               0.002986371              -0.000931939              -0.000145270               0.001043870               0.000898600               0.000000000               0.000000000               0.000000000               0.000000000               0.000482714               0.002598106              -0.000634162              -0.000143745               0.000913942               0.000770196               0.000000000               0.000000000               0.000000000               0.000000000               0.000457844               0.002357717              -0.000332804              -0.000123023               0.000826906               0.000703883               0.000000000               0.000000000               0.000000000               0.000000000               0.000420783               0.002220959              -0.000201313              -0.000119826               0.000780254               0.000660428               0.000000000               0.000000000               0.000000000               0.000000000               0.000382706               0.002136803              -0.000137319              -0.000123585               0.000753456               0.000629870               0.000000000               0.000000000               0.000000000               0.000000000               0.000346239               0.002085769              -0.000103674              -0.000130881               0.000738876               0.000607995               0.000000000               0.000000000               0.000000000               0.000000000               0.000313668               0.002054602              -0.000084468              -0.000139199               0.000731260               0.000592061               0.000000000               0.000000000               0.000000000               0.000000000               0.000281335               0.002038399              -0.000072415              -0.000149299               0.000729226               0.000579927               0.000000000               0.000000000               0.000000000               0.000000000               0.000247466               0.002031533              -0.000062164              -0.000161141               0.000730885               0.000569743               0.000000000               0.000000000               0.000000000               0.000000000               0.000211173               0.002035703              -0.000050966              -0.000175273               0.000736985               0.000561712               0.000000000               0.000000000               0.000000000               0.000000000               0.000169103               0.002045605              -0.000037614              -0.000192287               0.000745957               0.000553670               0.000000000               0.000000000               0.000000000               0.000000000               0.000131806               0.002058786              -0.000026437              -0.000207920               0.000755562               0.000547641               0.000000000               0.000000000               0.000000000               0.000000000               0.000100656               0.002066829              -0.000023643              -0.000220607               0.000762472               0.000541865               0.000000000               0.000000000               0.000000000               0.000000000               0.000073723               0.002072248              -0.000026613              -0.000231384               0.000767871               0.000536486               0.000000000               0.000000000               0.000000000               0.000000000               0.000050879               0.002077893              -0.000023349              -0.000240656               0.000772843               0.000532187               0.000000000               0.000000000               0.000000000               0.000000000               0.000026393               0.002087643              -0.000010898              -0.000251057               0.000779560               0.000528502               0.000000000               0.000000000               0.000000000               0.000000000               0.000014589               0.002096681              -0.000004289              -0.000256614               0.000784425               0.000527811               0.000000000               0.000000000               0.000000000               0.000000000               0.000692600               0.002621752              -0.001012381              -0.000067995               0.000896573               0.000828578               0.000000000               0.000000000               0.000000000               0.000000000               0.000501993               0.002353488              -0.000699701              -0.000105939               0.000819801               0.000713862               0.000000000               0.000000000               0.000000000               0.000000000               0.000407141               0.002231184              -0.000386497              -0.000126220               0.000785794               0.000659574               0.000000000               0.000000000               0.000000000               0.000000000               0.000350535               0.002149913              -0.000252451              -0.000137288               0.000762393               0.000625105               0.000000000               0.000000000               0.000000000               0.000000000               0.000313575               0.002098956              -0.000185665              -0.000144779               0.000747905               0.000603126               0.000000000               0.000000000               0.000000000               0.000000000               0.000282487               0.002065465              -0.000147029              -0.000152250               0.000739232               0.000586981               0.000000000               0.000000000               0.000000000               0.000000000               0.000257061               0.002045876              -0.000122294              -0.000159336               0.000735064               0.000575728               0.000000000               0.000000000               0.000000000               0.000000000               0.000233190               0.002035483              -0.000103535              -0.000166989               0.000734150               0.000567162               0.000000000               0.000000000               0.000000000               0.000000000               0.000206456               0.002034335              -0.000085343              -0.000176871               0.000737062               0.000560191               0.000000000               0.000000000               0.000000000               0.000000000               0.000175487               0.002042590              -0.000066279              -0.000189516               0.000744028               0.000554513               0.000000000               0.000000000               0.000000000               0.000000000               0.000142879               0.002055022              -0.000047194              -0.000203298               0.000752766               0.000549469               0.000000000               0.000000000               0.000000000               0.000000000               0.000114290               0.002062954              -0.000033010              -0.000215010               0.000759315               0.000544304               0.000000000               0.000000000               0.000000000               0.000000000               0.000092057               0.002066662              -0.000027542              -0.000223811               0.000763484               0.000539673               0.000000000               0.000000000               0.000000000               0.000000000               0.000069979               0.002071269              -0.000027189              -0.000232666               0.000767971               0.000535305               0.000000000               0.000000000               0.000000000               0.000000000               0.000046235               0.002079605              -0.000021239              -0.000242612               0.000774065               0.000531453               0.000000000               0.000000000               0.000000000               0.000000000               0.000023040               0.002091358              -0.000007120              -0.000252779               0.000781372               0.000528593               0.000000000               0.000000000               0.000000000               0.000000000               0.000013952               0.002100519              -0.000001130              -0.000257332               0.000785943               0.000528611               0.000000000               0.000000000               0.000000000               0.000000000               0.000749812               0.002244409              -0.001027080               0.000000627               0.000747920               0.000748547               0.000000000               0.000000000               0.000000000               0.000000000               0.000510665               0.002105246              -0.000730611              -0.000071657               0.000725627               0.000653970               0.000000000               0.000000000               0.000000000               0.000000000               0.000359120               0.002104460              -0.000431924              -0.000128388               0.000744276               0.000615888               0.000000000               0.000000000               0.000000000               0.000000000               0.000292527               0.002078417              -0.000301940              -0.000150104               0.000742833               0.000592729               0.000000000               0.000000000               0.000000000               0.000000000               0.000259452               0.002057247              -0.000232609              -0.000159861               0.000739029               0.000579168               0.000000000               0.000000000               0.000000000               0.000000000               0.000233554               0.002040359              -0.000188071              -0.000167462               0.000735934               0.000568472               0.000000000               0.000000000               0.000000000               0.000000000               0.000213957               0.002032867              -0.000155762              -0.000173874               0.000735574               0.000561700               0.000000000               0.000000000               0.000000000               0.000000000               0.000195413               0.002032120              -0.000128188              -0.000180735               0.000737611               0.000556877               0.000000000               0.000000000               0.000000000               0.000000000               0.000171134               0.002041297              -0.000102440              -0.000190986               0.000744088               0.000553101               0.000000000               0.000000000               0.000000000               0.000000000               0.000146150               0.002057057              -0.000075709              -0.000202325               0.000753120               0.000550795               0.000000000               0.000000000               0.000000000               0.000000000               0.000125187               0.002073413              -0.000053391              -0.000212231               0.000761875               0.000549643               0.000000000               0.000000000               0.000000000               0.000000000               0.000105875               0.002079835              -0.000039165              -0.000220276               0.000766697               0.000546421               0.000000000               0.000000000               0.000000000               0.000000000               0.000089330               0.002083500              -0.000031393              -0.000226938               0.000770139               0.000543201               0.000000000               0.000000000               0.000000000               0.000000000               0.000069161               0.002090754              -0.000026512              -0.000235408               0.000775381               0.000539972               0.000000000               0.000000000               0.000000000               0.000000000               0.000045169               0.002106770              -0.000017093              -0.000246407               0.000784386               0.000537978               0.000000000               0.000000000               0.000000000               0.000000000               0.000021151               0.002126402              -0.000004370              -0.000257868               0.000794750               0.000536881               0.000000000               0.000000000               0.000000000               0.000000000               0.000012772               0.002140614              -0.000001285              -0.000262786               0.000801126               0.000538340               0.000000000               0.000000000               0.000000000               0.000000000               0.000775238               0.001876340              -0.000987219               0.000056170               0.000606717               0.000662887               0.000000000               0.000000000               0.000000000               0.000000000               0.000509328               0.001870467              -0.000733683              -0.000042811               0.000637753               0.000594942               0.000000000               0.000000000               0.000000000               0.000000000               0.000321539               0.001981877              -0.000469974              -0.000127158               0.000703005               0.000575847               0.000000000               0.000000000               0.000000000               0.000000000               0.000252983               0.002003586              -0.000345630              -0.000155579               0.000719715               0.000564136               0.000000000               0.000000000               0.000000000               0.000000000               0.000222983               0.002007408              -0.000271876              -0.000167307               0.000724898               0.000557591               0.000000000               0.000000000               0.000000000               0.000000000               0.000203741               0.002010797              -0.000219526              -0.000174946               0.000728574               0.000553628               0.000000000               0.000000000               0.000000000               0.000000000               0.000186186               0.002019038              -0.000178062              -0.000182560               0.000733859               0.000551300               0.000000000               0.000000000               0.000000000               0.000000000               0.000167872               0.002035282              -0.000143985              -0.000191458               0.000742240               0.000550782               0.000000000               0.000000000               0.000000000               0.000000000               0.000146541               0.002060209              -0.000112400              -0.000202573               0.000754254               0.000551681               0.000000000               0.000000000               0.000000000               0.000000000               0.000126911               0.002085812              -0.000081934              -0.000213134               0.000766308               0.000553174               0.000000000               0.000000000               0.000000000               0.000000000               0.000112087               0.002101837              -0.000058646              -0.000220697               0.000774171               0.000553474               0.000000000               0.000000000               0.000000000               0.000000000               0.000098702               0.002110855              -0.000045136              -0.000226843               0.000779226               0.000552383               0.000000000               0.000000000               0.000000000               0.000000000               0.000082461               0.002123276              -0.000034807              -0.000234486               0.000785914               0.000551427               0.000000000               0.000000000               0.000000000               0.000000000               0.000063308               0.002148428              -0.000023824              -0.000244812               0.000797740               0.000552927               0.000000000               0.000000000               0.000000000               0.000000000               0.000043472               0.002186571              -0.000010462              -0.000257019               0.000814522               0.000557504               0.000000000               0.000000000               0.000000000               0.000000000               0.000021462               0.002228227              -0.000000743              -0.000270479               0.000832895               0.000562415               0.000000000               0.000000000               0.000000000               0.000000000               0.000012759               0.002257477              -0.000001314              -0.000277399               0.000844951               0.000567552               0.000000000               0.000000000               0.000000000               0.000000000               0.000787046               0.001549011              -0.000909384               0.000101514               0.000482493               0.000584008               0.000000000               0.000000000               0.000000000               0.000000000               0.000515563               0.001659760              -0.000722256              -0.000014135               0.000557959               0.000543824               0.000000000               0.000000000               0.000000000               0.000000000               0.000307293               0.001865885              -0.000509917              -0.000118001               0.000661289               0.000543288               0.000000000               0.000000000               0.000000000               0.000000000               0.000238540               0.001930914              -0.000389419              -0.000151912               0.000694269               0.000542357               0.000000000               0.000000000               0.000000000               0.000000000               0.000211254               0.001961582              -0.000310085              -0.000165977               0.000709180               0.000543203               0.000000000               0.000000000               0.000000000               0.000000000               0.000197907               0.001987146              -0.000249907              -0.000174178               0.000720435               0.000546257               0.000000000               0.000000000               0.000000000               0.000000000               0.000182984               0.002011870              -0.000200314              -0.000182864               0.000731572               0.000548707               0.000000000               0.000000000               0.000000000               0.000000000               0.000162208               0.002044501              -0.000159910              -0.000194734               0.000746405               0.000551671               0.000000000               0.000000000               0.000000000               0.000000000               0.000141074               0.002083230              -0.000124143              -0.000207500               0.000763570               0.000556069               0.000000000               0.000000000               0.000000000               0.000000000               0.000123497               0.002113994              -0.000093699              -0.000217937               0.000777303               0.000559366               0.000000000               0.000000000               0.000000000               0.000000000               0.000109376               0.002130522              -0.000070195              -0.000225299               0.000785267               0.000559968               0.000000000               0.000000000               0.000000000               0.000000000               0.000097537               0.002146193              -0.000051997              -0.000231697               0.000792623               0.000560926               0.000000000               0.000000000               0.000000000               0.000000000               0.000085851               0.002177193              -0.000033673              -0.000239954               0.000805708               0.000565754               0.000000000               0.000000000               0.000000000               0.000000000               0.000071934               0.002229942              -0.000014765              -0.000251767               0.000827229               0.000575462               0.000000000               0.000000000               0.000000000               0.000000000               0.000056727               0.002297447              -0.000000246              -0.000265907               0.000854444               0.000588536               0.000000000               0.000000000               0.000000000               0.000000000               0.000045308               0.002369081               0.000006614              -0.000279144               0.000882734               0.000603590               0.000000000               0.000000000               0.000000000               0.000000000               0.000040236               0.002409978               0.000006564              -0.000286158               0.000898704               0.000612546               0.000000000               0.000000000               0.000000000               0.000000000               0.000778267               0.001231162              -0.000811639               0.000137953               0.000364399               0.000502351               0.000000000               0.000000000               0.000000000               0.000000000               0.000535347               0.001410091              -0.000703480               0.000024493               0.000461861               0.000486354               0.000000000               0.000000000               0.000000000               0.000000000               0.000324561               0.001682943              -0.000557411              -0.000088658               0.000590528               0.000501870               0.000000000               0.000000000               0.000000000               0.000000000               0.000252920               0.001798836              -0.000444632              -0.000130010               0.000642943               0.000512933               0.000000000               0.000000000               0.000000000               0.000000000               0.000223030               0.001863734              -0.000361281              -0.000149330               0.000671015               0.000521685               0.000000000               0.000000000               0.000000000               0.000000000               0.000209612               0.001912043              -0.000294826              -0.000160401               0.000690808               0.000530407               0.000000000               0.000000000               0.000000000               0.000000000               0.000198953               0.001955233              -0.000238856              -0.000169796               0.000708337               0.000538540               0.000000000               0.000000000               0.000000000               0.000000000               0.000181801               0.001999557              -0.000192078              -0.000181769               0.000727102               0.000545333               0.000000000               0.000000000               0.000000000               0.000000000               0.000158384               0.002044180              -0.000153408              -0.000196128               0.000746762               0.000550634               0.000000000               0.000000000               0.000000000               0.000000000               0.000138404               0.002083824              -0.000122509              -0.000208576               0.000764126               0.000555550               0.000000000               0.000000000               0.000000000               0.000000000               0.000123275               0.002116114              -0.000094970              -0.000218285               0.000778126               0.000559841               0.000000000               0.000000000               0.000000000               0.000000000               0.000109257               0.002144969              -0.000069207              -0.000227149               0.000790699               0.000563550               0.000000000               0.000000000               0.000000000               0.000000000               0.000098518               0.002184856              -0.000045318              -0.000236162               0.000806999               0.000570837               0.000000000               0.000000000               0.000000000               0.000000000               0.000091455               0.002248231              -0.000023125              -0.000246733               0.000831647               0.000584914               0.000000000               0.000000000               0.000000000               0.000000000               0.000087729               0.002335394              -0.000008385              -0.000259025               0.000864799               0.000605774               0.000000000               0.000000000               0.000000000               0.000000000               0.000088226               0.002433461              -0.000001046              -0.000271097               0.000901511               0.000630414               0.000000000               0.000000000               0.000000000               0.000000000               0.000084611               0.002479561               0.000003260              -0.000278215               0.000919250               0.000641035               0.000000000               0.000000000               0.000000000               0.000000000               0.000734658               0.000930602              -0.000696280               0.000159169               0.000257141               0.000416310               0.000000000               0.000000000               0.000000000               0.000000000               0.000557110               0.001154815              -0.000665247               0.000064563               0.000363413               0.000427976               0.000000000               0.000000000               0.000000000               0.000000000               0.000368719               0.001472852              -0.000591863              -0.000045838               0.000506225               0.000460387               0.000000000               0.000000000               0.000000000               0.000000000               0.000292738               0.001639215              -0.000497485              -0.000095125               0.000578108               0.000482982               0.000000000               0.000000000               0.000000000               0.000000000               0.000258861               0.001741518              -0.000415578              -0.000120617               0.000620706               0.000500089               0.000000000               0.000000000               0.000000000               0.000000000               0.000241356               0.001814966              -0.000346401              -0.000136362               0.000650437               0.000514074               0.000000000               0.000000000               0.000000000               0.000000000               0.000230228               0.001875733              -0.000285361              -0.000148131               0.000674615               0.000526484               0.000000000               0.000000000               0.000000000               0.000000000               0.000215616               0.001928687              -0.000232619              -0.000160230               0.000696299               0.000536069               0.000000000               0.000000000               0.000000000               0.000000000               0.000195899               0.001981601              -0.000190842              -0.000174237               0.000718606               0.000544369               0.000000000               0.000000000               0.000000000               0.000000000               0.000174304               0.002032992              -0.000157978              -0.000188759               0.000740577               0.000551817               0.000000000               0.000000000               0.000000000               0.000000000               0.000153564               0.002080795              -0.000125021              -0.000202512               0.000761096               0.000558583               0.000000000               0.000000000               0.000000000               0.000000000               0.000136485               0.002125652              -0.000094286              -0.000214524               0.000780052               0.000565527               0.000000000               0.000000000               0.000000000               0.000000000               0.000126361               0.002171496              -0.000068204              -0.000224051               0.000798508               0.000574457               0.000000000               0.000000000               0.000000000               0.000000000               0.000124942               0.002231217              -0.000043786              -0.000232048               0.000821081               0.000589033               0.000000000               0.000000000               0.000000000               0.000000000               0.000126671               0.002315049              -0.000023760              -0.000241879               0.000852301               0.000610423               0.000000000               0.000000000               0.000000000               0.000000000               0.000126408               0.002420508              -0.000009829              -0.000255160               0.000891881               0.000636721               0.000000000               0.000000000               0.000000000               0.000000000               0.000118040               0.002470057              -0.000000929              -0.000264491               0.000911508               0.000647016               0.000000000               0.000000000               0.000000000               0.000000000               0.000656729               0.000658861              -0.000566022               0.000163914               0.000164980               0.000328894               0.000000000               0.000000000               0.000000000               0.000000000               0.000562729               0.000905097              -0.000598768               0.000097885               0.000269067               0.000366952               0.000000000               0.000000000               0.000000000               0.000000000               0.000426073               0.001242637              -0.000590462               0.000004447               0.000412726               0.000417173               0.000000000               0.000000000               0.000000000               0.000000000               0.000351817               0.001447003              -0.000523428              -0.000048945               0.000498644               0.000449699               0.000000000               0.000000000               0.000000000               0.000000000               0.000313210               0.001585467              -0.000451057              -0.000080730               0.000555394               0.000474664               0.000000000               0.000000000               0.000000000               0.000000000               0.000289232               0.001688062              -0.000383793              -0.000102546               0.000596864               0.000494318               0.000000000               0.000000000               0.000000000               0.000000000               0.000271667               0.001767685              -0.000321466              -0.000119085               0.000628918               0.000509832               0.000000000               0.000000000               0.000000000               0.000000000               0.000253040               0.001833730              -0.000266297              -0.000134326               0.000656013               0.000521686               0.000000000               0.000000000               0.000000000               0.000000000               0.000234824               0.001899003              -0.000223486              -0.000149316               0.000682767               0.000533450               0.000000000               0.000000000               0.000000000               0.000000000               0.000214205               0.001964889              -0.000187200              -0.000165284               0.000710051               0.000544767               0.000000000               0.000000000               0.000000000               0.000000000               0.000192687               0.002029511              -0.000151372              -0.000181431               0.000736974               0.000555543               0.000000000               0.000000000               0.000000000               0.000000000               0.000173924               0.002090285              -0.000120524              -0.000196064               0.000762109               0.000566046               0.000000000               0.000000000               0.000000000               0.000000000               0.000164363               0.002148283              -0.000097532              -0.000206899               0.000785053               0.000578155               0.000000000               0.000000000               0.000000000               0.000000000               0.000163748               0.002209469              -0.000073647              -0.000214777               0.000808075               0.000593297               0.000000000               0.000000000               0.000000000               0.000000000               0.000165836               0.002295281              -0.000044092              -0.000224721               0.000839993               0.000615272               0.000000000               0.000000000               0.000000000               0.000000000               0.000164227               0.002409694              -0.000018190              -0.000239626               0.000883098               0.000643473               0.000000000               0.000000000               0.000000000               0.000000000               0.000150165               0.002462607              -0.000003911              -0.000251514               0.000904699               0.000653185               0.000000000               0.000000000               0.000000000               0.000000000               0.000554803               0.000432498              -0.000430109               0.000153987               0.000092835               0.000246822               0.000000000               0.000000000               0.000000000               0.000000000               0.000552772               0.000676023              -0.000507143               0.000122785               0.000184410               0.000307195               0.000000000               0.000000000               0.000000000               0.000000000               0.000484630               0.001006970              -0.000548070               0.000055864               0.000317032               0.000372896               0.000000000               0.000000000               0.000000000               0.000000000               0.000425478               0.001236082              -0.000509455               0.000005043               0.000410342               0.000415385               0.000000000               0.000000000               0.000000000               0.000000000               0.000381186               0.001406046              -0.000452584              -0.000032811               0.000479614               0.000446803               0.000000000               0.000000000               0.000000000               0.000000000               0.000349770               0.001537620              -0.000393429              -0.000061039               0.000532881               0.000471842               0.000000000               0.000000000               0.000000000               0.000000000               0.000322696               0.001637060              -0.000334591              -0.000083622               0.000573555               0.000489933               0.000000000               0.000000000               0.000000000               0.000000000               0.000298860               0.001720997              -0.000282113              -0.000103052               0.000608010               0.000504959               0.000000000               0.000000000               0.000000000               0.000000000               0.000276505               0.001801185              -0.000240300              -0.000121459               0.000640875               0.000519416               0.000000000               0.000000000               0.000000000               0.000000000               0.000254583               0.001880981              -0.000204340              -0.000139654               0.000673539               0.000533885               0.000000000               0.000000000               0.000000000               0.000000000               0.000237135               0.001960908              -0.000170247              -0.000156187               0.000705692               0.000549505               0.000000000               0.000000000               0.000000000               0.000000000               0.000224400               0.002036821              -0.000143495              -0.000170452               0.000735751               0.000565299               0.000000000               0.000000000               0.000000000               0.000000000               0.000215283               0.002114049              -0.000124132              -0.000183525               0.000765851               0.000582326               0.000000000               0.000000000               0.000000000               0.000000000               0.000210046               0.002193309              -0.000098572              -0.000195396               0.000796228               0.000600832               0.000000000               0.000000000               0.000000000               0.000000000               0.000209050               0.002285140              -0.000063535              -0.000207248               0.000830789               0.000623540               0.000000000               0.000000000               0.000000000               0.000000000               0.000209869               0.002401587              -0.000029012              -0.000221497               0.000874353               0.000652856               0.000000000               0.000000000               0.000000000               0.000000000               0.000197332               0.002457826              -0.000009699              -0.000233228               0.000897010               0.000663782               0.000000000               0.000000000               0.000000000               0.000000000               0.000444253               0.000260722              -0.000300187               0.000134003               0.000042239               0.000176242               0.000000000               0.000000000               0.000000000               0.000000000               0.000533428               0.000481819              -0.000395005               0.000139807               0.000114002               0.000253809               0.000000000               0.000000000               0.000000000               0.000000000               0.000538146               0.000785954              -0.000461266               0.000103559               0.000227462               0.000331021               0.000000000               0.000000000               0.000000000               0.000000000               0.000502408               0.001027542              -0.000446658               0.000059959               0.000322524               0.000382483               0.000000000               0.000000000               0.000000000               0.000000000               0.000458705               0.001221827              -0.000407780               0.000019285               0.000400843               0.000420128               0.000000000               0.000000000               0.000000000               0.000000000               0.000418623               0.001375841              -0.000360805              -0.000014997               0.000463608               0.000448611               0.000000000               0.000000000               0.000000000               0.000000000               0.000381383               0.001494282              -0.000311306              -0.000043767               0.000512678               0.000468911               0.000000000               0.000000000               0.000000000               0.000000000               0.000351995               0.001596395              -0.000266442              -0.000067551               0.000554643               0.000487092               0.000000000               0.000000000               0.000000000               0.000000000               0.000325818               0.001690254              -0.000228595              -0.000089100               0.000593112               0.000504012               0.000000000               0.000000000               0.000000000               0.000000000               0.000303995               0.001783381              -0.000197615              -0.000108924               0.000630762               0.000521838               0.000000000               0.000000000               0.000000000               0.000000000               0.000287681               0.001875008              -0.000171801              -0.000126496               0.000667162               0.000540666               0.000000000               0.000000000               0.000000000               0.000000000               0.000278518               0.001967176              -0.000150015              -0.000141452               0.000702869               0.000561417               0.000000000               0.000000000               0.000000000               0.000000000               0.000269874               0.002069394              -0.000130251              -0.000157471               0.000742282               0.000584810               0.000000000               0.000000000               0.000000000               0.000000000               0.000262461               0.002176898              -0.000107215              -0.000173689               0.000783522               0.000609833               0.000000000               0.000000000               0.000000000               0.000000000               0.000264217               0.002285707              -0.000076214              -0.000186631               0.000824105               0.000637474               0.000000000               0.000000000               0.000000000               0.000000000               0.000272279               0.002405194              -0.000038838              -0.000198544               0.000867905               0.000669361               0.000000000               0.000000000               0.000000000               0.000000000               0.000266784               0.002463549              -0.000016765              -0.000207899               0.000890474               0.000682575               0.000000000               0.000000000               0.000000000               0.000000000               0.000343400               0.000146014              -0.000185323               0.000110522               0.000011830               0.000122352               0.000000000               0.000000000               0.000000000               0.000000000               0.000509453               0.000333716              -0.000269393               0.000149329               0.000061461               0.000210790               0.000000000               0.000000000               0.000000000               0.000000000               0.000581760               0.000604403              -0.000333799               0.000142608               0.000153929               0.000296538               0.000000000               0.000000000               0.000000000               0.000000000               0.000571041               0.000849212              -0.000333375               0.000107988               0.000247072               0.000355060               0.000000000               0.000000000               0.000000000               0.000000000               0.000532368               0.001056329              -0.000311150               0.000067596               0.000329574               0.000397170               0.000000000               0.000000000               0.000000000               0.000000000               0.000485860               0.001226347              -0.000278687               0.000028904               0.000399144               0.000428047               0.000000000               0.000000000               0.000000000               0.000000000               0.000442130               0.001362141              -0.000243586              -0.000004469               0.000455532               0.000451063               0.000000000               0.000000000               0.000000000               0.000000000               0.000404183               0.001475849              -0.000210859              -0.000032913               0.000502916               0.000470003               0.000000000               0.000000000               0.000000000               0.000000000               0.000375651               0.001582168              -0.000182849              -0.000056902               0.000546351               0.000489450               0.000000000               0.000000000               0.000000000               0.000000000               0.000354004               0.001686681              -0.000160304              -0.000078083               0.000588249               0.000510166               0.000000000               0.000000000               0.000000000               0.000000000               0.000336847               0.001793055              -0.000142059              -0.000097814               0.000630284               0.000532470               0.000000000               0.000000000               0.000000000               0.000000000               0.000323874               0.001907309              -0.000126465              -0.000116960               0.000674750               0.000557790               0.000000000               0.000000000               0.000000000               0.000000000               0.000320096               0.002030254              -0.000110384              -0.000133746               0.000721326               0.000587581               0.000000000               0.000000000               0.000000000               0.000000000               0.000321821               0.002160178              -0.000093707              -0.000149339               0.000769832               0.000620493               0.000000000               0.000000000               0.000000000               0.000000000               0.000328184               0.002288648              -0.000073417              -0.000163012               0.000817212               0.000654201               0.000000000               0.000000000               0.000000000               0.000000000               0.000345427               0.002412668              -0.000041896              -0.000172048               0.000861564               0.000689516               0.000000000               0.000000000               0.000000000               0.000000000               0.000352968               0.002471812              -0.000021334              -0.000176613               0.000882800               0.000706187               0.000000000               0.000000000               0.000000000               0.000000000               0.000273306               0.000082465              -0.000087167               0.000092181              -0.000003239               0.000088942               0.000000000               0.000000000               0.000000000               0.000000000               0.000488711               0.000241700              -0.000135958               0.000153052               0.000029548               0.000182601               0.000000000               0.000000000               0.000000000               0.000000000               0.000608887               0.000484567              -0.000175248               0.000167760               0.000105601               0.000273361               0.000000000               0.000000000               0.000000000               0.000000000               0.000619174               0.000727603              -0.000178562               0.000141238               0.000195453               0.000336691               0.000000000               0.000000000               0.000000000               0.000000000               0.000585485               0.000940251              -0.000168692               0.000102025               0.000279406               0.000381430               0.000000000               0.000000000               0.000000000               0.000000000               0.000536651               0.001119994              -0.000152797               0.000061244               0.000352913               0.000414157               0.000000000               0.000000000               0.000000000               0.000000000               0.000488246               0.001267278              -0.000134219               0.000024682               0.000414194               0.000438877               0.000000000               0.000000000               0.000000000               0.000000000               0.000445118               0.001389245              -0.000117063              -0.000006736               0.000465323               0.000458586               0.000000000               0.000000000               0.000000000               0.000000000               0.000411727               0.001502608              -0.000103497              -0.000033428               0.000512007               0.000478579               0.000000000               0.000000000               0.000000000               0.000000000               0.000386113               0.001614755              -0.000091894              -0.000057052               0.000557264               0.000500212               0.000000000               0.000000000               0.000000000               0.000000000               0.000368925               0.001734898              -0.000080322              -0.000078515               0.000604465               0.000525950               0.000000000               0.000000000               0.000000000               0.000000000               0.000359235               0.001865604              -0.000071980              -0.000098487               0.000654691               0.000556204               0.000000000               0.000000000               0.000000000               0.000000000               0.000358547               0.002001911              -0.000065751              -0.000115783               0.000705891               0.000590108               0.000000000               0.000000000               0.000000000               0.000000000               0.000368997               0.002148085              -0.000055071              -0.000130137               0.000759400               0.000629264               0.000000000               0.000000000               0.000000000               0.000000000               0.000385864               0.002292117              -0.000044603              -0.000141815               0.000811303               0.000669488               0.000000000               0.000000000               0.000000000               0.000000000               0.000410557               0.002420301              -0.000030194              -0.000148578               0.000856285               0.000707707               0.000000000               0.000000000               0.000000000               0.000000000               0.000427890               0.002480146              -0.000019517              -0.000149559               0.000876560               0.000727001               0.000000000               0.000000000               0.000000000               0.000000000               0.000248208               0.000061878               0.000000000               0.000085342              -0.000007822               0.000077520               0.000000000               0.000000000               0.000000000               0.000000000               0.000480113               0.000210416               0.000000000               0.000153739               0.000018892               0.000172630               0.000000000               0.000000000               0.000000000               0.000000000               0.000617553               0.000442667              -0.000000000               0.000176247               0.000088805               0.000265052               0.000000000               0.000000000               0.000000000               0.000000000               0.000636595               0.000684159              -0.000000000               0.000153202               0.000176983               0.000330185               0.000000000               0.000000000               0.000000000               0.000000000               0.000604754               0.000898380               0.000000000               0.000114484               0.000261295               0.000375780               0.000000000               0.000000000               0.000000000               0.000000000               0.000556079               0.001081593               0.000000000               0.000073330               0.000336084               0.000409414               0.000000000               0.000000000               0.000000000               0.000000000               0.000504381               0.001231178              -0.000000000               0.000035245               0.000398640               0.000433885               0.000000000               0.000000000               0.000000000               0.000000000               0.000461201               0.001358292              -0.000000000               0.000003164               0.000451705               0.000454869               0.000000000               0.000000000               0.000000000               0.000000000               0.000425253               0.001476324               0.000000000              -0.000025071               0.000500460               0.000475389               0.000000000               0.000000000               0.000000000               0.000000000               0.000396858               0.001590167              -0.000000000              -0.000049949               0.000546700               0.000496751               0.000000000               0.000000000               0.000000000               0.000000000               0.000378735               0.001710855              -0.000000000              -0.000071831               0.000594223               0.000522392               0.000000000               0.000000000               0.000000000               0.000000000               0.000374498               0.001845850              -0.000000000              -0.000090294               0.000645375               0.000555081               0.000000000               0.000000000               0.000000000               0.000000000               0.000374845               0.001992347              -0.000000000              -0.000108476               0.000700268               0.000591791               0.000000000               0.000000000               0.000000000               0.000000000               0.000385140               0.002144745               0.000000000              -0.000123666               0.000756130               0.000632464               0.000000000               0.000000000               0.000000000               0.000000000               0.000409056               0.002292663               0.000000000              -0.000133186               0.000808609               0.000675422               0.000000000               0.000000000               0.000000000               0.000000000               0.000438150               0.002426204              -0.000000000              -0.000138969               0.000855050               0.000716081               0.000000000               0.000000000               0.000000000               0.000000000               0.000457888               0.002488492              -0.000000000              -0.000139353               0.000875940               0.000736587               0.000000000               0.000000000               0.000000000               0.000000000               0.000000000               0.000000000               0.000000000               0.000000000               0.000000000               0.000000000               0.000000000               0.000000000               0.000000000               0.000000000               0.000000000               0.000000000               0.000000000               0.000000000               0.000000000               0.000000000               0.000000000               0.000000000               0.000000000               0.000000000               0.000000000               0.000000000               0.000000000               0.000000000               0.000000000               0.000000000               0.000000000               0.000000000               0.000000000               0.000000000               0.000000000               0.000000000               0.000000000               0.000000000               0.000000000               0.000000000               0.000000000               0.000000000               0.000000000               0.000000000               0.000000000               0.000000000               0.000000000               0.000000000               0.000000000               0.000000000               0.000000000               0.000000000               0.000000000               0.000000000               0.000000000               0.000000000               0.000000000               0.000000000               0.000000000               0.000000000               0.000000000               0.000000000               0.000000000               0.000000000               0.000000000               0.000000000               0.000000000               0.000000000               0.000000000               0.000000000               0.000000000               0.000000000               0.000000000               0.000000000               0.000000000               0.000000000               0.000000000               0.000000000               0.000000000               0.000000000               0.000000000               0.000000000               0.000000000               0.000000000               0.000000000               0.000000000               0.000000000               0.000000000               0.000000000               0.000000000               0.000000000               0.000000000               0.000000000               0.000000000               0.000000000               0.000000000               0.000000000               0.000000000               0.000000000               0.000000000               0.000000000               0.000000000               0.000000000               0.000000000               0.000000000               0.000000000               0.000000000               0.000000000               0.000000000               0.000000000               0.000000000               0.000000000               0.000000000               0.000000000               0.000000000               0.000000000               0.000000000               0.000000000               0.000000000               0.000000000               0.000000000               0.000000000               0.000000000               0.000000000               0.000000000               0.000000000               0.000000000               0.000000000               0.000000000               0.000000000               0.000000000               0.000000000               0.000000000               0.000000000               0.000000000               0.000000000               0.000000000               0.000000000               0.000000000               0.000000000               0.000000000               0.000000000               0.000000000               0.000000000               0.000000000               0.000000000               0.000000000               0.000000000               0.000000000               0.000000000               0.000000000               0.000000000               0.000000000               0.000000000               0.000000000               0.000000000               0.000000000               0.000000000               0.000000000               0.000000000               0.000000000               0.000000000               0.000000000               0.000000000               0.000000000               0.000000000               0.000000000               0.000000000               0.000000000               0.000000000               0.000000000               0.000000000               0.000000000               0.000000000               0.000359851               0.003738984               0.000297976              -0.000332428               0.001357125               0.001024697               0.000000000               0.000000000               0.000000000               0.000000000               0.000397530               0.003127720               0.000201063              -0.000241891               0.001123193               0.000881303               0.000000000               0.000000000               0.000000000               0.000000000               0.000550308               0.002635864               0.000099855              -0.000123117               0.000919652               0.000796534               0.000000000               0.000000000               0.000000000               0.000000000               0.000586536               0.002365129               0.000050678              -0.000075690               0.000813598               0.000737908               0.000000000               0.000000000               0.000000000               0.000000000               0.000571558               0.002209383               0.000026022              -0.000061839               0.000757067               0.000695228               0.000000000               0.000000000               0.000000000               0.000000000               0.000531838               0.002118433               0.000013115              -0.000065365               0.000727925               0.000662561               0.000000000               0.000000000               0.000000000               0.000000000               0.000481750               0.002066412               0.000007223              -0.000077645               0.000714679               0.000637034               0.000000000               0.000000000               0.000000000               0.000000000               0.000427577               0.002040444               0.000005284              -0.000094714               0.000711713               0.000616999               0.000000000               0.000000000               0.000000000               0.000000000               0.000371056               0.002029288               0.000004960              -0.000114515               0.000714594               0.000600079               0.000000000               0.000000000               0.000000000               0.000000000               0.000315702               0.002029316               0.000004925              -0.000135276               0.000721524               0.000586248               0.000000000               0.000000000               0.000000000               0.000000000               0.000260193               0.002038044               0.000004390              -0.000157183               0.000731736               0.000574553               0.000000000               0.000000000               0.000000000               0.000000000               0.000204939               0.002055227               0.000001661              -0.000180051               0.000745086               0.000565035               0.000000000               0.000000000               0.000000000               0.000000000               0.000152970               0.002079544              -0.000000273              -0.000202579               0.000760701               0.000558122               0.000000000               0.000000000               0.000000000               0.000000000               0.000105719               0.002108045               0.000001289              -0.000223861               0.000777295               0.000553434               0.000000000               0.000000000               0.000000000               0.000000000               0.000065564               0.002138189               0.000004038              -0.000242687               0.000793618               0.000550931               0.000000000               0.000000000               0.000000000               0.000000000               0.000031309               0.002168449               0.000005526              -0.000259315               0.000809247               0.000549933               0.000000000               0.000000000               0.000000000               0.000000000               0.000018153               0.002191516               0.000005811              -0.000267132               0.000819542               0.000552410               0.000000000               0.000000000               0.000000000               0.000000000               0.000424768               0.003569703               0.000565571              -0.000286924               0.001285531               0.000998606               0.000000000               0.000000000               0.000000000               0.000000000               0.000422410               0.003005652               0.000382223              -0.000217302               0.001074308               0.000857006               0.000000000               0.000000000               0.000000000               0.000000000               0.000531764               0.002569391               0.000191411              -0.000121762               0.000897043               0.000775280               0.000000000               0.000000000               0.000000000               0.000000000               0.000548293               0.002331572               0.000100296              -0.000085837               0.000805795               0.000719958               0.000000000               0.000000000               0.000000000               0.000000000               0.000524988               0.002194220               0.000055484              -0.000077407               0.000757201               0.000679795               0.000000000               0.000000000               0.000000000               0.000000000               0.000485347               0.002113068               0.000033705              -0.000082128               0.000731725               0.000649597               0.000000000               0.000000000               0.000000000               0.000000000               0.000439340               0.002066687               0.000022823              -0.000093583               0.000720083               0.000626500               0.000000000               0.000000000               0.000000000               0.000000000               0.000388647               0.002041630               0.000018296              -0.000109461               0.000717024               0.000607563               0.000000000               0.000000000               0.000000000               0.000000000               0.000337470               0.002030640               0.000017057              -0.000127278               0.000719299               0.000592021               0.000000000               0.000000000               0.000000000               0.000000000               0.000287203               0.002030994               0.000015454              -0.000146173               0.000725715               0.000579543               0.000000000               0.000000000               0.000000000               0.000000000               0.000235196               0.002039785               0.000011994              -0.000166774               0.000735513               0.000568739               0.000000000               0.000000000               0.000000000               0.000000000               0.000182817               0.002056536               0.000007299              -0.000188510               0.000748342               0.000559832               0.000000000               0.000000000               0.000000000               0.000000000               0.000133267               0.002077547               0.000005553              -0.000209718               0.000762415               0.000552697               0.000000000               0.000000000               0.000000000               0.000000000               0.000092873               0.002100051               0.000007592              -0.000227679               0.000775903               0.000548224               0.000000000               0.000000000               0.000000000               0.000000000               0.000061028               0.002122621               0.000010928              -0.000242442               0.000788347               0.000545906               0.000000000               0.000000000               0.000000000               0.000000000               0.000029702               0.002145280               0.000010885              -0.000257021               0.000800760               0.000543739               0.000000000               0.000000000               0.000000000               0.000000000               0.000016405               0.002164003               0.000010055              -0.000264348               0.000809443               0.000545095               0.000000000               0.000000000               0.000000000               0.000000000               0.000513651               0.003311039               0.000780920              -0.000221261               0.001177422               0.000956161               0.000000000               0.000000000               0.000000000               0.000000000               0.000453759               0.002821736               0.000528673              -0.000182557               0.001001422               0.000818864               0.000000000               0.000000000               0.000000000               0.000000000               0.000500771               0.002473651               0.000269037              -0.000121417               0.000865014               0.000743597               0.000000000               0.000000000               0.000000000               0.000000000               0.000491313               0.002284050               0.000150242              -0.000101264               0.000795097               0.000693833               0.000000000               0.000000000               0.000000000               0.000000000               0.000458472               0.002170872               0.000092986              -0.000099432               0.000756761               0.000657329               0.000000000               0.000000000               0.000000000               0.000000000               0.000418692               0.002103363               0.000064080              -0.000105911               0.000736418               0.000630507               0.000000000               0.000000000               0.000000000               0.000000000               0.000378092               0.002063241               0.000049424              -0.000116120               0.000726447               0.000610326               0.000000000               0.000000000               0.000000000               0.000000000               0.000335392               0.002039796               0.000041875              -0.000129202               0.000722993               0.000593790               0.000000000               0.000000000               0.000000000               0.000000000               0.000293159               0.002030149               0.000037141              -0.000143834               0.000724654               0.000580820               0.000000000               0.000000000               0.000000000               0.000000000               0.000250014               0.002031436               0.000032000              -0.000160174               0.000730530               0.000570356               0.000000000               0.000000000               0.000000000               0.000000000               0.000203289               0.002041357               0.000024847              -0.000178936               0.000740091               0.000561155               0.000000000               0.000000000               0.000000000               0.000000000               0.000156439               0.002057466               0.000017027              -0.000198518               0.000751988               0.000553470               0.000000000               0.000000000               0.000000000               0.000000000               0.000115137               0.002073902               0.000014706              -0.000216061               0.000763314               0.000547253               0.000000000               0.000000000               0.000000000               0.000000000               0.000081446               0.002086105               0.000017992              -0.000230220               0.000772101               0.000541881               0.000000000               0.000000000               0.000000000               0.000000000               0.000053915               0.002096606               0.000019378              -0.000241857               0.000779481               0.000537624               0.000000000               0.000000000               0.000000000               0.000000000               0.000027686               0.002110822               0.000013710              -0.000253470               0.000788090               0.000534620               0.000000000               0.000000000               0.000000000               0.000000000               0.000016553               0.002124596               0.000009572              -0.000259366               0.000794647               0.000535281               0.000000000               0.000000000               0.000000000               0.000000000               0.000608071               0.002986371               0.000931939              -0.000145270               0.001043870               0.000898600               0.000000000               0.000000000               0.000000000               0.000000000               0.000482714               0.002598106               0.000634162              -0.000143745               0.000913942               0.000770196               0.000000000               0.000000000               0.000000000               0.000000000               0.000457844               0.002357717               0.000332804              -0.000123023               0.000826906               0.000703883               0.000000000               0.000000000               0.000000000               0.000000000               0.000420783               0.002220959               0.000201313              -0.000119826               0.000780254               0.000660428               0.000000000               0.000000000               0.000000000               0.000000000               0.000382706               0.002136803               0.000137319              -0.000123585               0.000753456               0.000629870               0.000000000               0.000000000               0.000000000               0.000000000               0.000346239               0.002085769               0.000103674              -0.000130881               0.000738876               0.000607995               0.000000000               0.000000000               0.000000000               0.000000000               0.000313668               0.002054602               0.000084468              -0.000139199               0.000731260               0.000592061               0.000000000               0.000000000               0.000000000               0.000000000               0.000281335               0.002038399               0.000072415              -0.000149299               0.000729226               0.000579927               0.000000000               0.000000000               0.000000000               0.000000000               0.000247466               0.002031533               0.000062164              -0.000161141               0.000730885               0.000569743               0.000000000               0.000000000               0.000000000               0.000000000               0.000211173               0.002035703               0.000050966              -0.000175273               0.000736985               0.000561712               0.000000000               0.000000000               0.000000000               0.000000000               0.000169103               0.002045605               0.000037614              -0.000192287               0.000745957               0.000553670               0.000000000               0.000000000               0.000000000               0.000000000               0.000131806               0.002058786               0.000026437              -0.000207920               0.000755562               0.000547641               0.000000000               0.000000000               0.000000000               0.000000000               0.000100656               0.002066829               0.000023643              -0.000220607               0.000762472               0.000541865               0.000000000               0.000000000               0.000000000               0.000000000               0.000073723               0.002072248               0.000026613              -0.000231384               0.000767871               0.000536486               0.000000000               0.000000000               0.000000000               0.000000000               0.000050879               0.002077893               0.000023349              -0.000240656               0.000772843               0.000532187               0.000000000               0.000000000               0.000000000               0.000000000               0.000026393               0.002087643               0.000010898              -0.000251057               0.000779560               0.000528502               0.000000000               0.000000000               0.000000000               0.000000000               0.000014589               0.002096681               0.000004289              -0.000256614               0.000784425               0.000527811               0.000000000               0.000000000               0.000000000               0.000000000               0.000692600               0.002621752               0.001012381              -0.000067995               0.000896573               0.000828578               0.000000000               0.000000000               0.000000000               0.000000000               0.000501993               0.002353488               0.000699701              -0.000105939               0.000819801               0.000713862               0.000000000               0.000000000               0.000000000               0.000000000               0.000407141               0.002231184               0.000386497              -0.000126220               0.000785794               0.000659574               0.000000000               0.000000000               0.000000000               0.000000000               0.000350535               0.002149913               0.000252451              -0.000137288               0.000762393               0.000625105               0.000000000               0.000000000               0.000000000               0.000000000               0.000313575               0.002098956               0.000185665              -0.000144779               0.000747905               0.000603126               0.000000000               0.000000000               0.000000000               0.000000000               0.000282487               0.002065465               0.000147029              -0.000152250               0.000739232               0.000586981               0.000000000               0.000000000               0.000000000               0.000000000               0.000257061               0.002045876               0.000122294              -0.000159336               0.000735064               0.000575728               0.000000000               0.000000000               0.000000000               0.000000000               0.000233190               0.002035483               0.000103535              -0.000166989               0.000734150               0.000567162               0.000000000               0.000000000               0.000000000               0.000000000               0.000206456               0.002034335               0.000085343              -0.000176871               0.000737062               0.000560191               0.000000000               0.000000000               0.000000000               0.000000000               0.000175487               0.002042590               0.000066279              -0.000189516               0.000744028               0.000554513               0.000000000               0.000000000               0.000000000               0.000000000               0.000142879               0.002055022               0.000047194              -0.000203298               0.000752766               0.000549469               0.000000000               0.000000000               0.000000000               0.000000000               0.000114290               0.002062954               0.000033010              -0.000215010               0.000759315               0.000544304               0.000000000               0.000000000               0.000000000               0.000000000               0.000092057               0.002066662               0.000027542              -0.000223811               0.000763484               0.000539673               0.000000000               0.000000000               0.000000000               0.000000000               0.000069979               0.002071269               0.000027189              -0.000232666               0.000767971               0.000535305               0.000000000               0.000000000               0.000000000               0.000000000               0.000046235               0.002079605               0.000021239              -0.000242612               0.000774065               0.000531453               0.000000000               0.000000000               0.000000000               0.000000000               0.000023040               0.002091358               0.000007120              -0.000252779               0.000781372               0.000528593               0.000000000               0.000000000               0.000000000               0.000000000               0.000013952               0.002100519               0.000001130              -0.000257332               0.000785943               0.000528611               0.000000000               0.000000000               0.000000000               0.000000000               0.000749812               0.002244409               0.001027080               0.000000627               0.000747920               0.000748547               0.000000000               0.000000000               0.000000000               0.000000000               0.000510665               0.002105246               0.000730611              -0.000071657               0.000725627               0.000653970               0.000000000               0.000000000               0.000000000               0.000000000               0.000359120               0.002104460               0.000431924              -0.000128388               0.000744276               0.000615888               0.000000000               0.000000000               0.000000000               0.000000000               0.000292527               0.002078417               0.000301940              -0.000150104               0.000742833               0.000592729               0.000000000               0.000000000               0.000000000               0.000000000               0.000259452               0.002057247               0.000232609              -0.000159861               0.000739029               0.000579168               0.000000000               0.000000000               0.000000000               0.000000000               0.000233554               0.002040359               0.000188071              -0.000167462               0.000735934               0.000568472               0.000000000               0.000000000               0.000000000               0.000000000               0.000213957               0.002032867               0.000155762              -0.000173874               0.000735574               0.000561700               0.000000000               0.000000000               0.000000000               0.000000000               0.000195413               0.002032120               0.000128188              -0.000180735               0.000737611               0.000556877               0.000000000               0.000000000               0.000000000               0.000000000               0.000171134               0.002041297               0.000102440              -0.000190986               0.000744088               0.000553101               0.000000000               0.000000000               0.000000000               0.000000000               0.000146150               0.002057057               0.000075709              -0.000202325               0.000753120               0.000550795               0.000000000               0.000000000               0.000000000               0.000000000               0.000125187               0.002073413               0.000053391              -0.000212231               0.000761875               0.000549643               0.000000000               0.000000000               0.000000000               0.000000000               0.000105875               0.002079835               0.000039165              -0.000220276               0.000766697               0.000546421               0.000000000               0.000000000               0.000000000               0.000000000               0.000089330               0.002083500               0.000031393              -0.000226938               0.000770139               0.000543201               0.000000000               0.000000000               0.000000000               0.000000000               0.000069161               0.002090754               0.000026512              -0.000235408               0.000775381               0.000539972               0.000000000               0.000000000               0.000000000               0.000000000               0.000045169               0.002106770               0.000017093              -0.000246407               0.000784386               0.000537978               0.000000000               0.000000000               0.000000000               0.000000000               0.000021151               0.002126402               0.000004370              -0.000257868               0.000794750               0.000536881               0.000000000               0.000000000               0.000000000               0.000000000               0.000012772               0.002140614               0.000001285              -0.000262786               0.000801126               0.000538340               0.000000000               0.000000000               0.000000000               0.000000000               0.000775238               0.001876340               0.000987219               0.000056170               0.000606717               0.000662887               0.000000000               0.000000000               0.000000000               0.000000000               0.000509328               0.001870467               0.000733683              -0.000042811               0.000637753               0.000594942               0.000000000               0.000000000               0.000000000               0.000000000               0.000321539               0.001981877               0.000469974              -0.000127158               0.000703005               0.000575847               0.000000000               0.000000000               0.000000000               0.000000000               0.000252983               0.002003586               0.000345630              -0.000155579               0.000719715               0.000564136               0.000000000               0.000000000               0.000000000               0.000000000               0.000222983               0.002007408               0.000271876              -0.000167307               0.000724898               0.000557591               0.000000000               0.000000000               0.000000000               0.000000000               0.000203741               0.002010797               0.000219526              -0.000174946               0.000728574               0.000553628               0.000000000               0.000000000               0.000000000               0.000000000               0.000186186               0.002019038               0.000178062              -0.000182560               0.000733859               0.000551300               0.000000000               0.000000000               0.000000000               0.000000000               0.000167872               0.002035282               0.000143985              -0.000191458               0.000742240               0.000550782               0.000000000               0.000000000               0.000000000               0.000000000               0.000146541               0.002060209               0.000112400              -0.000202573               0.000754254               0.000551681               0.000000000               0.000000000               0.000000000               0.000000000               0.000126911               0.002085812               0.000081934              -0.000213134               0.000766308               0.000553174               0.000000000               0.000000000               0.000000000               0.000000000               0.000112087               0.002101837               0.000058646              -0.000220697               0.000774171               0.000553474               0.000000000               0.000000000               0.000000000               0.000000000               0.000098702               0.002110855               0.000045136              -0.000226843               0.000779226               0.000552383               0.000000000               0.000000000               0.000000000               0.000000000               0.000082461               0.002123276               0.000034807              -0.000234486               0.000785914               0.000551427               0.000000000               0.000000000               0.000000000               0.000000000               0.000063308               0.002148428               0.000023824              -0.000244812               0.000797740               0.000552927               0.000000000               0.000000000               0.000000000               0.000000000               0.000043472               0.002186571               0.000010462              -0.000257019               0.000814522               0.000557504               0.000000000               0.000000000               0.000000000               0.000000000               0.000021462               0.002228227               0.000000743              -0.000270479               0.000832895               0.000562415               0.000000000               0.000000000               0.000000000               0.000000000               0.000012759               0.002257477               0.000001314              -0.000277399               0.000844951               0.000567552               0.000000000               0.000000000               0.000000000               0.000000000               0.000787046               0.001549011               0.000909384               0.000101514               0.000482493               0.000584008               0.000000000               0.000000000               0.000000000               0.000000000               0.000515563               0.001659760               0.000722256              -0.000014135               0.000557959               0.000543824               0.000000000               0.000000000               0.000000000               0.000000000               0.000307293               0.001865885               0.000509917              -0.000118001               0.000661289               0.000543288               0.000000000               0.000000000               0.000000000               0.000000000               0.000238540               0.001930914               0.000389419              -0.000151912               0.000694269               0.000542357               0.000000000               0.000000000               0.000000000               0.000000000               0.000211254               0.001961582               0.000310085              -0.000165977               0.000709180               0.000543203               0.000000000               0.000000000               0.000000000               0.000000000               0.000197907               0.001987146               0.000249907              -0.000174178               0.000720435               0.000546257               0.000000000               0.000000000               0.000000000               0.000000000               0.000182984               0.002011870               0.000200314              -0.000182864               0.000731572               0.000548707               0.000000000               0.000000000               0.000000000               0.000000000               0.000162208               0.002044501               0.000159910              -0.000194734               0.000746405               0.000551671               0.000000000               0.000000000               0.000000000               0.000000000               0.000141074               0.002083230               0.000124143              -0.000207500               0.000763570               0.000556069               0.000000000               0.000000000               0.000000000               0.000000000               0.000123497               0.002113994               0.000093699              -0.000217937               0.000777303               0.000559366               0.000000000               0.000000000               0.000000000               0.000000000               0.000109376               0.002130522               0.000070195              -0.000225299               0.000785267               0.000559968               0.000000000               0.000000000               0.000000000               0.000000000               0.000097537               0.002146193               0.000051997              -0.000231697               0.000792623               0.000560926               0.000000000               0.000000000               0.000000000               0.000000000               0.000085851               0.002177193               0.000033673              -0.000239954               0.000805708               0.000565754               0.000000000               0.000000000               0.000000000               0.000000000               0.000071934               0.002229942               0.000014765              -0.000251767               0.000827229               0.000575462               0.000000000               0.000000000               0.000000000               0.000000000               0.000056727               0.002297447               0.000000246              -0.000265907               0.000854444               0.000588536               0.000000000               0.000000000               0.000000000               0.000000000               0.000045308               0.002369081              -0.000006614              -0.000279144               0.000882734               0.000603590               0.000000000               0.000000000               0.000000000               0.000000000               0.000040236               0.002409978              -0.000006564              -0.000286158               0.000898704               0.000612546               0.000000000               0.000000000               0.000000000               0.000000000               0.000778267               0.001231162               0.000811639               0.000137953               0.000364399               0.000502351               0.000000000               0.000000000               0.000000000               0.000000000               0.000535347               0.001410091               0.000703480               0.000024493               0.000461861               0.000486354               0.000000000               0.000000000               0.000000000               0.000000000               0.000324561               0.001682943               0.000557411              -0.000088658               0.000590528               0.000501870               0.000000000               0.000000000               0.000000000               0.000000000               0.000252920               0.001798836               0.000444632              -0.000130010               0.000642943               0.000512933               0.000000000               0.000000000               0.000000000               0.000000000               0.000223030               0.001863734               0.000361281              -0.000149330               0.000671015               0.000521685               0.000000000               0.000000000               0.000000000               0.000000000               0.000209612               0.001912043               0.000294826              -0.000160401               0.000690808               0.000530407               0.000000000               0.000000000               0.000000000               0.000000000               0.000198953               0.001955233               0.000238856              -0.000169796               0.000708337               0.000538540               0.000000000               0.000000000               0.000000000               0.000000000               0.000181801               0.001999557               0.000192078              -0.000181769               0.000727102               0.000545333               0.000000000               0.000000000               0.000000000               0.000000000               0.000158384               0.002044180               0.000153408              -0.000196128               0.000746762               0.000550634               0.000000000               0.000000000               0.000000000               0.000000000               0.000138404               0.002083824               0.000122509              -0.000208576               0.000764126               0.000555550               0.000000000               0.000000000               0.000000000               0.000000000               0.000123275               0.002116114               0.000094970              -0.000218285               0.000778126               0.000559841               0.000000000               0.000000000               0.000000000               0.000000000               0.000109257               0.002144969               0.000069207              -0.000227149               0.000790699               0.000563550               0.000000000               0.000000000               0.000000000               0.000000000               0.000098518               0.002184856               0.000045318              -0.000236162               0.000806999               0.000570837               0.000000000               0.000000000               0.000000000               0.000000000               0.000091455               0.002248231               0.000023125              -0.000246733               0.000831647               0.000584914               0.000000000               0.000000000               0.000000000               0.000000000               0.000087729               0.002335394               0.000008385              -0.000259025               0.000864799               0.000605774               0.000000000               0.000000000               0.000000000               0.000000000               0.000088226               0.002433461               0.000001046              -0.000271097               0.000901511               0.000630414               0.000000000               0.000000000               0.000000000               0.000000000               0.000084611               0.002479561              -0.000003260              -0.000278215               0.000919250               0.000641035               0.000000000               0.000000000               0.000000000               0.000000000               0.000734658               0.000930602               0.000696280               0.000159169               0.000257141               0.000416310               0.000000000               0.000000000               0.000000000               0.000000000               0.000557110               0.001154815               0.000665247               0.000064563               0.000363413               0.000427976               0.000000000               0.000000000               0.000000000               0.000000000               0.000368719               0.001472852               0.000591863              -0.000045838               0.000506225               0.000460387               0.000000000               0.000000000               0.000000000               0.000000000               0.000292738               0.001639215               0.000497485              -0.000095125               0.000578108               0.000482982               0.000000000               0.000000000               0.000000000               0.000000000               0.000258861               0.001741518               0.000415578              -0.000120617               0.000620706               0.000500089               0.000000000               0.000000000               0.000000000               0.000000000               0.000241356               0.001814966               0.000346401              -0.000136362               0.000650437               0.000514074               0.000000000               0.000000000               0.000000000               0.000000000               0.000230228               0.001875733               0.000285361              -0.000148131               0.000674615               0.000526484               0.000000000               0.000000000               0.000000000               0.000000000               0.000215616               0.001928687               0.000232619              -0.000160230               0.000696299               0.000536069               0.000000000               0.000000000               0.000000000               0.000000000               0.000195899               0.001981601               0.000190842              -0.000174237               0.000718606               0.000544369               0.000000000               0.000000000               0.000000000               0.000000000               0.000174304               0.002032992               0.000157978              -0.000188759               0.000740577               0.000551817               0.000000000               0.000000000               0.000000000               0.000000000               0.000153564               0.002080795               0.000125021              -0.000202512               0.000761096               0.000558583               0.000000000               0.000000000               0.000000000               0.000000000               0.000136485               0.002125652               0.000094286              -0.000214524               0.000780052               0.000565527               0.000000000               0.000000000               0.000000000               0.000000000               0.000126361               0.002171496               0.000068204              -0.000224051               0.000798508               0.000574457               0.000000000               0.000000000               0.000000000               0.000000000               0.000124942               0.002231217               0.000043786              -0.000232048               0.000821081               0.000589033               0.000000000               0.000000000               0.000000000               0.000000000               0.000126671               0.002315049               0.000023760              -0.000241879               0.000852301               0.000610423               0.000000000               0.000000000               0.000000000               0.000000000               0.000126408               0.002420508               0.000009829              -0.000255160               0.000891881               0.000636721               0.000000000               0.000000000               0.000000000               0.000000000               0.000118040               0.002470057               0.000000929              -0.000264491               0.000911508               0.000647016               0.000000000               0.000000000               0.000000000               0.000000000               0.000656729               0.000658861               0.000566022               0.000163914               0.000164980               0.000328894               0.000000000               0.000000000               0.000000000               0.000000000               0.000562729               0.000905097               0.000598768               0.000097885               0.000269067               0.000366952               0.000000000               0.000000000               0.000000000               0.000000000               0.000426073               0.001242637               0.000590462               0.000004447               0.000412726               0.000417173               0.000000000               0.000000000               0.000000000               0.000000000               0.000351817               0.001447003               0.000523428              -0.000048945               0.000498644               0.000449699               0.000000000               0.000000000               0.000000000               0.000000000               0.000313210               0.001585467               0.000451057              -0.000080730               0.000555394               0.000474664               0.000000000               0.000000000               0.000000000               0.000000000               0.000289232               0.001688062               0.000383793              -0.000102546               0.000596864               0.000494318               0.000000000               0.000000000               0.000000000               0.000000000               0.000271667               0.001767685               0.000321466              -0.000119085               0.000628918               0.000509832               0.000000000               0.000000000               0.000000000               0.000000000               0.000253040               0.001833730               0.000266297              -0.000134326               0.000656013               0.000521686               0.000000000               0.000000000               0.000000000               0.000000000               0.000234824               0.001899003               0.000223486              -0.000149316               0.000682767               0.000533450               0.000000000               0.000000000               0.000000000               0.000000000               0.000214205               0.001964889               0.000187200              -0.000165284               0.000710051               0.000544767               0.000000000               0.000000000               0.000000000               0.000000000               0.000192687               0.002029511               0.000151372              -0.000181431               0.000736974               0.000555543               0.000000000               0.000000000               0.000000000               0.000000000               0.000173924               0.002090285               0.000120524              -0.000196064               0.000762109               0.000566046               0.000000000               0.000000000               0.000000000               0.000000000               0.000164363               0.002148283               0.000097532              -0.000206899               0.000785053               0.000578155               0.000000000               0.000000000               0.000000000               0.000000000               0.000163748               0.002209469               0.000073647              -0.000214777               0.000808075               0.000593297               0.000000000               0.000000000               0.000000000               0.000000000               0.000165836               0.002295281               0.000044092              -0.000224721               0.000839993               0.000615272               0.000000000               0.000000000               0.000000000               0.000000000               0.000164227               0.002409694               0.000018190              -0.000239626               0.000883098               0.000643473               0.000000000               0.000000000               0.000000000               0.000000000               0.000150165               0.002462607               0.000003911              -0.000251514               0.000904699               0.000653185               0.000000000               0.000000000               0.000000000               0.000000000               0.000554803               0.000432498               0.000430109               0.000153987               0.000092835               0.000246822               0.000000000               0.000000000               0.000000000               0.000000000               0.000552772               0.000676023               0.000507143               0.000122785               0.000184410               0.000307195               0.000000000               0.000000000               0.000000000               0.000000000               0.000484630               0.001006970               0.000548070               0.000055864               0.000317032               0.000372896               0.000000000               0.000000000               0.000000000               0.000000000               0.000425478               0.001236082               0.000509455               0.000005043               0.000410342               0.000415385               0.000000000               0.000000000               0.000000000               0.000000000               0.000381186               0.001406046               0.000452584              -0.000032811               0.000479614               0.000446803               0.000000000               0.000000000               0.000000000               0.000000000               0.000349770               0.001537620               0.000393429              -0.000061039               0.000532881               0.000471842               0.000000000               0.000000000               0.000000000               0.000000000               0.000322696               0.001637060               0.000334591              -0.000083622               0.000573555               0.000489933               0.000000000               0.000000000               0.000000000               0.000000000               0.000298860               0.001720997               0.000282113              -0.000103052               0.000608010               0.000504959               0.000000000               0.000000000               0.000000000               0.000000000               0.000276505               0.001801185               0.000240300              -0.000121459               0.000640875               0.000519416               0.000000000               0.000000000               0.000000000               0.000000000               0.000254583               0.001880981               0.000204340              -0.000139654               0.000673539               0.000533885               0.000000000               0.000000000               0.000000000               0.000000000               0.000237135               0.001960908               0.000170247              -0.000156187               0.000705692               0.000549505               0.000000000               0.000000000               0.000000000               0.000000000               0.000224400               0.002036821               0.000143495              -0.000170452               0.000735751               0.000565299               0.000000000               0.000000000               0.000000000               0.000000000               0.000215283               0.002114049               0.000124132              -0.000183525               0.000765851               0.000582326               0.000000000               0.000000000               0.000000000               0.000000000               0.000210046               0.002193309               0.000098572              -0.000195396               0.000796228               0.000600832               0.000000000               0.000000000               0.000000000               0.000000000               0.000209050               0.002285140               0.000063535              -0.000207248               0.000830789               0.000623540               0.000000000               0.000000000               0.000000000               0.000000000               0.000209869               0.002401587               0.000029012              -0.000221497               0.000874353               0.000652856               0.000000000               0.000000000               0.000000000               0.000000000               0.000197332               0.002457826               0.000009699              -0.000233228               0.000897010               0.000663782               0.000000000               0.000000000               0.000000000               0.000000000               0.000444253               0.000260722               0.000300187               0.000134003               0.000042239               0.000176242               0.000000000               0.000000000               0.000000000               0.000000000               0.000533428               0.000481819               0.000395005               0.000139807               0.000114002               0.000253809               0.000000000               0.000000000               0.000000000               0.000000000               0.000538146               0.000785954               0.000461266               0.000103559               0.000227462               0.000331021               0.000000000               0.000000000               0.000000000               0.000000000               0.000502408               0.001027542               0.000446658               0.000059959               0.000322524               0.000382483               0.000000000               0.000000000               0.000000000               0.000000000               0.000458705               0.001221827               0.000407780               0.000019285               0.000400843               0.000420128               0.000000000               0.000000000               0.000000000               0.000000000               0.000418623               0.001375841               0.000360805              -0.000014997               0.000463608               0.000448611               0.000000000               0.000000000               0.000000000               0.000000000               0.000381383               0.001494282               0.000311306              -0.000043767               0.000512678               0.000468911               0.000000000               0.000000000               0.000000000               0.000000000               0.000351995               0.001596395               0.000266442              -0.000067551               0.000554643               0.000487092               0.000000000               0.000000000               0.000000000               0.000000000               0.000325818               0.001690254               0.000228595              -0.000089100               0.000593112               0.000504012               0.000000000               0.000000000               0.000000000               0.000000000               0.000303995               0.001783381               0.000197615              -0.000108924               0.000630762               0.000521838               0.000000000               0.000000000               0.000000000               0.000000000               0.000287681               0.001875008               0.000171801              -0.000126496               0.000667162               0.000540666               0.000000000               0.000000000               0.000000000               0.000000000               0.000278518               0.001967176               0.000150015              -0.000141452               0.000702869               0.000561417               0.000000000               0.000000000               0.000000000               0.000000000               0.000269874               0.002069394               0.000130251              -0.000157471               0.000742282               0.000584810               0.000000000               0.000000000               0.000000000               0.000000000               0.000262461               0.002176898               0.000107215              -0.000173689               0.000783522               0.000609833               0.000000000               0.000000000               0.000000000               0.000000000               0.000264217               0.002285707               0.000076214              -0.000186631               0.000824105               0.000637474               0.000000000               0.000000000               0.000000000               0.000000000               0.000272279               0.002405194               0.000038838              -0.000198544               0.000867905               0.000669361               0.000000000               0.000000000               0.000000000               0.000000000               0.000266784               0.002463549               0.000016765              -0.000207899               0.000890474               0.000682575               0.000000000               0.000000000               0.000000000               0.000000000               0.000343400               0.000146014               0.000185323               0.000110522               0.000011830               0.000122352               0.000000000               0.000000000               0.000000000               0.000000000               0.000509453               0.000333716               0.000269393               0.000149329               0.000061461               0.000210790               0.000000000               0.000000000               0.000000000               0.000000000               0.000581760               0.000604403               0.000333799               0.000142608               0.000153929               0.000296538               0.000000000               0.000000000               0.000000000               0.000000000               0.000571041               0.000849212               0.000333375               0.000107988               0.000247072               0.000355060               0.000000000               0.000000000               0.000000000               0.000000000               0.000532368               0.001056329               0.000311150               0.000067596               0.000329574               0.000397170               0.000000000               0.000000000               0.000000000               0.000000000               0.000485860               0.001226347               0.000278687               0.000028904               0.000399144               0.000428047               0.000000000               0.000000000               0.000000000               0.000000000               0.000442130               0.001362141               0.000243586              -0.000004469               0.000455532               0.000451063               0.000000000               0.000000000               0.000000000               0.000000000               0.000404183               0.001475849               0.000210859              -0.000032913               0.000502916               0.000470003               0.000000000               0.000000000               0.000000000               0.000000000               0.000375651               0.001582168               0.000182849              -0.000056902               0.000546351               0.000489450               0.000000000               0.000000000               0.000000000               0.000000000               0.000354004               0.001686681               0.000160304              -0.000078083               0.000588249               0.000510166               0.000000000               0.000000000               0.000000000               0.000000000               0.000336847               0.001793055               0.000142059              -0.000097814               0.000630284               0.000532470               0.000000000               0.000000000               0.000000000               0.000000000               0.000323874               0.001907309               0.000126465              -0.000116960               0.000674750               0.000557790               0.000000000               0.000000000               0.000000000               0.000000000               0.000320096               0.002030254               0.000110384              -0.000133746               0.000721326               0.000587581               0.000000000               0.000000000               0.000000000               0.000000000               0.000321821               0.002160178               0.000093707              -0.000149339               0.000769832               0.000620493               0.000000000               0.000000000               0.000000000               0.000000000               0.000328184               0.002288648               0.000073417              -0.000163012               0.000817212               0.000654201               0.000000000               0.000000000               0.000000000               0.000000000               0.000345427               0.002412668               0.000041896              -0.000172048               0.000861564               0.000689516               0.000000000               0.000000000               0.000000000               0.000000000               0.000352968               0.002471812               0.000021334              -0.000176613               0.000882800               0.000706187               0.000000000               0.000000000               0.000000000               0.000000000               0.000273306               0.000082465               0.000087167               0.000092181              -0.000003239               0.000088942               0.000000000               0.000000000               0.000000000               0.000000000               0.000488711               0.000241700               0.000135958               0.000153052               0.000029548               0.000182601               0.000000000               0.000000000               0.000000000               0.000000000               0.000608887               0.000484567               0.000175248               0.000167760               0.000105601               0.000273361               0.000000000               0.000000000               0.000000000               0.000000000               0.000619174               0.000727603               0.000178562               0.000141238               0.000195453               0.000336691               0.000000000               0.000000000               0.000000000               0.000000000               0.000585485               0.000940251               0.000168692               0.000102025               0.000279406               0.000381430               0.000000000               0.000000000               0.000000000               0.000000000               0.000536651               0.001119994               0.000152797               0.000061244               0.000352913               0.000414157               0.000000000               0.000000000               0.000000000               0.000000000               0.000488246               0.001267278               0.000134219               0.000024682               0.000414194               0.000438877               0.000000000               0.000000000               0.000000000               0.000000000               0.000445118               0.001389245               0.000117063              -0.000006736               0.000465323               0.000458586               0.000000000               0.000000000               0.000000000               0.000000000               0.000411727               0.001502608               0.000103497              -0.000033428               0.000512007               0.000478579               0.000000000               0.000000000               0.000000000               0.000000000               0.000386113               0.001614755               0.000091894              -0.000057052               0.000557264               0.000500212               0.000000000               0.000000000               0.000000000               0.000000000               0.000368925               0.001734898               0.000080322              -0.000078515               0.000604465               0.000525950               0.000000000               0.000000000               0.000000000               0.000000000               0.000359235               0.001865604               0.000071980              -0.000098487               0.000654691               0.000556204               0.000000000               0.000000000               0.000000000               0.000000000               0.000358547               0.002001911               0.000065751              -0.000115783               0.000705891               0.000590108               0.000000000               0.000000000               0.000000000               0.000000000               0.000368997               0.002148085               0.000055071              -0.000130137               0.000759400               0.000629264               0.000000000               0.000000000               0.000000000               0.000000000               0.000385864               0.002292117               0.000044603              -0.000141815               0.000811303               0.000669488               0.000000000               0.000000000               0.000000000               0.000000000               0.000410557               0.002420301               0.000030194              -0.000148578               0.000856285               0.000707707               0.000000000               0.000000000               0.000000000               0.000000000               0.000427890               0.002480146               0.000019517              -0.000149559               0.000876560               0.000727001               0.000000000               0.000000000               0.000000000               0.000000000               0.000248208               0.000061878              -0.000000000               0.000085342              -0.000007822               0.000077520               0.000000000               0.000000000               0.000000000               0.000000000               0.000480113               0.000210416              -0.000000000               0.000153739               0.000018892               0.000172630               0.000000000               0.000000000               0.000000000               0.000000000               0.000617553               0.000442667              -0.000000000               0.000176247               0.000088805               0.000265052               0.000000000               0.000000000               0.000000000               0.000000000               0.000636595               0.000684159               0.000000000               0.000153202               0.000176983               0.000330185               0.000000000               0.000000000               0.000000000               0.000000000               0.000604754               0.000898380              -0.000000000               0.000114484               0.000261295               0.000375780               0.000000000               0.000000000               0.000000000               0.000000000               0.000556079               0.001081593               0.000000000               0.000073330               0.000336084               0.000409414               0.000000000               0.000000000               0.000000000               0.000000000               0.000504381               0.001231178              -0.000000000               0.000035245               0.000398640               0.000433885               0.000000000               0.000000000               0.000000000               0.000000000               0.000461201               0.001358292              -0.000000000               0.000003164               0.000451705               0.000454869               0.000000000               0.000000000               0.000000000               0.000000000               0.000425253               0.001476324               0.000000000              -0.000025071               0.000500460               0.000475389               0.000000000               0.000000000               0.000000000               0.000000000               0.000396858               0.001590167              -0.000000000              -0.000049949               0.000546700               0.000496751               0.000000000               0.000000000               0.000000000               0.000000000               0.000378735               0.001710855              -0.000000000              -0.000071831               0.000594223               0.000522392               0.000000000               0.000000000               0.000000000               0.000000000               0.000374498               0.001845850               0.000000000              -0.000090294               0.000645375               0.000555081               0.000000000               0.000000000               0.000000000               0.000000000               0.000374845               0.001992347              -0.000000000              -0.000108476               0.000700268               0.000591791               0.000000000               0.000000000               0.000000000               0.000000000               0.000385140               0.002144745              -0.000000000              -0.000123666               0.000756130               0.000632464               0.000000000               0.000000000               0.000000000               0.000000000               0.000409056               0.002292663               0.000000000              -0.000133186               0.000808609               0.000675422               0.000000000               0.000000000               0.000000000               0.000000000               0.000438150               0.002426204               0.000000000              -0.000138969               0.000855050               0.000716081               0.000000000               0.000000000               0.000000000               0.000000000               0.000457888               0.002488492              -0.000000000              -0.000139353               0.000875940               0.000736587               0.000000000               0.000000000               0.000000000               0.000000000               0.000336108               0.003798622              -0.000000000              -0.000348786               0.001382457               0.001033670               0.000000000               0.000000000               0.000000000               0.000000000               0.000388165               0.003170791              -0.000000000              -0.000250787               0.001140515               0.000889729               0.000000000               0.000000000               0.000000000               0.000000000               0.000557171               0.002660553              -0.000000000              -0.000123629               0.000928052               0.000804422               0.000000000               0.000000000               0.000000000               0.000000000               0.000600634               0.002378384              -0.000000000              -0.000072060               0.000816807               0.000744747               0.000000000               0.000000000               0.000000000               0.000000000               0.000587961               0.002215455              -0.000000000              -0.000056446               0.000757293               0.000700847               0.000000000               0.000000000               0.000000000               0.000000000               0.000547896               0.002120645              -0.000000000              -0.000059620               0.000726748               0.000667128               0.000000000               0.000000000               0.000000000               0.000000000               0.000498347               0.002069290               0.000000000              -0.000071781               0.000713683               0.000641902               0.000000000               0.000000000               0.000000000               0.000000000               0.000442386               0.002040348               0.000000000              -0.000089149               0.000709825               0.000620677               0.000000000               0.000000000               0.000000000               0.000000000               0.000384049               0.002028789               0.000000000              -0.000109580               0.000712783               0.000603203               0.000000000               0.000000000               0.000000000               0.000000000               0.000328493               0.002028694              -0.000000000              -0.000130402               0.000719692               0.000589290               0.000000000               0.000000000               0.000000000               0.000000000               0.000270873               0.002037537              -0.000000000              -0.000153114               0.000730210               0.000577096               0.000000000               0.000000000               0.000000000               0.000000000               0.000209923               0.002052681               0.000000000              -0.000177863               0.000743508               0.000565645               0.000000000               0.000000000               0.000000000               0.000000000               0.000156097               0.002079572               0.000000000              -0.000201410               0.000760320               0.000558911               0.000000000               0.000000000               0.000000000               0.000000000               0.000109703               0.002110782               0.000000000              -0.000222709               0.000777823               0.000555115               0.000000000               0.000000000               0.000000000               0.000000000               0.000068250               0.002142996               0.000000000              -0.000242280               0.000795085               0.000552805               0.000000000               0.000000000               0.000000000               0.000000000               0.000031809               0.002173948               0.000000000              -0.000259814               0.000811247               0.000551432               0.000000000               0.000000000               0.000000000               0.000000000               0.000018299               0.002197690              -0.000000000              -0.000267848               0.000821839               0.000553990               0.000000000               0.000000000               0.000000000               0.000000000               0.000359851               0.003738984              -0.000297976              -0.000332428               0.001357125               0.001024697               0.000000000               0.000000000               0.000000000               0.000000000               0.000397530               0.003127720              -0.000201063              -0.000241891               0.001123193               0.000881303               0.000000000               0.000000000               0.000000000               0.000000000               0.000550308               0.002635864              -0.000099855              -0.000123117               0.000919652               0.000796534               0.000000000               0.000000000               0.000000000               0.000000000               0.000586536               0.002365129              -0.000050678              -0.000075690               0.000813598               0.000737908               0.000000000               0.000000000               0.000000000               0.000000000               0.000571558               0.002209383              -0.000026022              -0.000061839               0.000757067               0.000695228               0.000000000               0.000000000               0.000000000               0.000000000               0.000531838               0.002118433              -0.000013115              -0.000065365               0.000727925               0.000662561               0.000000000               0.000000000               0.000000000               0.000000000               0.000481750               0.002066412              -0.000007223              -0.000077645               0.000714679               0.000637034               0.000000000               0.000000000               0.000000000               0.000000000               0.000427577               0.002040444              -0.000005284              -0.000094714               0.000711713               0.000616999               0.000000000               0.000000000               0.000000000               0.000000000               0.000371056               0.002029288              -0.000004960              -0.000114515               0.000714594               0.000600079               0.000000000               0.000000000               0.000000000               0.000000000               0.000315702               0.002029316              -0.000004925              -0.000135276               0.000721524               0.000586248               0.000000000               0.000000000               0.000000000               0.000000000               0.000260193               0.002038044              -0.000004390              -0.000157183               0.000731736               0.000574553               0.000000000               0.000000000               0.000000000               0.000000000               0.000204939               0.002055227              -0.000001661              -0.000180051               0.000745086               0.000565035               0.000000000               0.000000000               0.000000000               0.000000000               0.000152970               0.002079544               0.000000273              -0.000202579               0.000760701               0.000558122               0.000000000               0.000000000               0.000000000               0.000000000               0.000105719               0.002108045              -0.000001289              -0.000223861               0.000777295               0.000553434               0.000000000               0.000000000               0.000000000               0.000000000               0.000065564               0.002138189              -0.000004038              -0.000242687               0.000793618               0.000550931               0.000000000               0.000000000               0.000000000               0.000000000               0.000031309               0.002168449              -0.000005526              -0.000259315               0.000809247               0.000549933               0.000000000               0.000000000               0.000000000               0.000000000               0.000018153               0.002191516              -0.000005811              -0.000267132               0.000819542               0.000552410               0.000000000               0.000000000               0.000000000               0.000000000               0.000424768               0.003569703              -0.000565571              -0.000286924               0.001285531               0.000998606               0.000000000               0.000000000               0.000000000               0.000000000               0.000422410               0.003005652              -0.000382223              -0.000217302               0.001074308               0.000857006               0.000000000               0.000000000               0.000000000               0.000000000               0.000531764               0.002569391              -0.000191411              -0.000121762               0.000897043               0.000775280               0.000000000               0.000000000               0.000000000               0.000000000               0.000548293               0.002331572              -0.000100296              -0.000085837               0.000805795               0.000719958               0.000000000               0.000000000               0.000000000               0.000000000               0.000524988               0.002194220              -0.000055484              -0.000077407               0.000757201               0.000679795               0.000000000               0.000000000               0.000000000               0.000000000               0.000485347               0.002113068              -0.000033705              -0.000082128               0.000731725               0.000649597               0.000000000               0.000000000               0.000000000               0.000000000               0.000439340               0.002066687              -0.000022823              -0.000093583               0.000720083               0.000626500               0.000000000               0.000000000               0.000000000               0.000000000               0.000388647               0.002041630              -0.000018296              -0.000109461               0.000717024               0.000607563               0.000000000               0.000000000               0.000000000               0.000000000               0.000337470               0.002030640              -0.000017057              -0.000127278               0.000719299               0.000592021               0.000000000               0.000000000               0.000000000               0.000000000               0.000287203               0.002030994              -0.000015454              -0.000146173               0.000725715               0.000579543               0.000000000               0.000000000               0.000000000               0.000000000               0.000235196               0.002039785              -0.000011994              -0.000166774               0.000735513               0.000568739               0.000000000               0.000000000               0.000000000               0.000000000               0.000182817               0.002056536              -0.000007299              -0.000188510               0.000748342               0.000559832               0.000000000               0.000000000               0.000000000               0.000000000               0.000133267               0.002077547              -0.000005553              -0.000209718               0.000762415               0.000552697               0.000000000               0.000000000               0.000000000               0.000000000               0.000092873               0.002100051              -0.000007592              -0.000227679               0.000775903               0.000548224               0.000000000               0.000000000               0.000000000               0.000000000               0.000061028               0.002122621              -0.000010928              -0.000242442               0.000788347               0.000545906               0.000000000               0.000000000               0.000000000               0.000000000               0.000029702               0.002145280              -0.000010885              -0.000257021               0.000800760               0.000543739               0.000000000               0.000000000               0.000000000               0.000000000               0.000016405               0.002164003              -0.000010055              -0.000264348               0.000809443               0.000545095               0.000000000               0.000000000               0.000000000               0.000000000               0.000513651               0.003311039              -0.000780920              -0.000221261               0.001177422               0.000956161               0.000000000               0.000000000               0.000000000               0.000000000               0.000453759               0.002821736              -0.000528673              -0.000182557               0.001001422               0.000818864               0.000000000               0.000000000               0.000000000               0.000000000               0.000500771               0.002473651              -0.000269037              -0.000121417               0.000865014               0.000743597               0.000000000               0.000000000               0.000000000               0.000000000               0.000491313               0.002284050              -0.000150242              -0.000101264               0.000795097               0.000693833               0.000000000               0.000000000               0.000000000               0.000000000               0.000458472               0.002170872              -0.000092986              -0.000099432               0.000756761               0.000657329               0.000000000               0.000000000               0.000000000               0.000000000               0.000418692               0.002103363              -0.000064080              -0.000105911               0.000736418               0.000630507               0.000000000               0.000000000               0.000000000               0.000000000               0.000378092               0.002063241              -0.000049424              -0.000116120               0.000726447               0.000610326               0.000000000               0.000000000               0.000000000               0.000000000               0.000335392               0.002039796              -0.000041875              -0.000129202               0.000722993               0.000593790               0.000000000               0.000000000               0.000000000               0.000000000               0.000293159               0.002030149              -0.000037141              -0.000143834               0.000724654               0.000580820               0.000000000               0.000000000               0.000000000               0.000000000               0.000250014               0.002031436              -0.000032000              -0.000160174               0.000730530               0.000570356               0.000000000               0.000000000               0.000000000               0.000000000               0.000203289               0.002041357              -0.000024847              -0.000178936               0.000740091               0.000561155               0.000000000               0.000000000               0.000000000               0.000000000               0.000156439               0.002057466              -0.000017027              -0.000198518               0.000751988               0.000553470               0.000000000               0.000000000               0.000000000               0.000000000               0.000115137               0.002073902              -0.000014706              -0.000216061               0.000763314               0.000547253               0.000000000               0.000000000               0.000000000               0.000000000               0.000081446               0.002086105              -0.000017992              -0.000230220               0.000772101               0.000541881               0.000000000               0.000000000               0.000000000               0.000000000               0.000053915               0.002096606              -0.000019378              -0.000241857               0.000779481               0.000537624               0.000000000               0.000000000               0.000000000               0.000000000               0.000027686               0.002110822              -0.000013710              -0.000253470               0.000788090               0.000534620               0.000000000               0.000000000               0.000000000               0.000000000               0.000016553               0.002124596              -0.000009572              -0.000259366               0.000794647               0.000535281               0.000000000               0.000000000               0.000000000               0.000000000               0.000608071               0.002986371              -0.000931939              -0.000145270               0.001043870               0.000898600               0.000000000               0.000000000               0.000000000               0.000000000               0.000482714               0.002598106              -0.000634162              -0.000143745               0.000913942               0.000770196               0.000000000               0.000000000               0.000000000               0.000000000               0.000457844               0.002357717              -0.000332804              -0.000123023               0.000826906               0.000703883               0.000000000               0.000000000               0.000000000               0.000000000               0.000420783               0.002220959              -0.000201313              -0.000119826               0.000780254               0.000660428               0.000000000               0.000000000               0.000000000               0.000000000               0.000382706               0.002136803              -0.000137319              -0.000123585               0.000753456               0.000629870               0.000000000               0.000000000               0.000000000               0.000000000               0.000346239               0.002085769              -0.000103674              -0.000130881               0.000738876               0.000607995               0.000000000               0.000000000               0.000000000               0.000000000               0.000313668               0.002054602              -0.000084468              -0.000139199               0.000731260               0.000592061               0.000000000               0.000000000               0.000000000               0.000000000               0.000281335               0.002038399              -0.000072415              -0.000149299               0.000729226               0.000579927               0.000000000               0.000000000               0.000000000               0.000000000               0.000247466               0.002031533              -0.000062164              -0.000161141               0.000730885               0.000569743               0.000000000               0.000000000               0.000000000               0.000000000               0.000211173               0.002035703              -0.000050966              -0.000175273               0.000736985               0.000561712               0.000000000               0.000000000               0.000000000               0.000000000               0.000169103               0.002045605              -0.000037614              -0.000192287               0.000745957               0.000553670               0.000000000               0.000000000               0.000000000               0.000000000               0.000131806               0.002058786              -0.000026437              -0.000207920               0.000755562               0.000547641               0.000000000               0.000000000               0.000000000               0.000000000               0.000100656               0.002066829              -0.000023643              -0.000220607               0.000762472               0.000541865               0.000000000               0.000000000               0.000000000               0.000000000               0.000073723               0.002072248              -0.000026613              -0.000231384               0.000767871               0.000536486               0.000000000               0.000000000               0.000000000               0.000000000               0.000050879               0.002077893              -0.000023349              -0.000240656               0.000772843               0.000532187               0.000000000               0.000000000               0.000000000               0.000000000               0.000026393               0.002087643              -0.000010898              -0.000251057               0.000779560               0.000528502               0.000000000               0.000000000               0.000000000               0.000000000               0.000014589               0.002096681              -0.000004289              -0.000256614               0.000784425               0.000527811               0.000000000               0.000000000               0.000000000               0.000000000               0.000692600               0.002621752              -0.001012381              -0.000067995               0.000896573               0.000828578               0.000000000               0.000000000               0.000000000               0.000000000               0.000501993               0.002353488              -0.000699701              -0.000105939               0.000819801               0.000713862               0.000000000               0.000000000               0.000000000               0.000000000               0.000407141               0.002231184              -0.000386497              -0.000126220               0.000785794               0.000659574               0.000000000               0.000000000               0.000000000               0.000000000               0.000350535               0.002149913              -0.000252451              -0.000137288               0.000762393               0.000625105               0.000000000               0.000000000               0.000000000               0.000000000               0.000313575               0.002098956              -0.000185665              -0.000144779               0.000747905               0.000603126               0.000000000               0.000000000               0.000000000               0.000000000               0.000282487               0.002065465              -0.000147029              -0.000152250               0.000739232               0.000586981               0.000000000               0.000000000               0.000000000               0.000000000               0.000257061               0.002045876              -0.000122294              -0.000159336               0.000735064               0.000575728               0.000000000               0.000000000               0.000000000               0.000000000               0.000233190               0.002035483              -0.000103535              -0.000166989               0.000734150               0.000567162               0.000000000               0.000000000               0.000000000               0.000000000               0.000206456               0.002034335              -0.000085343              -0.000176871               0.000737062               0.000560191               0.000000000               0.000000000               0.000000000               0.000000000               0.000175487               0.002042590              -0.000066279              -0.000189516               0.000744028               0.000554513               0.000000000               0.000000000               0.000000000               0.000000000               0.000142879               0.002055022              -0.000047194              -0.000203298               0.000752766               0.000549469               0.000000000               0.000000000               0.000000000               0.000000000               0.000114290               0.002062954              -0.000033010              -0.000215010               0.000759315               0.000544304               0.000000000               0.000000000               0.000000000               0.000000000               0.000092057               0.002066662              -0.000027542              -0.000223811               0.000763484               0.000539673               0.000000000               0.000000000               0.000000000               0.000000000               0.000069979               0.002071269              -0.000027189              -0.000232666               0.000767971               0.000535305               0.000000000               0.000000000               0.000000000               0.000000000               0.000046235               0.002079605              -0.000021239              -0.000242612               0.000774065               0.000531453               0.000000000               0.000000000               0.000000000               0.000000000               0.000023040               0.002091358              -0.000007120              -0.000252779               0.000781372               0.000528593               0.000000000               0.000000000               0.000000000               0.000000000               0.000013952               0.002100519              -0.000001130              -0.000257332               0.000785943               0.000528611               0.000000000               0.000000000               0.000000000               0.000000000               0.000749812               0.002244409              -0.001027080               0.000000627               0.000747920               0.000748547               0.000000000               0.000000000               0.000000000               0.000000000               0.000510665               0.002105246              -0.000730611              -0.000071657               0.000725627               0.000653970               0.000000000               0.000000000               0.000000000               0.000000000               0.000359120               0.002104460              -0.000431924              -0.000128388               0.000744276               0.000615888               0.000000000               0.000000000               0.000000000               0.000000000               0.000292527               0.002078417              -0.000301940              -0.000150104               0.000742833               0.000592729               0.000000000               0.000000000               0.000000000               0.000000000               0.000259452               0.002057247              -0.000232609              -0.000159861               0.000739029               0.000579168               0.000000000               0.000000000               0.000000000               0.000000000               0.000233554               0.002040359              -0.000188071              -0.000167462               0.000735934               0.000568472               0.000000000               0.000000000               0.000000000               0.000000000               0.000213957               0.002032867              -0.000155762              -0.000173874               0.000735574               0.000561700               0.000000000               0.000000000               0.000000000               0.000000000               0.000195413               0.002032120              -0.000128188              -0.000180735               0.000737611               0.000556877               0.000000000               0.000000000               0.000000000               0.000000000               0.000171134               0.002041297              -0.000102440              -0.000190986               0.000744088               0.000553101               0.000000000               0.000000000               0.000000000               0.000000000               0.000146150               0.002057057              -0.000075709              -0.000202325               0.000753120               0.000550795               0.000000000               0.000000000               0.000000000               0.000000000               0.000125187               0.002073413              -0.000053391              -0.000212231               0.000761875               0.000549643               0.000000000               0.000000000               0.000000000               0.000000000               0.000105875               0.002079835              -0.000039165              -0.000220276               0.000766697               0.000546421               0.000000000               0.000000000               0.000000000               0.000000000               0.000089330               0.002083500              -0.000031393              -0.000226938               0.000770139               0.000543201               0.000000000               0.000000000               0.000000000               0.000000000               0.000069161               0.002090754              -0.000026512              -0.000235408               0.000775381               0.000539972               0.000000000               0.000000000               0.000000000               0.000000000               0.000045169               0.002106770              -0.000017093              -0.000246407               0.000784386               0.000537978               0.000000000               0.000000000               0.000000000               0.000000000               0.000021151               0.002126402              -0.000004370              -0.000257868               0.000794750               0.000536881               0.000000000               0.000000000               0.000000000               0.000000000               0.000012772               0.002140614              -0.000001285              -0.000262786               0.000801126               0.000538340               0.000000000               0.000000000               0.000000000               0.000000000               0.000775238               0.001876340              -0.000987219               0.000056170               0.000606717               0.000662887               0.000000000               0.000000000               0.000000000               0.000000000               0.000509328               0.001870467              -0.000733683              -0.000042811               0.000637753               0.000594942               0.000000000               0.000000000               0.000000000               0.000000000               0.000321539               0.001981877              -0.000469974              -0.000127158               0.000703005               0.000575847               0.000000000               0.000000000               0.000000000               0.000000000               0.000252983               0.002003586              -0.000345630              -0.000155579               0.000719715               0.000564136               0.000000000               0.000000000               0.000000000               0.000000000               0.000222983               0.002007408              -0.000271876              -0.000167307               0.000724898               0.000557591               0.000000000               0.000000000               0.000000000               0.000000000               0.000203741               0.002010797              -0.000219526              -0.000174946               0.000728574               0.000553628               0.000000000               0.000000000               0.000000000               0.000000000               0.000186186               0.002019038              -0.000178062              -0.000182560               0.000733859               0.000551300               0.000000000               0.000000000               0.000000000               0.000000000               0.000167872               0.002035282              -0.000143985              -0.000191458               0.000742240               0.000550782               0.000000000               0.000000000               0.000000000               0.000000000               0.000146541               0.002060209              -0.000112400              -0.000202573               0.000754254               0.000551681               0.000000000               0.000000000               0.000000000               0.000000000               0.000126911               0.002085812              -0.000081934              -0.000213134               0.000766308               0.000553174               0.000000000               0.000000000               0.000000000               0.000000000               0.000112087               0.002101837              -0.000058646              -0.000220697               0.000774171               0.000553474               0.000000000               0.000000000               0.000000000               0.000000000               0.000098702               0.002110855              -0.000045136              -0.000226843               0.000779226               0.000552383               0.000000000               0.000000000               0.000000000               0.000000000               0.000082461               0.002123276              -0.000034807              -0.000234486               0.000785914               0.000551427               0.000000000               0.000000000               0.000000000               0.000000000               0.000063308               0.002148428              -0.000023824              -0.000244812               0.000797740               0.000552927               0.000000000               0.000000000               0.000000000               0.000000000               0.000043472               0.002186571              -0.000010462              -0.000257019               0.000814522               0.000557504               0.000000000               0.000000000               0.000000000               0.000000000               0.000021462               0.002228227              -0.000000743              -0.000270479               0.000832895               0.000562415               0.000000000               0.000000000               0.000000000               0.000000000               0.000012759               0.002257477              -0.000001314              -0.000277399               0.000844951               0.000567552               0.000000000               0.000000000               0.000000000               0.000000000               0.000787046               0.001549011              -0.000909384               0.000101514               0.000482493               0.000584008               0.000000000               0.000000000               0.000000000               0.000000000               0.000515563               0.001659760              -0.000722256              -0.000014135               0.000557959               0.000543824               0.000000000               0.000000000               0.000000000               0.000000000               0.000307293               0.001865885              -0.000509917              -0.000118001               0.000661289               0.000543288               0.000000000               0.000000000               0.000000000               0.000000000               0.000238540               0.001930914              -0.000389419              -0.000151912               0.000694269               0.000542357               0.000000000               0.000000000               0.000000000               0.000000000               0.000211254               0.001961582              -0.000310085              -0.000165977               0.000709180               0.000543203               0.000000000               0.000000000               0.000000000               0.000000000               0.000197907               0.001987146              -0.000249907              -0.000174178               0.000720435               0.000546257               0.000000000               0.000000000               0.000000000               0.000000000               0.000182984               0.002011870              -0.000200314              -0.000182864               0.000731572               0.000548707               0.000000000               0.000000000               0.000000000               0.000000000               0.000162208               0.002044501              -0.000159910              -0.000194734               0.000746405               0.000551671               0.000000000               0.000000000               0.000000000               0.000000000               0.000141074               0.002083230              -0.000124143              -0.000207500               0.000763570               0.000556069               0.000000000               0.000000000               0.000000000               0.000000000               0.000123497               0.002113994              -0.000093699              -0.000217937               0.000777303               0.000559366               0.000000000               0.000000000               0.000000000               0.000000000               0.000109376               0.002130522              -0.000070195              -0.000225299               0.000785267               0.000559968               0.000000000               0.000000000               0.000000000               0.000000000               0.000097537               0.002146193              -0.000051997              -0.000231697               0.000792623               0.000560926               0.000000000               0.000000000               0.000000000               0.000000000               0.000085851               0.002177193              -0.000033673              -0.000239954               0.000805708               0.000565754               0.000000000               0.000000000               0.000000000               0.000000000               0.000071934               0.002229942              -0.000014765              -0.000251767               0.000827229               0.000575462               0.000000000               0.000000000               0.000000000               0.000000000               0.000056727               0.002297447              -0.000000246              -0.000265907               0.000854444               0.000588536               0.000000000               0.000000000               0.000000000               0.000000000               0.000045308               0.002369081               0.000006614              -0.000279144               0.000882734               0.000603590               0.000000000               0.000000000               0.000000000               0.000000000               0.000040236               0.002409978               0.000006564              -0.000286158               0.000898704               0.000612546               0.000000000               0.000000000               0.000000000               0.000000000               0.000778267               0.001231162              -0.000811639               0.000137953               0.000364399               0.000502351               0.000000000               0.000000000               0.000000000               0.000000000               0.000535347               0.001410091              -0.000703480               0.000024493               0.000461861               0.000486354               0.000000000               0.000000000               0.000000000               0.000000000               0.000324561               0.001682943              -0.000557411              -0.000088658               0.000590528               0.000501870               0.000000000               0.000000000               0.000000000               0.000000000               0.000252920               0.001798836              -0.000444632              -0.000130010               0.000642943               0.000512933               0.000000000               0.000000000               0.000000000               0.000000000               0.000223030               0.001863734              -0.000361281              -0.000149330               0.000671015               0.000521685               0.000000000               0.000000000               0.000000000               0.000000000               0.000209612               0.001912043              -0.000294826              -0.000160401               0.000690808               0.000530407               0.000000000               0.000000000               0.000000000               0.000000000               0.000198953               0.001955233              -0.000238856              -0.000169796               0.000708337               0.000538540               0.000000000               0.000000000               0.000000000               0.000000000               0.000181801               0.001999557              -0.000192078              -0.000181769               0.000727102               0.000545333               0.000000000               0.000000000               0.000000000               0.000000000               0.000158384               0.002044180              -0.000153408              -0.000196128               0.000746762               0.000550634               0.000000000               0.000000000               0.000000000               0.000000000               0.000138404               0.002083824              -0.000122509              -0.000208576               0.000764126               0.000555550               0.000000000               0.000000000               0.000000000               0.000000000               0.000123275               0.002116114              -0.000094970              -0.000218285               0.000778126               0.000559841               0.000000000               0.000000000               0.000000000               0.000000000               0.000109257               0.002144969              -0.000069207              -0.000227149               0.000790699               0.000563550               0.000000000               0.000000000               0.000000000               0.000000000               0.000098518               0.002184856              -0.000045318              -0.000236162               0.000806999               0.000570837               0.000000000               0.000000000               0.000000000               0.000000000               0.000091455               0.002248231              -0.000023125              -0.000246733               0.000831647               0.000584914               0.000000000               0.000000000               0.000000000               0.000000000               0.000087729               0.002335394              -0.000008385              -0.000259025               0.000864799               0.000605774               0.000000000               0.000000000               0.000000000               0.000000000               0.000088226               0.002433461              -0.000001046              -0.000271097               0.000901511               0.000630414               0.000000000               0.000000000               0.000000000               0.000000000               0.000084611               0.002479561               0.000003260              -0.000278215               0.000919250               0.000641035               0.000000000               0.000000000               0.000000000               0.000000000               0.000734658               0.000930602              -0.000696280               0.000159169               0.000257141               0.000416310               0.000000000               0.000000000               0.000000000               0.000000000               0.000557110               0.001154815              -0.000665247               0.000064563               0.000363413               0.000427976               0.000000000               0.000000000               0.000000000               0.000000000               0.000368719               0.001472852              -0.000591863              -0.000045838               0.000506225               0.000460387               0.000000000               0.000000000               0.000000000               0.000000000               0.000292738               0.001639215              -0.000497485              -0.000095125               0.000578108               0.000482982               0.000000000               0.000000000               0.000000000               0.000000000               0.000258861               0.001741518              -0.000415578              -0.000120617               0.000620706               0.000500089               0.000000000               0.000000000               0.000000000               0.000000000               0.000241356               0.001814966              -0.000346401              -0.000136362               0.000650437               0.000514074               0.000000000               0.000000000               0.000000000               0.000000000               0.000230228               0.001875733              -0.000285361              -0.000148131               0.000674615               0.000526484               0.000000000               0.000000000               0.000000000               0.000000000               0.000215616               0.001928687              -0.000232619              -0.000160230               0.000696299               0.000536069               0.000000000               0.000000000               0.000000000               0.000000000               0.000195899               0.001981601              -0.000190842              -0.000174237               0.000718606               0.000544369               0.000000000               0.000000000               0.000000000               0.000000000               0.000174304               0.002032992              -0.000157978              -0.000188759               0.000740577               0.000551817               0.000000000               0.000000000               0.000000000               0.000000000               0.000153564               0.002080795              -0.000125021              -0.000202512               0.000761096               0.000558583               0.000000000               0.000000000               0.000000000               0.000000000               0.000136485               0.002125652              -0.000094286              -0.000214524               0.000780052               0.000565527               0.000000000               0.000000000               0.000000000               0.000000000               0.000126361               0.002171496              -0.000068204              -0.000224051               0.000798508               0.000574457               0.000000000               0.000000000               0.000000000               0.000000000               0.000124942               0.002231217              -0.000043786              -0.000232048               0.000821081               0.000589033               0.000000000               0.000000000               0.000000000               0.000000000               0.000126671               0.002315049              -0.000023760              -0.000241879               0.000852301               0.000610423               0.000000000               0.000000000               0.000000000               0.000000000               0.000126408               0.002420508              -0.000009829              -0.000255160               0.000891881               0.000636721               0.000000000               0.000000000               0.000000000               0.000000000               0.000118040               0.002470057              -0.000000929              -0.000264491               0.000911508               0.000647016               0.000000000               0.000000000               0.000000000               0.000000000               0.000656729               0.000658861              -0.000566022               0.000163914               0.000164980               0.000328894               0.000000000               0.000000000               0.000000000               0.000000000               0.000562729               0.000905097              -0.000598768               0.000097885               0.000269067               0.000366952               0.000000000               0.000000000               0.000000000               0.000000000               0.000426073               0.001242637              -0.000590462               0.000004447               0.000412726               0.000417173               0.000000000               0.000000000               0.000000000               0.000000000               0.000351817               0.001447003              -0.000523428              -0.000048945               0.000498644               0.000449699               0.000000000               0.000000000               0.000000000               0.000000000               0.000313210               0.001585467              -0.000451057              -0.000080730               0.000555394               0.000474664               0.000000000               0.000000000               0.000000000               0.000000000               0.000289232               0.001688062              -0.000383793              -0.000102546               0.000596864               0.000494318               0.000000000               0.000000000               0.000000000               0.000000000               0.000271667               0.001767685              -0.000321466              -0.000119085               0.000628918               0.000509832               0.000000000               0.000000000               0.000000000               0.000000000               0.000253040               0.001833730              -0.000266297              -0.000134326               0.000656013               0.000521686               0.000000000               0.000000000               0.000000000               0.000000000               0.000234824               0.001899003              -0.000223486              -0.000149316               0.000682767               0.000533450               0.000000000               0.000000000               0.000000000               0.000000000               0.000214205               0.001964889              -0.000187200              -0.000165284               0.000710051               0.000544767               0.000000000               0.000000000               0.000000000               0.000000000               0.000192687               0.002029511              -0.000151372              -0.000181431               0.000736974               0.000555543               0.000000000               0.000000000               0.000000000               0.000000000               0.000173924               0.002090285              -0.000120524              -0.000196064               0.000762109               0.000566046               0.000000000               0.000000000               0.000000000               0.000000000               0.000164363               0.002148283              -0.000097532              -0.000206899               0.000785053               0.000578155               0.000000000               0.000000000               0.000000000               0.000000000               0.000163748               0.002209469              -0.000073647              -0.000214777               0.000808075               0.000593297               0.000000000               0.000000000               0.000000000               0.000000000               0.000165836               0.002295281              -0.000044092              -0.000224721               0.000839993               0.000615272               0.000000000               0.000000000               0.000000000               0.000000000               0.000164227               0.002409694              -0.000018190              -0.000239626               0.000883098               0.000643473               0.000000000               0.000000000               0.000000000               0.000000000               0.000150165               0.002462607              -0.000003911              -0.000251514               0.000904699               0.000653185               0.000000000               0.000000000               0.000000000               0.000000000               0.000554803               0.000432498              -0.000430109               0.000153987               0.000092835               0.000246822               0.000000000               0.000000000               0.000000000               0.000000000               0.000552772               0.000676023              -0.000507143               0.000122785               0.000184410               0.000307195               0.000000000               0.000000000               0.000000000               0.000000000               0.000484630               0.001006970              -0.000548070               0.000055864               0.000317032               0.000372896               0.000000000               0.000000000               0.000000000               0.000000000               0.000425478               0.001236082              -0.000509455               0.000005043               0.000410342               0.000415385               0.000000000               0.000000000               0.000000000               0.000000000               0.000381186               0.001406046              -0.000452584              -0.000032811               0.000479614               0.000446803               0.000000000               0.000000000               0.000000000               0.000000000               0.000349770               0.001537620              -0.000393429              -0.000061039               0.000532881               0.000471842               0.000000000               0.000000000               0.000000000               0.000000000               0.000322696               0.001637060              -0.000334591              -0.000083622               0.000573555               0.000489933               0.000000000               0.000000000               0.000000000               0.000000000               0.000298860               0.001720997              -0.000282113              -0.000103052               0.000608010               0.000504959               0.000000000               0.000000000               0.000000000               0.000000000               0.000276505               0.001801185              -0.000240300              -0.000121459               0.000640875               0.000519416               0.000000000               0.000000000               0.000000000               0.000000000               0.000254583               0.001880981              -0.000204340              -0.000139654               0.000673539               0.000533885               0.000000000               0.000000000               0.000000000               0.000000000               0.000237135               0.001960908              -0.000170247              -0.000156187               0.000705692               0.000549505               0.000000000               0.000000000               0.000000000               0.000000000               0.000224400               0.002036821              -0.000143495              -0.000170452               0.000735751               0.000565299               0.000000000               0.000000000               0.000000000               0.000000000               0.000215283               0.002114049              -0.000124132              -0.000183525               0.000765851               0.000582326               0.000000000               0.000000000               0.000000000               0.000000000               0.000210046               0.002193309              -0.000098572              -0.000195396               0.000796228               0.000600832               0.000000000               0.000000000               0.000000000               0.000000000               0.000209050               0.002285140              -0.000063535              -0.000207248               0.000830789               0.000623540               0.000000000               0.000000000               0.000000000               0.000000000               0.000209869               0.002401587              -0.000029012              -0.000221497               0.000874353               0.000652856               0.000000000               0.000000000               0.000000000               0.000000000               0.000197332               0.002457826              -0.000009699              -0.000233228               0.000897010               0.000663782               0.000000000               0.000000000               0.000000000               0.000000000               0.000444253               0.000260722              -0.000300187               0.000134003               0.000042239               0.000176242               0.000000000               0.000000000               0.000000000               0.000000000               0.000533428               0.000481819              -0.000395005               0.000139807               0.000114002               0.000253809               0.000000000               0.000000000               0.000000000               0.000000000               0.000538146               0.000785954              -0.000461266               0.000103559               0.000227462               0.000331021               0.000000000               0.000000000               0.000000000               0.000000000               0.000502408               0.001027542              -0.000446658               0.000059959               0.000322524               0.000382483               0.000000000               0.000000000               0.000000000               0.000000000               0.000458705               0.001221827              -0.000407780               0.000019285               0.000400843               0.000420128               0.000000000               0.000000000               0.000000000               0.000000000               0.000418623               0.001375841              -0.000360805              -0.000014997               0.000463608               0.000448611               0.000000000               0.000000000               0.000000000               0.000000000               0.000381383               0.001494282              -0.000311306              -0.000043767               0.000512678               0.000468911               0.000000000               0.000000000               0.000000000               0.000000000               0.000351995               0.001596395              -0.000266442              -0.000067551               0.000554643               0.000487092               0.000000000               0.000000000               0.000000000               0.000000000               0.000325818               0.001690254              -0.000228595              -0.000089100               0.000593112               0.000504012               0.000000000               0.000000000               0.000000000               0.000000000               0.000303995               0.001783381              -0.000197615              -0.000108924               0.000630762               0.000521838               0.000000000               0.000000000               0.000000000               0.000000000               0.000287681               0.001875008              -0.000171801              -0.000126496               0.000667162               0.000540666               0.000000000               0.000000000               0.000000000               0.000000000               0.000278518               0.001967176              -0.000150015              -0.000141452               0.000702869               0.000561417               0.000000000               0.000000000               0.000000000               0.000000000               0.000269874               0.002069394              -0.000130251              -0.000157471               0.000742282               0.000584810               0.000000000               0.000000000               0.000000000               0.000000000               0.000262461               0.002176898              -0.000107215              -0.000173689               0.000783522               0.000609833               0.000000000               0.000000000               0.000000000               0.000000000               0.000264217               0.002285707              -0.000076214              -0.000186631               0.000824105               0.000637474               0.000000000               0.000000000               0.000000000               0.000000000               0.000272279               0.002405194              -0.000038838              -0.000198544               0.000867905               0.000669361               0.000000000               0.000000000               0.000000000               0.000000000               0.000266784               0.002463549              -0.000016765              -0.000207899               0.000890474               0.000682575               0.000000000               0.000000000               0.000000000               0.000000000               0.000343400               0.000146014              -0.000185323               0.000110522               0.000011830               0.000122352               0.000000000               0.000000000               0.000000000               0.000000000               0.000509453               0.000333716              -0.000269393               0.000149329               0.000061461               0.000210790               0.000000000               0.000000000               0.000000000               0.000000000               0.000581760               0.000604403              -0.000333799               0.000142608               0.000153929               0.000296538               0.000000000               0.000000000               0.000000000               0.000000000               0.000571041               0.000849212              -0.000333375               0.000107988               0.000247072               0.000355060               0.000000000               0.000000000               0.000000000               0.000000000               0.000532368               0.001056329              -0.000311150               0.000067596               0.000329574               0.000397170               0.000000000               0.000000000               0.000000000               0.000000000               0.000485860               0.001226347              -0.000278687               0.000028904               0.000399144               0.000428047               0.000000000               0.000000000               0.000000000               0.000000000               0.000442130               0.001362141              -0.000243586              -0.000004469               0.000455532               0.000451063               0.000000000               0.000000000               0.000000000               0.000000000               0.000404183               0.001475849              -0.000210859              -0.000032913               0.000502916               0.000470003               0.000000000               0.000000000               0.000000000               0.000000000               0.000375651               0.001582168              -0.000182849              -0.000056902               0.000546351               0.000489450               0.000000000               0.000000000               0.000000000               0.000000000               0.000354004               0.001686681              -0.000160304              -0.000078083               0.000588249               0.000510166               0.000000000               0.000000000               0.000000000               0.000000000               0.000336847               0.001793055              -0.000142059              -0.000097814               0.000630284               0.000532470               0.000000000               0.000000000               0.000000000               0.000000000               0.000323874               0.001907309              -0.000126465              -0.000116960               0.000674750               0.000557790               0.000000000               0.000000000               0.000000000               0.000000000               0.000320096               0.002030254              -0.000110384              -0.000133746               0.000721326               0.000587581               0.000000000               0.000000000               0.000000000               0.000000000               0.000321821               0.002160178              -0.000093707              -0.000149339               0.000769832               0.000620493               0.000000000               0.000000000               0.000000000               0.000000000               0.000328184               0.002288648              -0.000073417              -0.000163012               0.000817212               0.000654201               0.000000000               0.000000000               0.000000000               0.000000000               0.000345427               0.002412668              -0.000041896              -0.000172048               0.000861564               0.000689516               0.000000000               0.000000000               0.000000000               0.000000000               0.000352968               0.002471812              -0.000021334              -0.000176613               0.000882800               0.000706187               0.000000000               0.000000000               0.000000000               0.000000000               0.000273306               0.000082465              -0.000087167               0.000092181              -0.000003239               0.000088942               0.000000000               0.000000000               0.000000000               0.000000000               0.000488711               0.000241700              -0.000135958               0.000153052               0.000029548               0.000182601               0.000000000               0.000000000               0.000000000               0.000000000               0.000608887               0.000484567              -0.000175248               0.000167760               0.000105601               0.000273361               0.000000000               0.000000000               0.000000000               0.000000000               0.000619174               0.000727603              -0.000178562               0.000141238               0.000195453               0.000336691               0.000000000               0.000000000               0.000000000               0.000000000               0.000585485               0.000940251              -0.000168692               0.000102025               0.000279406               0.000381430               0.000000000               0.000000000               0.000000000               0.000000000               0.000536651               0.001119994              -0.000152797               0.000061244               0.000352913               0.000414157               0.000000000               0.000000000               0.000000000               0.000000000               0.000488246               0.001267278              -0.000134219               0.000024682               0.000414194               0.000438877               0.000000000               0.000000000               0.000000000               0.000000000               0.000445118               0.001389245              -0.000117063              -0.000006736               0.000465323               0.000458586               0.000000000               0.000000000               0.000000000               0.000000000               0.000411727               0.001502608              -0.000103497              -0.000033428               0.000512007               0.000478579               0.000000000               0.000000000               0.000000000               0.000000000               0.000386113               0.001614755              -0.000091894              -0.000057052               0.000557264               0.000500212               0.000000000               0.000000000               0.000000000               0.000000000               0.000368925               0.001734898              -0.000080322              -0.000078515               0.000604465               0.000525950               0.000000000               0.000000000               0.000000000               0.000000000               0.000359235               0.001865604              -0.000071980              -0.000098487               0.000654691               0.000556204               0.000000000               0.000000000               0.000000000               0.000000000               0.000358547               0.002001911              -0.000065751              -0.000115783               0.000705891               0.000590108               0.000000000               0.000000000               0.000000000               0.000000000               0.000368997               0.002148085              -0.000055071              -0.000130137               0.000759400               0.000629264               0.000000000               0.000000000               0.000000000               0.000000000               0.000385864               0.002292117              -0.000044603              -0.000141815               0.000811303               0.000669488               0.000000000               0.000000000               0.000000000               0.000000000               0.000410557               0.002420301              -0.000030194              -0.000148578               0.000856285               0.000707707               0.000000000               0.000000000               0.000000000               0.000000000               0.000427890               0.002480146              -0.000019517              -0.000149559               0.000876560               0.000727001               0.000000000               0.000000000               0.000000000               0.000000000               0.000000000               0.000000000               0.000000000               0.000000000               0.000000000               0.000000000               0.000000000               0.000000000               0.000000000               0.000000000               0.000000000               0.000000000               0.000000000               0.000000000               0.000000000               0.000000000               0.000000000               0.000000000               0.000000000               0.000000000               0.000000000               0.000000000               0.000000000               0.000000000               0.000000000               0.000000000               0.000000000               0.000000000               0.000000000               0.000000000               0.000000000               0.000000000               0.000000000               0.000000000               0.000000000               0.000000000               0.000000000               0.000000000               0.000000000               0.000000000               0.000000000               0.000000000               0.000000000               0.000000000               0.000000000               0.000000000               0.000000000               0.000000000               0.000000000               0.000000000               0.000000000               0.000000000               0.000000000               0.000000000               0.000000000               0.000000000               0.000000000               0.000000000               0.000000000               0.000000000               0.000000000               0.000000000               0.000000000               0.000000000               0.000000000               0.000000000               0.000000000               0.000000000               0.000000000               0.000000000               0.000000000               0.000000000               0.000000000               0.000000000               0.000000000               0.000000000               0.000000000               0.000000000               0.000000000               0.000000000               0.000000000               0.000000000               0.000000000               0.000000000               0.000000000               0.000000000               0.000000000               0.000000000               0.000000000               0.000000000               0.000000000               0.000000000               0.000000000               0.000000000               0.000000000               0.000000000               0.000000000               0.000000000               0.000000000               0.000000000               0.000000000               0.000000000               0.000000000               0.000000000               0.000000000               0.000000000               0.000000000               0.000000000               0.000000000               0.000000000               0.000000000               0.000000000               0.000000000               0.000000000               0.000000000               0.000000000               0.000000000               0.000000000               0.000000000               0.000000000               0.000000000               0.000000000               0.000000000               0.000000000               0.000000000               0.000000000               0.000000000               0.000000000               0.000000000               0.000000000               0.000000000               0.000000000               0.000000000               0.000000000               0.000000000               0.000000000               0.000000000               0.000000000               0.000000000               0.000000000               0.000000000               0.000000000               0.000000000               0.000000000               0.000000000               0.000000000               0.000000000               0.000000000               0.000000000               0.000000000               0.000000000               0.000000000               0.000000000               0.000000000               0.000000000               0.000000000               0.000000000               0.000000000               0.000000000               0.000000000               0.000000000               0.000000000               0.000000000               0.000000000               0.000000000               0.000000000               0.000000000               0.000000000               0.000000000               0.000000000               0.000000000               0.000000000               0.000000000               0.000000000               0.000000000               0.000000000               0.000000000               0.000000000               0.000000000               0.000000000               0.000000000               0.000000000               0.000000000               0.000000000               0.000000000               0.000000000               0.000000000               0.000000000               0.000000000               0.000000000               0.000000000               0.000000000               0.000000000               0.000000000               0.000000000               0.000000000               0.000000000               0.000000000               0.000000000               0.000000000               0.000000000               0.000000000               0.000000000               0.000000000               0.000000000               0.000000000               0.000000000               0.000000000               0.000000000               0.000000000               0.000000000               0.000000000               0.000000000               0.000000000               0.000000000               0.000000000               0.000000000               0.000000000               0.000000000               0.000000000               0.000000000               0.000000000               0.000000000               0.000000000               0.000000000               0.000000000               0.000000000               0.000000000               0.000000000               0.000000000               0.000000000               0.000000000               0.000000000               0.000000000               0.000000000               0.000000000               0.000000000               0.000000000               0.000000000               0.000000000               0.000000000               0.000000000               0.000000000               0.000000000               0.000000000               0.000000000               0.000000000               0.000000000               0.000000000               0.000000000               0.000000000               0.000000000               0.000000000               0.000000000               0.000000000               0.000000000               0.000000000               0.000000000               0.000000000               0.000000000               0.000000000               0.000000000               0.000000000               0.000000000               0.000000000               0.000000000               0.000000000               0.000000000               0.000000000               0.000000000               0.000000000               0.000000000               0.000000000               0.000000000               0.000000000               0.000000000               0.000000000               0.000000000               0.000000000               0.000000000               0.000000000               0.000000000               0.000000000               0.000000000               0.000000000               0.000000000               0.000000000               0.000000000               0.000000000               0.000000000               0.000000000               0.000000000               0.000000000               0.000000000               0.000000000               0.000000000               0.000000000               0.000000000               0.000000000               0.000000000               0.000000000               0.000000000               0.000000000               0.000000000               0.000000000               0.000000000               0.000000000               0.000000000               0.000000000               0.000000000               0.000000000               0.000000000               0.000000000               0.000000000               0.000000000               0.000000000               0.000000000               0.000000000               0.000000000               0.000000000               0.000000000               0.000000000               0.000000000               0.000000000               0.000000000               0.000000000               0.000000000               0.000000000               0.000000000               0.000000000               0.000000000               0.000000000               0.000000000               0.000000000               0.000000000               0.000000000               0.000000000               0.000000000               0.000000000               0.000000000               0.000359851               0.003738984               0.000297976              -0.000332428               0.001357125               0.001024697               0.000000000               0.000000000               0.000000000               0.000000000               0.000397530               0.003127720               0.000201063              -0.000241891               0.001123193               0.000881303               0.000000000               0.000000000               0.000000000               0.000000000               0.000550308               0.002635864               0.000099855              -0.000123117               0.000919652               0.000796534               0.000000000               0.000000000               0.000000000               0.000000000               0.000586536               0.002365129               0.000050678              -0.000075690               0.000813598               0.000737908               0.000000000               0.000000000               0.000000000               0.000000000               0.000571558               0.002209383               0.000026022              -0.000061839               0.000757067               0.000695228               0.000000000               0.000000000               0.000000000               0.000000000               0.000531838               0.002118433               0.000013115              -0.000065365               0.000727925               0.000662561               0.000000000               0.000000000               0.000000000               0.000000000               0.000481750               0.002066412               0.000007223              -0.000077645               0.000714679               0.000637034               0.000000000               0.000000000               0.000000000               0.000000000               0.000427577               0.002040444               0.000005284              -0.000094714               0.000711713               0.000616999               0.000000000               0.000000000               0.000000000               0.000000000               0.000371056               0.002029288               0.000004960              -0.000114515               0.000714594               0.000600079               0.000000000               0.000000000               0.000000000               0.000000000               0.000315702               0.002029316               0.000004925              -0.000135276               0.000721524               0.000586248               0.000000000               0.000000000               0.000000000               0.000000000               0.000260193               0.002038044               0.000004390              -0.000157183               0.000731736               0.000574553               0.000000000               0.000000000               0.000000000               0.000000000               0.000204939               0.002055227               0.000001661              -0.000180051               0.000745086               0.000565035               0.000000000               0.000000000               0.000000000               0.000000000               0.000152970               0.002079544              -0.000000273              -0.000202579               0.000760701               0.000558122               0.000000000               0.000000000               0.000000000               0.000000000               0.000105719               0.002108045               0.000001289              -0.000223861               0.000777295               0.000553434               0.000000000               0.000000000               0.000000000               0.000000000               0.000065564               0.002138189               0.000004038              -0.000242687               0.000793618               0.000550931               0.000000000               0.000000000               0.000000000               0.000000000               0.000031309               0.002168449               0.000005526              -0.000259315               0.000809247               0.000549933               0.000000000               0.000000000               0.000000000               0.000000000               0.000018153               0.002191516               0.000005811              -0.000267132               0.000819542               0.000552410               0.000000000               0.000000000               0.000000000               0.000000000               0.000424768               0.003569703               0.000565571              -0.000286924               0.001285531               0.000998606               0.000000000               0.000000000               0.000000000               0.000000000               0.000422410               0.003005652               0.000382223              -0.000217302               0.001074308               0.000857006               0.000000000               0.000000000               0.000000000               0.000000000               0.000531764               0.002569391               0.000191411              -0.000121762               0.000897043               0.000775280               0.000000000               0.000000000               0.000000000               0.000000000               0.000548293               0.002331572               0.000100296              -0.000085837               0.000805795               0.000719958               0.000000000               0.000000000               0.000000000               0.000000000               0.000524988               0.002194220               0.000055484              -0.000077407               0.000757201               0.000679795               0.000000000               0.000000000               0.000000000               0.000000000               0.000485347               0.002113068               0.000033705              -0.000082128               0.000731725               0.000649597               0.000000000               0.000000000               0.000000000               0.000000000               0.000439340               0.002066687               0.000022823              -0.000093583               0.000720083               0.000626500               0.000000000               0.000000000               0.000000000               0.000000000               0.000388647               0.002041630               0.000018296              -0.000109461               0.000717024               0.000607563               0.000000000               0.000000000               0.000000000               0.000000000               0.000337470               0.002030640               0.000017057              -0.000127278               0.000719299               0.000592021               0.000000000               0.000000000               0.000000000               0.000000000               0.000287203               0.002030994               0.000015454              -0.000146173               0.000725715               0.000579543               0.000000000               0.000000000               0.000000000               0.000000000               0.000235196               0.002039785               0.000011994              -0.000166774               0.000735513               0.000568739               0.000000000               0.000000000               0.000000000               0.000000000               0.000182817               0.002056536               0.000007299              -0.000188510               0.000748342               0.000559832               0.000000000               0.000000000               0.000000000               0.000000000               0.000133267               0.002077547               0.000005553              -0.000209718               0.000762415               0.000552697               0.000000000               0.000000000               0.000000000               0.000000000               0.000092873               0.002100051               0.000007592              -0.000227679               0.000775903               0.000548224               0.000000000               0.000000000               0.000000000               0.000000000               0.000061028               0.002122621               0.000010928              -0.000242442               0.000788347               0.000545906               0.000000000               0.000000000               0.000000000               0.000000000               0.000029702               0.002145280               0.000010885              -0.000257021               0.000800760               0.000543739               0.000000000               0.000000000               0.000000000               0.000000000               0.000016405               0.002164003               0.000010055              -0.000264348               0.000809443               0.000545095               0.000000000               0.000000000               0.000000000               0.000000000               0.000513651               0.003311039               0.000780920              -0.000221261               0.001177422               0.000956161               0.000000000               0.000000000               0.000000000               0.000000000               0.000453759               0.002821736               0.000528673              -0.000182557               0.001001422               0.000818864               0.000000000               0.000000000               0.000000000               0.000000000               0.000500771               0.002473651               0.000269037              -0.000121417               0.000865014               0.000743597               0.000000000               0.000000000               0.000000000               0.000000000               0.000491313               0.002284050               0.000150242              -0.000101264               0.000795097               0.000693833               0.000000000               0.000000000               0.000000000               0.000000000               0.000458472               0.002170872               0.000092986              -0.000099432               0.000756761               0.000657329               0.000000000               0.000000000               0.000000000               0.000000000               0.000418692               0.002103363               0.000064080              -0.000105911               0.000736418               0.000630507               0.000000000               0.000000000               0.000000000               0.000000000               0.000378092               0.002063241               0.000049424              -0.000116120               0.000726447               0.000610326               0.000000000               0.000000000               0.000000000               0.000000000               0.000335392               0.002039796               0.000041875              -0.000129202               0.000722993               0.000593790               0.000000000               0.000000000               0.000000000               0.000000000               0.000293159               0.002030149               0.000037141              -0.000143834               0.000724654               0.000580820               0.000000000               0.000000000               0.000000000               0.000000000               0.000250014               0.002031436               0.000032000              -0.000160174               0.000730530               0.000570356               0.000000000               0.000000000               0.000000000               0.000000000               0.000203289               0.002041357               0.000024847              -0.000178936               0.000740091               0.000561155               0.000000000               0.000000000               0.000000000               0.000000000               0.000156439               0.002057466               0.000017027              -0.000198518               0.000751988               0.000553470               0.000000000               0.000000000               0.000000000               0.000000000               0.000115137               0.002073902               0.000014706              -0.000216061               0.000763314               0.000547253               0.000000000               0.000000000               0.000000000               0.000000000               0.000081446               0.002086105               0.000017992              -0.000230220               0.000772101               0.000541881               0.000000000               0.000000000               0.000000000               0.000000000               0.000053915               0.002096606               0.000019378              -0.000241857               0.000779481               0.000537624               0.000000000               0.000000000               0.000000000               0.000000000               0.000027686               0.002110822               0.000013710              -0.000253470               0.000788090               0.000534620               0.000000000               0.000000000               0.000000000               0.000000000               0.000016553               0.002124596               0.000009572              -0.000259366               0.000794647               0.000535281               0.000000000               0.000000000               0.000000000               0.000000000               0.000608071               0.002986371               0.000931939              -0.000145270               0.001043870               0.000898600               0.000000000               0.000000000               0.000000000               0.000000000               0.000482714               0.002598106               0.000634162              -0.000143745               0.000913942               0.000770196               0.000000000               0.000000000               0.000000000               0.000000000               0.000457844               0.002357717               0.000332804              -0.000123023               0.000826906               0.000703883               0.000000000               0.000000000               0.000000000               0.000000000               0.000420783               0.002220959               0.000201313              -0.000119826               0.000780254               0.000660428               0.000000000               0.000000000               0.000000000               0.000000000               0.000382706               0.002136803               0.000137319              -0.000123585               0.000753456               0.000629870               0.000000000               0.000000000               0.000000000               0.000000000               0.000346239               0.002085769               0.000103674              -0.000130881               0.000738876               0.000607995               0.000000000               0.000000000               0.000000000               0.000000000               0.000313668               0.002054602               0.000084468              -0.000139199               0.000731260               0.000592061               0.000000000               0.000000000               0.000000000               0.000000000               0.000281335               0.002038399               0.000072415              -0.000149299               0.000729226               0.000579927               0.000000000               0.000000000               0.000000000               0.000000000               0.000247466               0.002031533               0.000062164              -0.000161141               0.000730885               0.000569743               0.000000000               0.000000000               0.000000000               0.000000000               0.000211173               0.002035703               0.000050966              -0.000175273               0.000736985               0.000561712               0.000000000               0.000000000               0.000000000               0.000000000               0.000169103               0.002045605               0.000037614              -0.000192287               0.000745957               0.000553670               0.000000000               0.000000000               0.000000000               0.000000000               0.000131806               0.002058786               0.000026437              -0.000207920               0.000755562               0.000547641               0.000000000               0.000000000               0.000000000               0.000000000               0.000100656               0.002066829               0.000023643              -0.000220607               0.000762472               0.000541865               0.000000000               0.000000000               0.000000000               0.000000000               0.000073723               0.002072248               0.000026613              -0.000231384               0.000767871               0.000536486               0.000000000               0.000000000               0.000000000               0.000000000               0.000050879               0.002077893               0.000023349              -0.000240656               0.000772843               0.000532187               0.000000000               0.000000000               0.000000000               0.000000000               0.000026393               0.002087643               0.000010898              -0.000251057               0.000779560               0.000528502               0.000000000               0.000000000               0.000000000               0.000000000               0.000014589               0.002096681               0.000004289              -0.000256614               0.000784425               0.000527811               0.000000000               0.000000000               0.000000000               0.000000000               0.000692600               0.002621752               0.001012381              -0.000067995               0.000896573               0.000828578               0.000000000               0.000000000               0.000000000               0.000000000               0.000501993               0.002353488               0.000699701              -0.000105939               0.000819801               0.000713862               0.000000000               0.000000000               0.000000000               0.000000000               0.000407141               0.002231184               0.000386497              -0.000126220               0.000785794               0.000659574               0.000000000               0.000000000               0.000000000               0.000000000               0.000350535               0.002149913               0.000252451              -0.000137288               0.000762393               0.000625105               0.000000000               0.000000000               0.000000000               0.000000000               0.000313575               0.002098956               0.000185665              -0.000144779               0.000747905               0.000603126               0.000000000               0.000000000               0.000000000               0.000000000               0.000282487               0.002065465               0.000147029              -0.000152250               0.000739232               0.000586981               0.000000000               0.000000000               0.000000000               0.000000000               0.000257061               0.002045876               0.000122294              -0.000159336               0.000735064               0.000575728               0.000000000               0.000000000               0.000000000               0.000000000               0.000233190               0.002035483               0.000103535              -0.000166989               0.000734150               0.000567162               0.000000000               0.000000000               0.000000000               0.000000000               0.000206456               0.002034335               0.000085343              -0.000176871               0.000737062               0.000560191               0.000000000               0.000000000               0.000000000               0.000000000               0.000175487               0.002042590               0.000066279              -0.000189516               0.000744028               0.000554513               0.000000000               0.000000000               0.000000000               0.000000000               0.000142879               0.002055022               0.000047194              -0.000203298               0.000752766               0.000549469               0.000000000               0.000000000               0.000000000               0.000000000               0.000114290               0.002062954               0.000033010              -0.000215010               0.000759315               0.000544304               0.000000000               0.000000000               0.000000000               0.000000000               0.000092057               0.002066662               0.000027542              -0.000223811               0.000763484               0.000539673               0.000000000               0.000000000               0.000000000               0.000000000               0.000069979               0.002071269               0.000027189              -0.000232666               0.000767971               0.000535305               0.000000000               0.000000000               0.000000000               0.000000000               0.000046235               0.002079605               0.000021239              -0.000242612               0.000774065               0.000531453               0.000000000               0.000000000               0.000000000               0.000000000               0.000023040               0.002091358               0.000007120              -0.000252779               0.000781372               0.000528593               0.000000000               0.000000000               0.000000000               0.000000000               0.000013952               0.002100519               0.000001130              -0.000257332               0.000785943               0.000528611               0.000000000               0.000000000               0.000000000               0.000000000               0.000749812               0.002244409               0.001027080               0.000000627               0.000747920               0.000748547               0.000000000               0.000000000               0.000000000               0.000000000               0.000510665               0.002105246               0.000730611              -0.000071657               0.000725627               0.000653970               0.000000000               0.000000000               0.000000000               0.000000000               0.000359120               0.002104460               0.000431924              -0.000128388               0.000744276               0.000615888               0.000000000               0.000000000               0.000000000               0.000000000               0.000292527               0.002078417               0.000301940              -0.000150104               0.000742833               0.000592729               0.000000000               0.000000000               0.000000000               0.000000000               0.000259452               0.002057247               0.000232609              -0.000159861               0.000739029               0.000579168               0.000000000               0.000000000               0.000000000               0.000000000               0.000233554               0.002040359               0.000188071              -0.000167462               0.000735934               0.000568472               0.000000000               0.000000000               0.000000000               0.000000000               0.000213957               0.002032867               0.000155762              -0.000173874               0.000735574               0.000561700               0.000000000               0.000000000               0.000000000               0.000000000               0.000195413               0.002032120               0.000128188              -0.000180735               0.000737611               0.000556877               0.000000000               0.000000000               0.000000000               0.000000000               0.000171134               0.002041297               0.000102440              -0.000190986               0.000744088               0.000553101               0.000000000               0.000000000               0.000000000               0.000000000               0.000146150               0.002057057               0.000075709              -0.000202325               0.000753120               0.000550795               0.000000000               0.000000000               0.000000000               0.000000000               0.000125187               0.002073413               0.000053391              -0.000212231               0.000761875               0.000549643               0.000000000               0.000000000               0.000000000               0.000000000               0.000105875               0.002079835               0.000039165              -0.000220276               0.000766697               0.000546421               0.000000000               0.000000000               0.000000000               0.000000000               0.000089330               0.002083500               0.000031393              -0.000226938               0.000770139               0.000543201               0.000000000               0.000000000               0.000000000               0.000000000               0.000069161               0.002090754               0.000026512              -0.000235408               0.000775381               0.000539972               0.000000000               0.000000000               0.000000000               0.000000000               0.000045169               0.002106770               0.000017093              -0.000246407               0.000784386               0.000537978               0.000000000               0.000000000               0.000000000               0.000000000               0.000021151               0.002126402               0.000004370              -0.000257868               0.000794750               0.000536881               0.000000000               0.000000000               0.000000000               0.000000000               0.000012772               0.002140614               0.000001285              -0.000262786               0.000801126               0.000538340               0.000000000               0.000000000               0.000000000               0.000000000               0.000775238               0.001876340               0.000987219               0.000056170               0.000606717               0.000662887               0.000000000               0.000000000               0.000000000               0.000000000               0.000509328               0.001870467               0.000733683              -0.000042811               0.000637753               0.000594942               0.000000000               0.000000000               0.000000000               0.000000000               0.000321539               0.001981877               0.000469974              -0.000127158               0.000703005               0.000575847               0.000000000               0.000000000               0.000000000               0.000000000               0.000252983               0.002003586               0.000345630              -0.000155579               0.000719715               0.000564136               0.000000000               0.000000000               0.000000000               0.000000000               0.000222983               0.002007408               0.000271876              -0.000167307               0.000724898               0.000557591               0.000000000               0.000000000               0.000000000               0.000000000               0.000203741               0.002010797               0.000219526              -0.000174946               0.000728574               0.000553628               0.000000000               0.000000000               0.000000000               0.000000000               0.000186186               0.002019038               0.000178062              -0.000182560               0.000733859               0.000551300               0.000000000               0.000000000               0.000000000               0.000000000               0.000167872               0.002035282               0.000143985              -0.000191458               0.000742240               0.000550782               0.000000000               0.000000000               0.000000000               0.000000000               0.000146541               0.002060209               0.000112400              -0.000202573               0.000754254               0.000551681               0.000000000               0.000000000               0.000000000               0.000000000               0.000126911               0.002085812               0.000081934              -0.000213134               0.000766308               0.000553174               0.000000000               0.000000000               0.000000000               0.000000000               0.000112087               0.002101837               0.000058646              -0.000220697               0.000774171               0.000553474               0.000000000               0.000000000               0.000000000               0.000000000               0.000098702               0.002110855               0.000045136              -0.000226843               0.000779226               0.000552383               0.000000000               0.000000000               0.000000000               0.000000000               0.000082461               0.002123276               0.000034807              -0.000234486               0.000785914               0.000551427               0.000000000               0.000000000               0.000000000               0.000000000               0.000063308               0.002148428               0.000023824              -0.000244812               0.000797740               0.000552927               0.000000000               0.000000000               0.000000000               0.000000000               0.000043472               0.002186571               0.000010462              -0.000257019               0.000814522               0.000557504               0.000000000               0.000000000               0.000000000               0.000000000               0.000021462               0.002228227               0.000000743              -0.000270479               0.000832895               0.000562415               0.000000000               0.000000000               0.000000000               0.000000000               0.000012759               0.002257477               0.000001314              -0.000277399               0.000844951               0.000567552               0.000000000               0.000000000               0.000000000               0.000000000               0.000787046               0.001549011               0.000909384               0.000101514               0.000482493               0.000584008               0.000000000               0.000000000               0.000000000               0.000000000               0.000515563               0.001659760               0.000722256              -0.000014135               0.000557959               0.000543824               0.000000000               0.000000000               0.000000000               0.000000000               0.000307293               0.001865885               0.000509917              -0.000118001               0.000661289               0.000543288               0.000000000               0.000000000               0.000000000               0.000000000               0.000238540               0.001930914               0.000389419              -0.000151912               0.000694269               0.000542357               0.000000000               0.000000000               0.000000000               0.000000000               0.000211254               0.001961582               0.000310085              -0.000165977               0.000709180               0.000543203               0.000000000               0.000000000               0.000000000               0.000000000               0.000197907               0.001987146               0.000249907              -0.000174178               0.000720435               0.000546257               0.000000000               0.000000000               0.000000000               0.000000000               0.000182984               0.002011870               0.000200314              -0.000182864               0.000731572               0.000548707               0.000000000               0.000000000               0.000000000               0.000000000               0.000162208               0.002044501               0.000159910              -0.000194734               0.000746405               0.000551671               0.000000000               0.000000000               0.000000000               0.000000000               0.000141074               0.002083230               0.000124143              -0.000207500               0.000763570               0.000556069               0.000000000               0.000000000               0.000000000               0.000000000               0.000123497               0.002113994               0.000093699              -0.000217937               0.000777303               0.000559366               0.000000000               0.000000000               0.000000000               0.000000000               0.000109376               0.002130522               0.000070195              -0.000225299               0.000785267               0.000559968               0.000000000               0.000000000               0.000000000               0.000000000               0.000097537               0.002146193               0.000051997              -0.000231697               0.000792623               0.000560926               0.000000000               0.000000000               0.000000000               0.000000000               0.000085851               0.002177193               0.000033673              -0.000239954               0.000805708               0.000565754               0.000000000               0.000000000               0.000000000               0.000000000               0.000071934               0.002229942               0.000014765              -0.000251767               0.000827229               0.000575462               0.000000000               0.000000000               0.000000000               0.000000000               0.000056727               0.002297447               0.000000246              -0.000265907               0.000854444               0.000588536               0.000000000               0.000000000               0.000000000               0.000000000               0.000045308               0.002369081              -0.000006614              -0.000279144               0.000882734               0.000603590               0.000000000               0.000000000               0.000000000               0.000000000               0.000040236               0.002409978              -0.000006564              -0.000286158               0.000898704               0.000612546               0.000000000               0.000000000               0.000000000               0.000000000               0.000778267               0.001231162               0.000811639               0.000137953               0.000364399               0.000502351               0.000000000               0.000000000               0.000000000               0.000000000               0.000535347               0.001410091               0.000703480               0.000024493               0.000461861               0.000486354               0.000000000               0.000000000               0.000000000               0.000000000               0.000324561               0.001682943               0.000557411              -0.000088658               0.000590528               0.000501870               0.000000000               0.000000000               0.000000000               0.000000000               0.000252920               0.001798836               0.000444632              -0.000130010               0.000642943               0.000512933               0.000000000               0.000000000               0.000000000               0.000000000               0.000223030               0.001863734               0.000361281              -0.000149330               0.000671015               0.000521685               0.000000000               0.000000000               0.000000000               0.000000000               0.000209612               0.001912043               0.000294826              -0.000160401               0.000690808               0.000530407               0.000000000               0.000000000               0.000000000               0.000000000               0.000198953               0.001955233               0.000238856              -0.000169796               0.000708337               0.000538540               0.000000000               0.000000000               0.000000000               0.000000000               0.000181801               0.001999557               0.000192078              -0.000181769               0.000727102               0.000545333               0.000000000               0.000000000               0.000000000               0.000000000               0.000158384               0.002044180               0.000153408              -0.000196128               0.000746762               0.000550634               0.000000000               0.000000000               0.000000000               0.000000000               0.000138404               0.002083824               0.000122509              -0.000208576               0.000764126               0.000555550               0.000000000               0.000000000               0.000000000               0.000000000               0.000123275               0.002116114               0.000094970              -0.000218285               0.000778126               0.000559841               0.000000000               0.000000000               0.000000000               0.000000000               0.000109257               0.002144969               0.000069207              -0.000227149               0.000790699               0.000563550               0.000000000               0.000000000               0.000000000               0.000000000               0.000098518               0.002184856               0.000045318              -0.000236162               0.000806999               0.000570837               0.000000000               0.000000000               0.000000000               0.000000000               0.000091455               0.002248231               0.000023125              -0.000246733               0.000831647               0.000584914               0.000000000               0.000000000               0.000000000               0.000000000               0.000087729               0.002335394               0.000008385              -0.000259025               0.000864799               0.000605774               0.000000000               0.000000000               0.000000000               0.000000000               0.000088226               0.002433461               0.000001046              -0.000271097               0.000901511               0.000630414               0.000000000               0.000000000               0.000000000               0.000000000               0.000084611               0.002479561              -0.000003260              -0.000278215               0.000919250               0.000641035               0.000000000               0.000000000               0.000000000               0.000000000               0.000734658               0.000930602               0.000696280               0.000159169               0.000257141               0.000416310               0.000000000               0.000000000               0.000000000               0.000000000               0.000557110               0.001154815               0.000665247               0.000064563               0.000363413               0.000427976               0.000000000               0.000000000               0.000000000               0.000000000               0.000368719               0.001472852               0.000591863              -0.000045838               0.000506225               0.000460387               0.000000000               0.000000000               0.000000000               0.000000000               0.000292738               0.001639215               0.000497485              -0.000095125               0.000578108               0.000482982               0.000000000               0.000000000               0.000000000               0.000000000               0.000258861               0.001741518               0.000415578              -0.000120617               0.000620706               0.000500089               0.000000000               0.000000000               0.000000000               0.000000000               0.000241356               0.001814966               0.000346401              -0.000136362               0.000650437               0.000514074               0.000000000               0.000000000               0.000000000               0.000000000               0.000230228               0.001875733               0.000285361              -0.000148131               0.000674615               0.000526484               0.000000000               0.000000000               0.000000000               0.000000000               0.000215616               0.001928687               0.000232619              -0.000160230               0.000696299               0.000536069               0.000000000               0.000000000               0.000000000               0.000000000               0.000195899               0.001981601               0.000190842              -0.000174237               0.000718606               0.000544369               0.000000000               0.000000000               0.000000000               0.000000000               0.000174304               0.002032992               0.000157978              -0.000188759               0.000740577               0.000551817               0.000000000               0.000000000               0.000000000               0.000000000               0.000153564               0.002080795               0.000125021              -0.000202512               0.000761096               0.000558583               0.000000000               0.000000000               0.000000000               0.000000000               0.000136485               0.002125652               0.000094286              -0.000214524               0.000780052               0.000565527               0.000000000               0.000000000               0.000000000               0.000000000               0.000126361               0.002171496               0.000068204              -0.000224051               0.000798508               0.000574457               0.000000000               0.000000000               0.000000000               0.000000000               0.000124942               0.002231217               0.000043786              -0.000232048               0.000821081               0.000589033               0.000000000               0.000000000               0.000000000               0.000000000               0.000126671               0.002315049               0.000023760              -0.000241879               0.000852301               0.000610423               0.000000000               0.000000000               0.000000000               0.000000000               0.000126408               0.002420508               0.000009829              -0.000255160               0.000891881               0.000636721               0.000000000               0.000000000               0.000000000               0.000000000               0.000118040               0.002470057               0.000000929              -0.000264491               0.000911508               0.000647016               0.000000000               0.000000000               0.000000000               0.000000000               0.000656729               0.000658861               0.000566022               0.000163914               0.000164980               0.000328894               0.000000000               0.000000000               0.000000000               0.000000000               0.000562729               0.000905097               0.000598768               0.000097885               0.000269067               0.000366952               0.000000000               0.000000000               0.000000000               0.000000000               0.000426073               0.001242637               0.000590462               0.000004447               0.000412726               0.000417173               0.000000000               0.000000000               0.000000000               0.000000000               0.000351817               0.001447003               0.000523428              -0.000048945               0.000498644               0.000449699               0.000000000               0.000000000               0.000000000               0.000000000               0.000313210               0.001585467               0.000451057              -0.000080730               0.000555394               0.000474664               0.000000000               0.000000000               0.000000000               0.000000000               0.000289232               0.001688062               0.000383793              -0.000102546               0.000596864               0.000494318               0.000000000               0.000000000               0.000000000               0.000000000               0.000271667               0.001767685               0.000321466              -0.000119085               0.000628918               0.000509832               0.000000000               0.000000000               0.000000000               0.000000000               0.000253040               0.001833730               0.000266297              -0.000134326               0.000656013               0.000521686               0.000000000               0.000000000               0.000000000               0.000000000               0.000234824               0.001899003               0.000223486              -0.000149316               0.000682767               0.000533450               0.000000000               0.000000000               0.000000000               0.000000000               0.000214205               0.001964889               0.000187200              -0.000165284               0.000710051               0.000544767               0.000000000               0.000000000               0.000000000               0.000000000               0.000192687               0.002029511               0.000151372              -0.000181431               0.000736974               0.000555543               0.000000000               0.000000000               0.000000000               0.000000000               0.000173924               0.002090285               0.000120524              -0.000196064               0.000762109               0.000566046               0.000000000               0.000000000               0.000000000               0.000000000               0.000164363               0.002148283               0.000097532              -0.000206899               0.000785053               0.000578155               0.000000000               0.000000000               0.000000000               0.000000000               0.000163748               0.002209469               0.000073647              -0.000214777               0.000808075               0.000593297               0.000000000               0.000000000               0.000000000               0.000000000               0.000165836               0.002295281               0.000044092              -0.000224721               0.000839993               0.000615272               0.000000000               0.000000000               0.000000000               0.000000000               0.000164227               0.002409694               0.000018190              -0.000239626               0.000883098               0.000643473               0.000000000               0.000000000               0.000000000               0.000000000               0.000150165               0.002462607               0.000003911              -0.000251514               0.000904699               0.000653185               0.000000000               0.000000000               0.000000000               0.000000000               0.000554803               0.000432498               0.000430109               0.000153987               0.000092835               0.000246822               0.000000000               0.000000000               0.000000000               0.000000000               0.000552772               0.000676023               0.000507143               0.000122785               0.000184410               0.000307195               0.000000000               0.000000000               0.000000000               0.000000000               0.000484630               0.001006970               0.000548070               0.000055864               0.000317032               0.000372896               0.000000000               0.000000000               0.000000000               0.000000000               0.000425478               0.001236082               0.000509455               0.000005043               0.000410342               0.000415385               0.000000000               0.000000000               0.000000000               0.000000000               0.000381186               0.001406046               0.000452584              -0.000032811               0.000479614               0.000446803               0.000000000               0.000000000               0.000000000               0.000000000               0.000349770               0.001537620               0.000393429              -0.000061039               0.000532881               0.000471842               0.000000000               0.000000000               0.000000000               0.000000000               0.000322696               0.001637060               0.000334591              -0.000083622               0.000573555               0.000489933               0.000000000               0.000000000               0.000000000               0.000000000               0.000298860               0.001720997               0.000282113              -0.000103052               0.000608010               0.000504959               0.000000000               0.000000000               0.000000000               0.000000000               0.000276505               0.001801185               0.000240300              -0.000121459               0.000640875               0.000519416               0.000000000               0.000000000               0.000000000               0.000000000               0.000254583               0.001880981               0.000204340              -0.000139654               0.000673539               0.000533885               0.000000000               0.000000000               0.000000000               0.000000000               0.000237135               0.001960908               0.000170247              -0.000156187               0.000705692               0.000549505               0.000000000               0.000000000               0.000000000               0.000000000               0.000224400               0.002036821               0.000143495              -0.000170452               0.000735751               0.000565299               0.000000000               0.000000000               0.000000000               0.000000000               0.000215283               0.002114049               0.000124132              -0.000183525               0.000765851               0.000582326               0.000000000               0.000000000               0.000000000               0.000000000               0.000210046               0.002193309               0.000098572              -0.000195396               0.000796228               0.000600832               0.000000000               0.000000000               0.000000000               0.000000000               0.000209050               0.002285140               0.000063535              -0.000207248               0.000830789               0.000623540               0.000000000               0.000000000               0.000000000               0.000000000               0.000209869               0.002401587               0.000029012              -0.000221497               0.000874353               0.000652856               0.000000000               0.000000000               0.000000000               0.000000000               0.000197332               0.002457826               0.000009699              -0.000233228               0.000897010               0.000663782               0.000000000               0.000000000               0.000000000               0.000000000               0.000444253               0.000260722               0.000300187               0.000134003               0.000042239               0.000176242               0.000000000               0.000000000               0.000000000               0.000000000               0.000533428               0.000481819               0.000395005               0.000139807               0.000114002               0.000253809               0.000000000               0.000000000               0.000000000               0.000000000               0.000538146               0.000785954               0.000461266               0.000103559               0.000227462               0.000331021               0.000000000               0.000000000               0.000000000               0.000000000               0.000502408               0.001027542               0.000446658               0.000059959               0.000322524               0.000382483               0.000000000               0.000000000               0.000000000               0.000000000               0.000458705               0.001221827               0.000407780               0.000019285               0.000400843               0.000420128               0.000000000               0.000000000               0.000000000               0.000000000               0.000418623               0.001375841               0.000360805              -0.000014997               0.000463608               0.000448611               0.000000000               0.000000000               0.000000000               0.000000000               0.000381383               0.001494282               0.000311306              -0.000043767               0.000512678               0.000468911               0.000000000               0.000000000               0.000000000               0.000000000               0.000351995               0.001596395               0.000266442              -0.000067551               0.000554643               0.000487092               0.000000000               0.000000000               0.000000000               0.000000000               0.000325818               0.001690254               0.000228595              -0.000089100               0.000593112               0.000504012               0.000000000               0.000000000               0.000000000               0.000000000               0.000303995               0.001783381               0.000197615              -0.000108924               0.000630762               0.000521838               0.000000000               0.000000000               0.000000000               0.000000000               0.000287681               0.001875008               0.000171801              -0.000126496               0.000667162               0.000540666               0.000000000               0.000000000               0.000000000               0.000000000               0.000278518               0.001967176               0.000150015              -0.000141452               0.000702869               0.000561417               0.000000000               0.000000000               0.000000000               0.000000000               0.000269874               0.002069394               0.000130251              -0.000157471               0.000742282               0.000584810               0.000000000               0.000000000               0.000000000               0.000000000               0.000262461               0.002176898               0.000107215              -0.000173689               0.000783522               0.000609833               0.000000000               0.000000000               0.000000000               0.000000000               0.000264217               0.002285707               0.000076214              -0.000186631               0.000824105               0.000637474               0.000000000               0.000000000               0.000000000               0.000000000               0.000272279               0.002405194               0.000038838              -0.000198544               0.000867905               0.000669361               0.000000000               0.000000000               0.000000000               0.000000000               0.000266784               0.002463549               0.000016765              -0.000207899               0.000890474               0.000682575               0.000000000               0.000000000               0.000000000               0.000000000               0.000343400               0.000146014               0.000185323               0.000110522               0.000011830               0.000122352               0.000000000               0.000000000               0.000000000               0.000000000               0.000509453               0.000333716               0.000269393               0.000149329               0.000061461               0.000210790               0.000000000               0.000000000               0.000000000               0.000000000               0.000581760               0.000604403               0.000333799               0.000142608               0.000153929               0.000296538               0.000000000               0.000000000               0.000000000               0.000000000               0.000571041               0.000849212               0.000333375               0.000107988               0.000247072               0.000355060               0.000000000               0.000000000               0.000000000               0.000000000               0.000532368               0.001056329               0.000311150               0.000067596               0.000329574               0.000397170               0.000000000               0.000000000               0.000000000               0.000000000               0.000485860               0.001226347               0.000278687               0.000028904               0.000399144               0.000428047               0.000000000               0.000000000               0.000000000               0.000000000               0.000442130               0.001362141               0.000243586              -0.000004469               0.000455532               0.000451063               0.000000000               0.000000000               0.000000000               0.000000000               0.000404183               0.001475849               0.000210859              -0.000032913               0.000502916               0.000470003               0.000000000               0.000000000               0.000000000               0.000000000               0.000375651               0.001582168               0.000182849              -0.000056902               0.000546351               0.000489450               0.000000000               0.000000000               0.000000000               0.000000000               0.000354004               0.001686681               0.000160304              -0.000078083               0.000588249               0.000510166               0.000000000               0.000000000               0.000000000               0.000000000               0.000336847               0.001793055               0.000142059              -0.000097814               0.000630284               0.000532470               0.000000000               0.000000000               0.000000000               0.000000000               0.000323874               0.001907309               0.000126465              -0.000116960               0.000674750               0.000557790               0.000000000               0.000000000               0.000000000               0.000000000               0.000320096               0.002030254               0.000110384              -0.000133746               0.000721326               0.000587581               0.000000000               0.000000000               0.000000000               0.000000000               0.000321821               0.002160178               0.000093707              -0.000149339               0.000769832               0.000620493               0.000000000               0.000000000               0.000000000               0.000000000               0.000328184               0.002288648               0.000073417              -0.000163012               0.000817212               0.000654201               0.000000000               0.000000000               0.000000000               0.000000000               0.000345427               0.002412668               0.000041896              -0.000172048               0.000861564               0.000689516               0.000000000               0.000000000               0.000000000               0.000000000               0.000352968               0.002471812               0.000021334              -0.000176613               0.000882800               0.000706187               0.000000000               0.000000000               0.000000000               0.000000000               0.000273306               0.000082465               0.000087167               0.000092181              -0.000003239               0.000088942               0.000000000               0.000000000               0.000000000               0.000000000               0.000488711               0.000241700               0.000135958               0.000153052               0.000029548               0.000182601               0.000000000               0.000000000               0.000000000               0.000000000               0.000608887               0.000484567               0.000175248               0.000167760               0.000105601               0.000273361               0.000000000               0.000000000               0.000000000               0.000000000               0.000619174               0.000727603               0.000178562               0.000141238               0.000195453               0.000336691               0.000000000               0.000000000               0.000000000               0.000000000               0.000585485               0.000940251               0.000168692               0.000102025               0.000279406               0.000381430               0.000000000               0.000000000               0.000000000               0.000000000               0.000536651               0.001119994               0.000152797               0.000061244               0.000352913               0.000414157               0.000000000               0.000000000               0.000000000               0.000000000               0.000488246               0.001267278               0.000134219               0.000024682               0.000414194               0.000438877               0.000000000               0.000000000               0.000000000               0.000000000               0.000445118               0.001389245               0.000117063              -0.000006736               0.000465323               0.000458586               0.000000000               0.000000000               0.000000000               0.000000000               0.000411727               0.001502608               0.000103497              -0.000033428               0.000512007               0.000478579               0.000000000               0.000000000               0.000000000               0.000000000               0.000386113               0.001614755               0.000091894              -0.000057052               0.000557264               0.000500212               0.000000000               0.000000000               0.000000000               0.000000000               0.000368925               0.001734898               0.000080322              -0.000078515               0.000604465               0.000525950               0.000000000               0.000000000               0.000000000               0.000000000               0.000359235               0.001865604               0.000071980              -0.000098487               0.000654691               0.000556204               0.000000000               0.000000000               0.000000000               0.000000000               0.000358547               0.002001911               0.000065751              -0.000115783               0.000705891               0.000590108               0.000000000               0.000000000               0.000000000               0.000000000               0.000368997               0.002148085               0.000055071              -0.000130137               0.000759400               0.000629264               0.000000000               0.000000000               0.000000000               0.000000000               0.000385864               0.002292117               0.000044603              -0.000141815               0.000811303               0.000669488               0.000000000               0.000000000               0.000000000               0.000000000               0.000410557               0.002420301               0.000030194              -0.000148578               0.000856285               0.000707707               0.000000000               0.000000000               0.000000000               0.000000000               0.000427890               0.002480146               0.000019517              -0.000149559               0.000876560               0.000727001               0.000000000               0.000000000               0.000000000               0.000000000               0.000000000               0.000000000               0.000000000               0.000000000               0.000000000               0.000000000               0.000000000               0.000000000               0.000000000               0.000000000               0.000000000               0.000000000               0.000000000               0.000000000               0.000000000               0.000000000               0.000000000               0.000000000               0.000000000               0.000000000               0.000000000               0.000000000               0.000000000               0.000000000               0.000000000               0.000000000               0.000000000               0.000000000               0.000000000               0.000000000               0.000000000               0.000000000               0.000000000               0.000000000               0.000000000               0.000000000               0.000000000               0.000000000               0.000000000               0.000000000               0.000000000               0.000000000               0.000000000               0.000000000               0.000000000               0.000000000               0.000000000               0.000000000               0.000000000               0.000000000               0.000000000               0.000000000               0.000000000               0.000000000               0.000000000               0.000000000               0.000000000               0.000000000               0.000000000               0.000000000               0.000000000               0.000000000               0.000000000               0.000000000               0.000000000               0.000000000               0.000000000               0.000000000               0.000000000               0.000000000               0.000000000               0.000000000               0.000000000               0.000000000               0.000000000               0.000000000               0.000000000               0.000000000               0.000000000               0.000000000               0.000000000               0.000000000               0.000000000               0.000000000               0.000000000               0.000000000               0.000000000               0.000000000               0.000000000               0.000000000               0.000000000               0.000000000               0.000000000               0.000000000               0.000000000               0.000000000               0.000000000               0.000000000               0.000000000               0.000000000               0.000000000               0.000000000               0.000000000               0.000000000               0.000000000               0.000000000               0.000000000               0.000000000               0.000000000               0.000000000               0.000000000               0.000000000               0.000000000               0.000000000               0.000000000               0.000000000               0.000000000               0.000000000               0.000000000               0.000000000               0.000000000               0.000000000               0.000000000               0.000000000               0.000000000               0.000000000               0.000000000               0.000000000               0.000000000               0.000000000               0.000000000               0.000000000               0.000000000               0.000000000               0.000000000               0.000000000               0.000000000               0.000000000               0.000000000               0.000000000               0.000000000               0.000000000               0.000000000               0.000000000               0.000000000               0.000000000               0.000000000               0.000000000               0.000000000               0.000000000               0.000000000               0.000000000               0.000000000               0.000000000               0.000000000               0.000000000               0.000000000               0.000000000               0.000000000               0.000000000               0.000000000               0.000000000               0.000000000               0.000000000               0.000000000               0.000000000               0.000000000               0.000000000               0.000000000               0.000000000 </DataArray>
</PointData>
</Piece>
</UnstructuredGrid> </VTKFile>
