<?xml version="1.0"?>
<VTKFile type="UnstructuredGrid" version="0.1">
<UnstructuredGrid>
<Piece NumberOfPoints="      1156" NumberOfCells="      1024">
<Points>
<DataArray type="Float64"                                    Name="coordinates"                                                      NumberOfComponents=" 3" format="ascii">
              0.133000000               0.000000000               0.000000000               0.155937500               0.000000000               0.000000000               0.178875000               0.000000000               0.000000000               0.201812500               0.000000000               0.000000000               0.224750000               0.000000000               0.000000000               0.247687500               0.000000000               0.000000000               0.270625000               0.000000000               0.000000000               0.293562500               0.000000000               0.000000000               0.316500000               0.000000000               0.000000000               0.339437500               0.000000000               0.000000000               0.362375000               0.000000000               0.000000000               0.385312500               0.000000000               0.000000000               0.408250000               0.000000000               0.000000000               0.431187500               0.000000000               0.000000000               0.454125000               0.000000000               0.000000000               0.477062500               0.000000000               0.000000000               0.500000000               0.000000000               0.000000000               0.132359569               0.013036280               0.000000000               0.155337096               0.016127762               0.000000000               0.178314623               0.019219245               0.000000000               0.201292150               0.022310727               0.000000000               0.224269676               0.025402210               0.000000000               0.247247203               0.028493692               0.000000000               0.270224730               0.031585175               0.000000000               0.293202257               0.034676657               0.000000000               0.316179784               0.037768140               0.000000000               0.339157311               0.040859622               0.000000000               0.362134838               0.043951105               0.000000000               0.385112365               0.047042587               0.000000000               0.408089892               0.050134070               0.000000000               0.431067419               0.053225552               0.000000000               0.454044946               0.056317035               0.000000000               0.477022473               0.059408517               0.000000000               0.500000000               0.062500000               0.000000000               0.130444442               0.025947013               0.000000000               0.153541665               0.032137825               0.000000000               0.176638887               0.038328636               0.000000000               0.199736109               0.044519448               0.000000000               0.222833332               0.050710260               0.000000000               0.245930554               0.056901071               0.000000000               0.269027776               0.063091883               0.000000000               0.292124999               0.069282695               0.000000000               0.315222221               0.075473506               0.000000000               0.338319444               0.081664318               0.000000000               0.361416666               0.087855130               0.000000000               0.384513888               0.094045942               0.000000000               0.407611111               0.100236753               0.000000000               0.430708333               0.106427565               0.000000000               0.453805555               0.112618377               0.000000000               0.476902778               0.118809188               0.000000000               0.500000000               0.125000000               0.000000000               0.127273065               0.038607862               0.000000000               0.150568498               0.047913621               0.000000000               0.173863932               0.057219379               0.000000000               0.197159365               0.066525138               0.000000000               0.220454798               0.075830897               0.000000000               0.243750232               0.085136655               0.000000000               0.267045665               0.094442414               0.000000000               0.290341099               0.103748172               0.000000000               0.313636532               0.113053931               0.000000000               0.336931966               0.122359690               0.000000000               0.360227399               0.131665448               0.000000000               0.383522833               0.140971207               0.000000000               0.406818266               0.150276966               0.000000000               0.430113700               0.159582724               0.000000000               0.453409133               0.168888483               0.000000000               0.476704567               0.178194241               0.000000000               0.500000000               0.187500000               0.000000000               0.122875978               0.050896897               0.000000000               0.146446229               0.063340840               0.000000000               0.170016481               0.075784784               0.000000000               0.193586732               0.088228728               0.000000000               0.217156983               0.100672672               0.000000000               0.240727235               0.113116616               0.000000000               0.264297486               0.125560560               0.000000000               0.287867738               0.138004504               0.000000000               0.311437989               0.150448448               0.000000000               0.335008240               0.162892392               0.000000000               0.358578492               0.175336336               0.000000000               0.382148743               0.187780280               0.000000000               0.405718994               0.200224224               0.000000000               0.429289246               0.212668168               0.000000000               0.452859497               0.225112112               0.000000000               0.476429749               0.237556056               0.000000000               0.500000000               0.250000000               0.000000000               0.117295528               0.062695766               0.000000000               0.141214558               0.078308531               0.000000000               0.165133587               0.093921295               0.000000000               0.189052617               0.109534060               0.000000000               0.212971646               0.125146824               0.000000000               0.236890676               0.140759589               0.000000000               0.260809705               0.156372354               0.000000000               0.284728735               0.171985118               0.000000000               0.308647764               0.187597883               0.000000000               0.332566794               0.203210648               0.000000000               0.356485823               0.218823412               0.000000000               0.380404853               0.234436177               0.000000000               0.404323882               0.250048941               0.000000000               0.428242912               0.265661706               0.000000000               0.452161941               0.281274471               0.000000000               0.476080971               0.296887235               0.000000000               0.500000000               0.312500000               0.000000000               0.110585458               0.073890841               0.000000000               0.134923867               0.092710163               0.000000000               0.159262276               0.111529486               0.000000000               0.183600685               0.130348808               0.000000000               0.207939094               0.149168131               0.000000000               0.232277503               0.167987453               0.000000000               0.256615912               0.186806776               0.000000000               0.280954320               0.205626098               0.000000000               0.305292729               0.224445420               0.000000000               0.329631138               0.243264743               0.000000000               0.353969547               0.262084065               0.000000000               0.378307956               0.280903388               0.000000000               0.402646365               0.299722710               0.000000000               0.426984773               0.318542033               0.000000000               0.451323182               0.337361355               0.000000000               0.475661591               0.356180678               0.000000000               0.500000000               0.375000000               0.000000000               0.102810390               0.084374307               0.000000000               0.127634741               0.106444663               0.000000000               0.152459092               0.128515018               0.000000000               0.177283442               0.150585374               0.000000000               0.202107793               0.172655730               0.000000000               0.226932143               0.194726086               0.000000000               0.251756494               0.216796442               0.000000000               0.276580845               0.238866798               0.000000000               0.301405195               0.260937153               0.000000000               0.326229546               0.283007509               0.000000000               0.351053896               0.305077865               0.000000000               0.375878247               0.327148221               0.000000000               0.400702598               0.349218577               0.000000000               0.425526948               0.371288933               0.000000000               0.450351299               0.393359288               0.000000000               0.475175649               0.415429644               0.000000000               0.500000000               0.437500000               0.000000000               0.094045202               0.094045202               0.000000000               0.119417377               0.119417377               0.000000000               0.144789552               0.144789552               0.000000000               0.170161727               0.170161727               0.000000000               0.195533901               0.195533901               0.000000000               0.220906076               0.220906076               0.000000000               0.246278251               0.246278251               0.000000000               0.271650426               0.271650426               0.000000000               0.297022601               0.297022601               0.000000000               0.322394776               0.322394776               0.000000000               0.347766951               0.347766951               0.000000000               0.373139126               0.373139126               0.000000000               0.398511300               0.398511300               0.000000000               0.423883475               0.423883475               0.000000000               0.449255650               0.449255650               0.000000000               0.474627825               0.474627825               0.000000000               0.500000000               0.500000000               0.000000000               0.084374307               0.102810390               0.000000000               0.106444663               0.127634741               0.000000000               0.128515018               0.152459092               0.000000000               0.150585374               0.177283442               0.000000000               0.172655730               0.202107793               0.000000000               0.194726086               0.226932143               0.000000000               0.216796442               0.251756494               0.000000000               0.238866798               0.276580845               0.000000000               0.260937153               0.301405195               0.000000000               0.283007509               0.326229546               0.000000000               0.305077865               0.351053896               0.000000000               0.327148221               0.375878247               0.000000000               0.349218577               0.400702598               0.000000000               0.371288933               0.425526948               0.000000000               0.393359288               0.450351299               0.000000000               0.415429644               0.475175649               0.000000000               0.437500000               0.500000000               0.000000000               0.073890841               0.110585458               0.000000000               0.092710163               0.134923867               0.000000000               0.111529486               0.159262276               0.000000000               0.130348808               0.183600685               0.000000000               0.149168131               0.207939094               0.000000000               0.167987453               0.232277503               0.000000000               0.186806776               0.256615912               0.000000000               0.205626098               0.280954320               0.000000000               0.224445420               0.305292729               0.000000000               0.243264743               0.329631138               0.000000000               0.262084065               0.353969547               0.000000000               0.280903388               0.378307956               0.000000000               0.299722710               0.402646365               0.000000000               0.318542033               0.426984773               0.000000000               0.337361355               0.451323182               0.000000000               0.356180678               0.475661591               0.000000000               0.375000000               0.500000000               0.000000000               0.062695766               0.117295528               0.000000000               0.078308531               0.141214558               0.000000000               0.093921295               0.165133587               0.000000000               0.109534060               0.189052617               0.000000000               0.125146824               0.212971646               0.000000000               0.140759589               0.236890676               0.000000000               0.156372354               0.260809705               0.000000000               0.171985118               0.284728735               0.000000000               0.187597883               0.308647764               0.000000000               0.203210648               0.332566794               0.000000000               0.218823412               0.356485823               0.000000000               0.234436177               0.380404853               0.000000000               0.250048941               0.404323882               0.000000000               0.265661706               0.428242912               0.000000000               0.281274471               0.452161941               0.000000000               0.296887235               0.476080971               0.000000000               0.312500000               0.500000000               0.000000000               0.050896897               0.122875978               0.000000000               0.063340840               0.146446229               0.000000000               0.075784784               0.170016481               0.000000000               0.088228728               0.193586732               0.000000000               0.100672672               0.217156983               0.000000000               0.113116616               0.240727235               0.000000000               0.125560560               0.264297486               0.000000000               0.138004504               0.287867738               0.000000000               0.150448448               0.311437989               0.000000000               0.162892392               0.335008240               0.000000000               0.175336336               0.358578492               0.000000000               0.187780280               0.382148743               0.000000000               0.200224224               0.405718994               0.000000000               0.212668168               0.429289246               0.000000000               0.225112112               0.452859497               0.000000000               0.237556056               0.476429749               0.000000000               0.250000000               0.500000000               0.000000000               0.038607862               0.127273065               0.000000000               0.047913621               0.150568498               0.000000000               0.057219379               0.173863932               0.000000000               0.066525138               0.197159365               0.000000000               0.075830897               0.220454798               0.000000000               0.085136655               0.243750232               0.000000000               0.094442414               0.267045665               0.000000000               0.103748172               0.290341099               0.000000000               0.113053931               0.313636532               0.000000000               0.122359690               0.336931966               0.000000000               0.131665448               0.360227399               0.000000000               0.140971207               0.383522833               0.000000000               0.150276966               0.406818266               0.000000000               0.159582724               0.430113700               0.000000000               0.168888483               0.453409133               0.000000000               0.178194241               0.476704567               0.000000000               0.187500000               0.500000000               0.000000000               0.025947013               0.130444442               0.000000000               0.032137825               0.153541665               0.000000000               0.038328636               0.176638887               0.000000000               0.044519448               0.199736109               0.000000000               0.050710260               0.222833332               0.000000000               0.056901071               0.245930554               0.000000000               0.063091883               0.269027776               0.000000000               0.069282695               0.292124999               0.000000000               0.075473506               0.315222221               0.000000000               0.081664318               0.338319444               0.000000000               0.087855130               0.361416666               0.000000000               0.094045942               0.384513888               0.000000000               0.100236753               0.407611111               0.000000000               0.106427565               0.430708333               0.000000000               0.112618377               0.453805555               0.000000000               0.118809188               0.476902778               0.000000000               0.125000000               0.500000000               0.000000000               0.013036280               0.132359569               0.000000000               0.016127762               0.155337096               0.000000000               0.019219245               0.178314623               0.000000000               0.022310727               0.201292150               0.000000000               0.025402210               0.224269676               0.000000000               0.028493692               0.247247203               0.000000000               0.031585175               0.270224730               0.000000000               0.034676657               0.293202257               0.000000000               0.037768140               0.316179784               0.000000000               0.040859622               0.339157311               0.000000000               0.043951105               0.362134838               0.000000000               0.047042587               0.385112365               0.000000000               0.050134070               0.408089892               0.000000000               0.053225552               0.431067419               0.000000000               0.056317035               0.454044946               0.000000000               0.059408517               0.477022473               0.000000000               0.062500000               0.500000000               0.000000000               0.000000000               0.133000000               0.000000000               0.000000000               0.155937500               0.000000000               0.000000000               0.178875000               0.000000000               0.000000000               0.201812500               0.000000000               0.000000000               0.224750000               0.000000000               0.000000000               0.247687500               0.000000000               0.000000000               0.270625000               0.000000000               0.000000000               0.293562500               0.000000000               0.000000000               0.316500000               0.000000000               0.000000000               0.339437500               0.000000000               0.000000000               0.362375000               0.000000000               0.000000000               0.385312500               0.000000000               0.000000000               0.408250000               0.000000000               0.000000000               0.431187500               0.000000000               0.000000000               0.454125000               0.000000000               0.000000000               0.477062500               0.000000000               0.000000000               0.500000000               0.000000000               0.133000000               0.000000000               0.000000000               0.155937500               0.000000000               0.000000000               0.178875000               0.000000000               0.000000000               0.201812500               0.000000000               0.000000000               0.224750000               0.000000000               0.000000000               0.247687500               0.000000000               0.000000000               0.270625000               0.000000000               0.000000000               0.293562500               0.000000000               0.000000000               0.316500000               0.000000000               0.000000000               0.339437500               0.000000000               0.000000000               0.362375000               0.000000000               0.000000000               0.385312500               0.000000000               0.000000000               0.408250000               0.000000000               0.000000000               0.431187500               0.000000000               0.000000000               0.454125000               0.000000000               0.000000000               0.477062500               0.000000000               0.000000000               0.500000000               0.000000000               0.000000000               0.132359569              -0.013036280               0.000000000               0.155337096              -0.016127762               0.000000000               0.178314623              -0.019219245               0.000000000               0.201292150              -0.022310727               0.000000000               0.224269676              -0.025402210               0.000000000               0.247247203              -0.028493692               0.000000000               0.270224730              -0.031585175               0.000000000               0.293202257              -0.034676657               0.000000000               0.316179784              -0.037768140               0.000000000               0.339157311              -0.040859622               0.000000000               0.362134838              -0.043951105               0.000000000               0.385112365              -0.047042587               0.000000000               0.408089892              -0.050134070               0.000000000               0.431067419              -0.053225552               0.000000000               0.454044946              -0.056317035               0.000000000               0.477022473              -0.059408517               0.000000000               0.500000000              -0.062500000               0.000000000               0.130444442              -0.025947013               0.000000000               0.153541665              -0.032137825               0.000000000               0.176638887              -0.038328636               0.000000000               0.199736109              -0.044519448               0.000000000               0.222833332              -0.050710260               0.000000000               0.245930554              -0.056901071               0.000000000               0.269027776              -0.063091883               0.000000000               0.292124999              -0.069282695               0.000000000               0.315222221              -0.075473506               0.000000000               0.338319444              -0.081664318               0.000000000               0.361416666              -0.087855130               0.000000000               0.384513888              -0.094045942               0.000000000               0.407611111              -0.100236753               0.000000000               0.430708333              -0.106427565               0.000000000               0.453805555              -0.112618377               0.000000000               0.476902778              -0.118809188               0.000000000               0.500000000              -0.125000000               0.000000000               0.127273065              -0.038607862               0.000000000               0.150568498              -0.047913621               0.000000000               0.173863932              -0.057219379               0.000000000               0.197159365              -0.066525138               0.000000000               0.220454798              -0.075830897               0.000000000               0.243750232              -0.085136655               0.000000000               0.267045665              -0.094442414               0.000000000               0.290341099              -0.103748172               0.000000000               0.313636532              -0.113053931               0.000000000               0.336931966              -0.122359690               0.000000000               0.360227399              -0.131665448               0.000000000               0.383522833              -0.140971207               0.000000000               0.406818266              -0.150276966               0.000000000               0.430113700              -0.159582724               0.000000000               0.453409133              -0.168888483               0.000000000               0.476704567              -0.178194241               0.000000000               0.500000000              -0.187500000               0.000000000               0.122875978              -0.050896897               0.000000000               0.146446229              -0.063340840               0.000000000               0.170016481              -0.075784784               0.000000000               0.193586732              -0.088228728               0.000000000               0.217156983              -0.100672672               0.000000000               0.240727235              -0.113116616               0.000000000               0.264297486              -0.125560560               0.000000000               0.287867738              -0.138004504               0.000000000               0.311437989              -0.150448448               0.000000000               0.335008240              -0.162892392               0.000000000               0.358578492              -0.175336336               0.000000000               0.382148743              -0.187780280               0.000000000               0.405718994              -0.200224224               0.000000000               0.429289246              -0.212668168               0.000000000               0.452859497              -0.225112112               0.000000000               0.476429749              -0.237556056               0.000000000               0.500000000              -0.250000000               0.000000000               0.117295528              -0.062695766               0.000000000               0.141214558              -0.078308531               0.000000000               0.165133587              -0.093921295               0.000000000               0.189052617              -0.109534060               0.000000000               0.212971646              -0.125146824               0.000000000               0.236890676              -0.140759589               0.000000000               0.260809705              -0.156372354               0.000000000               0.284728735              -0.171985118               0.000000000               0.308647764              -0.187597883               0.000000000               0.332566794              -0.203210648               0.000000000               0.356485823              -0.218823412               0.000000000               0.380404853              -0.234436177               0.000000000               0.404323882              -0.250048941               0.000000000               0.428242912              -0.265661706               0.000000000               0.452161941              -0.281274471               0.000000000               0.476080971              -0.296887235               0.000000000               0.500000000              -0.312500000               0.000000000               0.110585458              -0.073890841               0.000000000               0.134923867              -0.092710163               0.000000000               0.159262276              -0.111529486               0.000000000               0.183600685              -0.130348808               0.000000000               0.207939094              -0.149168131               0.000000000               0.232277503              -0.167987453               0.000000000               0.256615912              -0.186806776               0.000000000               0.280954320              -0.205626098               0.000000000               0.305292729              -0.224445420               0.000000000               0.329631138              -0.243264743               0.000000000               0.353969547              -0.262084065               0.000000000               0.378307956              -0.280903388               0.000000000               0.402646365              -0.299722710               0.000000000               0.426984773              -0.318542033               0.000000000               0.451323182              -0.337361355               0.000000000               0.475661591              -0.356180678               0.000000000               0.500000000              -0.375000000               0.000000000               0.102810390              -0.084374307               0.000000000               0.127634741              -0.106444663               0.000000000               0.152459092              -0.128515018               0.000000000               0.177283442              -0.150585374               0.000000000               0.202107793              -0.172655730               0.000000000               0.226932143              -0.194726086               0.000000000               0.251756494              -0.216796442               0.000000000               0.276580845              -0.238866798               0.000000000               0.301405195              -0.260937153               0.000000000               0.326229546              -0.283007509               0.000000000               0.351053896              -0.305077865               0.000000000               0.375878247              -0.327148221               0.000000000               0.400702598              -0.349218577               0.000000000               0.425526948              -0.371288933               0.000000000               0.450351299              -0.393359288               0.000000000               0.475175649              -0.415429644               0.000000000               0.500000000              -0.437500000               0.000000000               0.094045202              -0.094045202               0.000000000               0.119417377              -0.119417377               0.000000000               0.144789552              -0.144789552               0.000000000               0.170161727              -0.170161727               0.000000000               0.195533901              -0.195533901               0.000000000               0.220906076              -0.220906076               0.000000000               0.246278251              -0.246278251               0.000000000               0.271650426              -0.271650426               0.000000000               0.297022601              -0.297022601               0.000000000               0.322394776              -0.322394776               0.000000000               0.347766951              -0.347766951               0.000000000               0.373139126              -0.373139126               0.000000000               0.398511300              -0.398511300               0.000000000               0.423883475              -0.423883475               0.000000000               0.449255650              -0.449255650               0.000000000               0.474627825              -0.474627825               0.000000000               0.500000000              -0.500000000               0.000000000               0.084374307              -0.102810390               0.000000000               0.106444663              -0.127634741               0.000000000               0.128515018              -0.152459092               0.000000000               0.150585374              -0.177283442               0.000000000               0.172655730              -0.202107793               0.000000000               0.194726086              -0.226932143               0.000000000               0.216796442              -0.251756494               0.000000000               0.238866798              -0.276580845               0.000000000               0.260937153              -0.301405195               0.000000000               0.283007509              -0.326229546               0.000000000               0.305077865              -0.351053896               0.000000000               0.327148221              -0.375878247               0.000000000               0.349218577              -0.400702598               0.000000000               0.371288933              -0.425526948               0.000000000               0.393359288              -0.450351299               0.000000000               0.415429644              -0.475175649               0.000000000               0.437500000              -0.500000000               0.000000000               0.073890841              -0.110585458               0.000000000               0.092710163              -0.134923867               0.000000000               0.111529486              -0.159262276               0.000000000               0.130348808              -0.183600685               0.000000000               0.149168131              -0.207939094               0.000000000               0.167987453              -0.232277503               0.000000000               0.186806776              -0.256615912               0.000000000               0.205626098              -0.280954320               0.000000000               0.224445420              -0.305292729               0.000000000               0.243264743              -0.329631138               0.000000000               0.262084065              -0.353969547               0.000000000               0.280903388              -0.378307956               0.000000000               0.299722710              -0.402646365               0.000000000               0.318542033              -0.426984773               0.000000000               0.337361355              -0.451323182               0.000000000               0.356180678              -0.475661591               0.000000000               0.375000000              -0.500000000               0.000000000               0.062695766              -0.117295528               0.000000000               0.078308531              -0.141214558               0.000000000               0.093921295              -0.165133587               0.000000000               0.109534060              -0.189052617               0.000000000               0.125146824              -0.212971646               0.000000000               0.140759589              -0.236890676               0.000000000               0.156372354              -0.260809705               0.000000000               0.171985118              -0.284728735               0.000000000               0.187597883              -0.308647764               0.000000000               0.203210648              -0.332566794               0.000000000               0.218823412              -0.356485823               0.000000000               0.234436177              -0.380404853               0.000000000               0.250048941              -0.404323882               0.000000000               0.265661706              -0.428242912               0.000000000               0.281274471              -0.452161941               0.000000000               0.296887235              -0.476080971               0.000000000               0.312500000              -0.500000000               0.000000000               0.050896897              -0.122875978               0.000000000               0.063340840              -0.146446229               0.000000000               0.075784784              -0.170016481               0.000000000               0.088228728              -0.193586732               0.000000000               0.100672672              -0.217156983               0.000000000               0.113116616              -0.240727235               0.000000000               0.125560560              -0.264297486               0.000000000               0.138004504              -0.287867738               0.000000000               0.150448448              -0.311437989               0.000000000               0.162892392              -0.335008240               0.000000000               0.175336336              -0.358578492               0.000000000               0.187780280              -0.382148743               0.000000000               0.200224224              -0.405718994               0.000000000               0.212668168              -0.429289246               0.000000000               0.225112112              -0.452859497               0.000000000               0.237556056              -0.476429749               0.000000000               0.250000000              -0.500000000               0.000000000               0.038607862              -0.127273065               0.000000000               0.047913621              -0.150568498               0.000000000               0.057219379              -0.173863932               0.000000000               0.066525138              -0.197159365               0.000000000               0.075830897              -0.220454798               0.000000000               0.085136655              -0.243750232               0.000000000               0.094442414              -0.267045665               0.000000000               0.103748172              -0.290341099               0.000000000               0.113053931              -0.313636532               0.000000000               0.122359690              -0.336931966               0.000000000               0.131665448              -0.360227399               0.000000000               0.140971207              -0.383522833               0.000000000               0.150276966              -0.406818266               0.000000000               0.159582724              -0.430113700               0.000000000               0.168888483              -0.453409133               0.000000000               0.178194241              -0.476704567               0.000000000               0.187500000              -0.500000000               0.000000000               0.025947013              -0.130444442               0.000000000               0.032137825              -0.153541665               0.000000000               0.038328636              -0.176638887               0.000000000               0.044519448              -0.199736109               0.000000000               0.050710260              -0.222833332               0.000000000               0.056901071              -0.245930554               0.000000000               0.063091883              -0.269027776               0.000000000               0.069282695              -0.292124999               0.000000000               0.075473506              -0.315222221               0.000000000               0.081664318              -0.338319444               0.000000000               0.087855130              -0.361416666               0.000000000               0.094045942              -0.384513888               0.000000000               0.100236753              -0.407611111               0.000000000               0.106427565              -0.430708333               0.000000000               0.112618377              -0.453805555               0.000000000               0.118809188              -0.476902778               0.000000000               0.125000000              -0.500000000               0.000000000               0.013036280              -0.132359569               0.000000000               0.016127762              -0.155337096               0.000000000               0.019219245              -0.178314623               0.000000000               0.022310727              -0.201292150               0.000000000               0.025402210              -0.224269676               0.000000000               0.028493692              -0.247247203               0.000000000               0.031585175              -0.270224730               0.000000000               0.034676657              -0.293202257               0.000000000               0.037768140              -0.316179784               0.000000000               0.040859622              -0.339157311               0.000000000               0.043951105              -0.362134838               0.000000000               0.047042587              -0.385112365               0.000000000               0.050134070              -0.408089892               0.000000000               0.053225552              -0.431067419               0.000000000               0.056317035              -0.454044946               0.000000000               0.059408517              -0.477022473               0.000000000               0.062500000              -0.500000000               0.000000000               0.000000000              -0.133000000               0.000000000               0.000000000              -0.155937500               0.000000000               0.000000000              -0.178875000               0.000000000               0.000000000              -0.201812500               0.000000000               0.000000000              -0.224750000               0.000000000               0.000000000              -0.247687500               0.000000000               0.000000000              -0.270625000               0.000000000               0.000000000              -0.293562500               0.000000000               0.000000000              -0.316500000               0.000000000               0.000000000              -0.339437500               0.000000000               0.000000000              -0.362375000               0.000000000               0.000000000              -0.385312500               0.000000000               0.000000000              -0.408250000               0.000000000               0.000000000              -0.431187500               0.000000000               0.000000000              -0.454125000               0.000000000               0.000000000              -0.477062500               0.000000000               0.000000000              -0.500000000               0.000000000              -0.133000000               0.000000000               0.000000000              -0.155937500               0.000000000               0.000000000              -0.178875000               0.000000000               0.000000000              -0.201812500               0.000000000               0.000000000              -0.224750000               0.000000000               0.000000000              -0.247687500               0.000000000               0.000000000              -0.270625000               0.000000000               0.000000000              -0.293562500               0.000000000               0.000000000              -0.316500000               0.000000000               0.000000000              -0.339437500               0.000000000               0.000000000              -0.362375000               0.000000000               0.000000000              -0.385312500               0.000000000               0.000000000              -0.408250000               0.000000000               0.000000000              -0.431187500               0.000000000               0.000000000              -0.454125000               0.000000000               0.000000000              -0.477062500               0.000000000               0.000000000              -0.500000000               0.000000000               0.000000000              -0.132359569              -0.013036280               0.000000000              -0.155337096              -0.016127762               0.000000000              -0.178314623              -0.019219245               0.000000000              -0.201292150              -0.022310727               0.000000000              -0.224269676              -0.025402210               0.000000000              -0.247247203              -0.028493692               0.000000000              -0.270224730              -0.031585175               0.000000000              -0.293202257              -0.034676657               0.000000000              -0.316179784              -0.037768140               0.000000000              -0.339157311              -0.040859622               0.000000000              -0.362134838              -0.043951105               0.000000000              -0.385112365              -0.047042587               0.000000000              -0.408089892              -0.050134070               0.000000000              -0.431067419              -0.053225552               0.000000000              -0.454044946              -0.056317035               0.000000000              -0.477022473              -0.059408517               0.000000000              -0.500000000              -0.062500000               0.000000000              -0.130444442              -0.025947013               0.000000000              -0.153541665              -0.032137825               0.000000000              -0.176638887              -0.038328636               0.000000000              -0.199736109              -0.044519448               0.000000000              -0.222833332              -0.050710260               0.000000000              -0.245930554              -0.056901071               0.000000000              -0.269027776              -0.063091883               0.000000000              -0.292124999              -0.069282695               0.000000000              -0.315222221              -0.075473506               0.000000000              -0.338319444              -0.081664318               0.000000000              -0.361416666              -0.087855130               0.000000000              -0.384513888              -0.094045942               0.000000000              -0.407611111              -0.100236753               0.000000000              -0.430708333              -0.106427565               0.000000000              -0.453805555              -0.112618377               0.000000000              -0.476902778              -0.118809188               0.000000000              -0.500000000              -0.125000000               0.000000000              -0.127273065              -0.038607862               0.000000000              -0.150568498              -0.047913621               0.000000000              -0.173863932              -0.057219379               0.000000000              -0.197159365              -0.066525138               0.000000000              -0.220454798              -0.075830897               0.000000000              -0.243750232              -0.085136655               0.000000000              -0.267045665              -0.094442414               0.000000000              -0.290341099              -0.103748172               0.000000000              -0.313636532              -0.113053931               0.000000000              -0.336931966              -0.122359690               0.000000000              -0.360227399              -0.131665448               0.000000000              -0.383522833              -0.140971207               0.000000000              -0.406818266              -0.150276966               0.000000000              -0.430113700              -0.159582724               0.000000000              -0.453409133              -0.168888483               0.000000000              -0.476704567              -0.178194241               0.000000000              -0.500000000              -0.187500000               0.000000000              -0.122875978              -0.050896897               0.000000000              -0.146446229              -0.063340840               0.000000000              -0.170016481              -0.075784784               0.000000000              -0.193586732              -0.088228728               0.000000000              -0.217156983              -0.100672672               0.000000000              -0.240727235              -0.113116616               0.000000000              -0.264297486              -0.125560560               0.000000000              -0.287867738              -0.138004504               0.000000000              -0.311437989              -0.150448448               0.000000000              -0.335008240              -0.162892392               0.000000000              -0.358578492              -0.175336336               0.000000000              -0.382148743              -0.187780280               0.000000000              -0.405718994              -0.200224224               0.000000000              -0.429289246              -0.212668168               0.000000000              -0.452859497              -0.225112112               0.000000000              -0.476429749              -0.237556056               0.000000000              -0.500000000              -0.250000000               0.000000000              -0.117295528              -0.062695766               0.000000000              -0.141214558              -0.078308531               0.000000000              -0.165133587              -0.093921295               0.000000000              -0.189052617              -0.109534060               0.000000000              -0.212971646              -0.125146824               0.000000000              -0.236890676              -0.140759589               0.000000000              -0.260809705              -0.156372354               0.000000000              -0.284728735              -0.171985118               0.000000000              -0.308647764              -0.187597883               0.000000000              -0.332566794              -0.203210648               0.000000000              -0.356485823              -0.218823412               0.000000000              -0.380404853              -0.234436177               0.000000000              -0.404323882              -0.250048941               0.000000000              -0.428242912              -0.265661706               0.000000000              -0.452161941              -0.281274471               0.000000000              -0.476080971              -0.296887235               0.000000000              -0.500000000              -0.312500000               0.000000000              -0.110585458              -0.073890841               0.000000000              -0.134923867              -0.092710163               0.000000000              -0.159262276              -0.111529486               0.000000000              -0.183600685              -0.130348808               0.000000000              -0.207939094              -0.149168131               0.000000000              -0.232277503              -0.167987453               0.000000000              -0.256615912              -0.186806776               0.000000000              -0.280954320              -0.205626098               0.000000000              -0.305292729              -0.224445420               0.000000000              -0.329631138              -0.243264743               0.000000000              -0.353969547              -0.262084065               0.000000000              -0.378307956              -0.280903388               0.000000000              -0.402646365              -0.299722710               0.000000000              -0.426984773              -0.318542033               0.000000000              -0.451323182              -0.337361355               0.000000000              -0.475661591              -0.356180678               0.000000000              -0.500000000              -0.375000000               0.000000000              -0.102810390              -0.084374307               0.000000000              -0.127634741              -0.106444663               0.000000000              -0.152459092              -0.128515018               0.000000000              -0.177283442              -0.150585374               0.000000000              -0.202107793              -0.172655730               0.000000000              -0.226932143              -0.194726086               0.000000000              -0.251756494              -0.216796442               0.000000000              -0.276580845              -0.238866798               0.000000000              -0.301405195              -0.260937153               0.000000000              -0.326229546              -0.283007509               0.000000000              -0.351053896              -0.305077865               0.000000000              -0.375878247              -0.327148221               0.000000000              -0.400702598              -0.349218577               0.000000000              -0.425526948              -0.371288933               0.000000000              -0.450351299              -0.393359288               0.000000000              -0.475175649              -0.415429644               0.000000000              -0.500000000              -0.437500000               0.000000000              -0.094045202              -0.094045202               0.000000000              -0.119417377              -0.119417377               0.000000000              -0.144789552              -0.144789552               0.000000000              -0.170161727              -0.170161727               0.000000000              -0.195533901              -0.195533901               0.000000000              -0.220906076              -0.220906076               0.000000000              -0.246278251              -0.246278251               0.000000000              -0.271650426              -0.271650426               0.000000000              -0.297022601              -0.297022601               0.000000000              -0.322394776              -0.322394776               0.000000000              -0.347766951              -0.347766951               0.000000000              -0.373139126              -0.373139126               0.000000000              -0.398511300              -0.398511300               0.000000000              -0.423883475              -0.423883475               0.000000000              -0.449255650              -0.449255650               0.000000000              -0.474627825              -0.474627825               0.000000000              -0.500000000              -0.500000000               0.000000000              -0.084374307              -0.102810390               0.000000000              -0.106444663              -0.127634741               0.000000000              -0.128515018              -0.152459092               0.000000000              -0.150585374              -0.177283442               0.000000000              -0.172655730              -0.202107793               0.000000000              -0.194726086              -0.226932143               0.000000000              -0.216796442              -0.251756494               0.000000000              -0.238866798              -0.276580845               0.000000000              -0.260937153              -0.301405195               0.000000000              -0.283007509              -0.326229546               0.000000000              -0.305077865              -0.351053896               0.000000000              -0.327148221              -0.375878247               0.000000000              -0.349218577              -0.400702598               0.000000000              -0.371288933              -0.425526948               0.000000000              -0.393359288              -0.450351299               0.000000000              -0.415429644              -0.475175649               0.000000000              -0.437500000              -0.500000000               0.000000000              -0.073890841              -0.110585458               0.000000000              -0.092710163              -0.134923867               0.000000000              -0.111529486              -0.159262276               0.000000000              -0.130348808              -0.183600685               0.000000000              -0.149168131              -0.207939094               0.000000000              -0.167987453              -0.232277503               0.000000000              -0.186806776              -0.256615912               0.000000000              -0.205626098              -0.280954320               0.000000000              -0.224445420              -0.305292729               0.000000000              -0.243264743              -0.329631138               0.000000000              -0.262084065              -0.353969547               0.000000000              -0.280903388              -0.378307956               0.000000000              -0.299722710              -0.402646365               0.000000000              -0.318542033              -0.426984773               0.000000000              -0.337361355              -0.451323182               0.000000000              -0.356180678              -0.475661591               0.000000000              -0.375000000              -0.500000000               0.000000000              -0.062695766              -0.117295528               0.000000000              -0.078308531              -0.141214558               0.000000000              -0.093921295              -0.165133587               0.000000000              -0.109534060              -0.189052617               0.000000000              -0.125146824              -0.212971646               0.000000000              -0.140759589              -0.236890676               0.000000000              -0.156372354              -0.260809705               0.000000000              -0.171985118              -0.284728735               0.000000000              -0.187597883              -0.308647764               0.000000000              -0.203210648              -0.332566794               0.000000000              -0.218823412              -0.356485823               0.000000000              -0.234436177              -0.380404853               0.000000000              -0.250048941              -0.404323882               0.000000000              -0.265661706              -0.428242912               0.000000000              -0.281274471              -0.452161941               0.000000000              -0.296887235              -0.476080971               0.000000000              -0.312500000              -0.500000000               0.000000000              -0.050896897              -0.122875978               0.000000000              -0.063340840              -0.146446229               0.000000000              -0.075784784              -0.170016481               0.000000000              -0.088228728              -0.193586732               0.000000000              -0.100672672              -0.217156983               0.000000000              -0.113116616              -0.240727235               0.000000000              -0.125560560              -0.264297486               0.000000000              -0.138004504              -0.287867738               0.000000000              -0.150448448              -0.311437989               0.000000000              -0.162892392              -0.335008240               0.000000000              -0.175336336              -0.358578492               0.000000000              -0.187780280              -0.382148743               0.000000000              -0.200224224              -0.405718994               0.000000000              -0.212668168              -0.429289246               0.000000000              -0.225112112              -0.452859497               0.000000000              -0.237556056              -0.476429749               0.000000000              -0.250000000              -0.500000000               0.000000000              -0.038607862              -0.127273065               0.000000000              -0.047913621              -0.150568498               0.000000000              -0.057219379              -0.173863932               0.000000000              -0.066525138              -0.197159365               0.000000000              -0.075830897              -0.220454798               0.000000000              -0.085136655              -0.243750232               0.000000000              -0.094442414              -0.267045665               0.000000000              -0.103748172              -0.290341099               0.000000000              -0.113053931              -0.313636532               0.000000000              -0.122359690              -0.336931966               0.000000000              -0.131665448              -0.360227399               0.000000000              -0.140971207              -0.383522833               0.000000000              -0.150276966              -0.406818266               0.000000000              -0.159582724              -0.430113700               0.000000000              -0.168888483              -0.453409133               0.000000000              -0.178194241              -0.476704567               0.000000000              -0.187500000              -0.500000000               0.000000000              -0.025947013              -0.130444442               0.000000000              -0.032137825              -0.153541665               0.000000000              -0.038328636              -0.176638887               0.000000000              -0.044519448              -0.199736109               0.000000000              -0.050710260              -0.222833332               0.000000000              -0.056901071              -0.245930554               0.000000000              -0.063091883              -0.269027776               0.000000000              -0.069282695              -0.292124999               0.000000000              -0.075473506              -0.315222221               0.000000000              -0.081664318              -0.338319444               0.000000000              -0.087855130              -0.361416666               0.000000000              -0.094045942              -0.384513888               0.000000000              -0.100236753              -0.407611111               0.000000000              -0.106427565              -0.430708333               0.000000000              -0.112618377              -0.453805555               0.000000000              -0.118809188              -0.476902778               0.000000000              -0.125000000              -0.500000000               0.000000000              -0.013036280              -0.132359569               0.000000000              -0.016127762              -0.155337096               0.000000000              -0.019219245              -0.178314623               0.000000000              -0.022310727              -0.201292150               0.000000000              -0.025402210              -0.224269676               0.000000000              -0.028493692              -0.247247203               0.000000000              -0.031585175              -0.270224730               0.000000000              -0.034676657              -0.293202257               0.000000000              -0.037768140              -0.316179784               0.000000000              -0.040859622              -0.339157311               0.000000000              -0.043951105              -0.362134838               0.000000000              -0.047042587              -0.385112365               0.000000000              -0.050134070              -0.408089892               0.000000000              -0.053225552              -0.431067419               0.000000000              -0.056317035              -0.454044946               0.000000000              -0.059408517              -0.477022473               0.000000000              -0.062500000              -0.500000000               0.000000000               0.000000000              -0.133000000               0.000000000               0.000000000              -0.155937500               0.000000000               0.000000000              -0.178875000               0.000000000               0.000000000              -0.201812500               0.000000000               0.000000000              -0.224750000               0.000000000               0.000000000              -0.247687500               0.000000000               0.000000000              -0.270625000               0.000000000               0.000000000              -0.293562500               0.000000000               0.000000000              -0.316500000               0.000000000               0.000000000              -0.339437500               0.000000000               0.000000000              -0.362375000               0.000000000               0.000000000              -0.385312500               0.000000000               0.000000000              -0.408250000               0.000000000               0.000000000              -0.431187500               0.000000000               0.000000000              -0.454125000               0.000000000               0.000000000              -0.477062500               0.000000000               0.000000000              -0.500000000               0.000000000              -0.133000000               0.000000000               0.000000000              -0.155937500               0.000000000               0.000000000              -0.178875000               0.000000000               0.000000000              -0.201812500               0.000000000               0.000000000              -0.224750000               0.000000000               0.000000000              -0.247687500               0.000000000               0.000000000              -0.270625000               0.000000000               0.000000000              -0.293562500               0.000000000               0.000000000              -0.316500000               0.000000000               0.000000000              -0.339437500               0.000000000               0.000000000              -0.362375000               0.000000000               0.000000000              -0.385312500               0.000000000               0.000000000              -0.408250000               0.000000000               0.000000000              -0.431187500               0.000000000               0.000000000              -0.454125000               0.000000000               0.000000000              -0.477062500               0.000000000               0.000000000              -0.500000000               0.000000000               0.000000000              -0.132359569               0.013036280               0.000000000              -0.155337096               0.016127762               0.000000000              -0.178314623               0.019219245               0.000000000              -0.201292150               0.022310727               0.000000000              -0.224269676               0.025402210               0.000000000              -0.247247203               0.028493692               0.000000000              -0.270224730               0.031585175               0.000000000              -0.293202257               0.034676657               0.000000000              -0.316179784               0.037768140               0.000000000              -0.339157311               0.040859622               0.000000000              -0.362134838               0.043951105               0.000000000              -0.385112365               0.047042587               0.000000000              -0.408089892               0.050134070               0.000000000              -0.431067419               0.053225552               0.000000000              -0.454044946               0.056317035               0.000000000              -0.477022473               0.059408517               0.000000000              -0.500000000               0.062500000               0.000000000              -0.130444442               0.025947013               0.000000000              -0.153541665               0.032137825               0.000000000              -0.176638887               0.038328636               0.000000000              -0.199736109               0.044519448               0.000000000              -0.222833332               0.050710260               0.000000000              -0.245930554               0.056901071               0.000000000              -0.269027776               0.063091883               0.000000000              -0.292124999               0.069282695               0.000000000              -0.315222221               0.075473506               0.000000000              -0.338319444               0.081664318               0.000000000              -0.361416666               0.087855130               0.000000000              -0.384513888               0.094045942               0.000000000              -0.407611111               0.100236753               0.000000000              -0.430708333               0.106427565               0.000000000              -0.453805555               0.112618377               0.000000000              -0.476902778               0.118809188               0.000000000              -0.500000000               0.125000000               0.000000000              -0.127273065               0.038607862               0.000000000              -0.150568498               0.047913621               0.000000000              -0.173863932               0.057219379               0.000000000              -0.197159365               0.066525138               0.000000000              -0.220454798               0.075830897               0.000000000              -0.243750232               0.085136655               0.000000000              -0.267045665               0.094442414               0.000000000              -0.290341099               0.103748172               0.000000000              -0.313636532               0.113053931               0.000000000              -0.336931966               0.122359690               0.000000000              -0.360227399               0.131665448               0.000000000              -0.383522833               0.140971207               0.000000000              -0.406818266               0.150276966               0.000000000              -0.430113700               0.159582724               0.000000000              -0.453409133               0.168888483               0.000000000              -0.476704567               0.178194241               0.000000000              -0.500000000               0.187500000               0.000000000              -0.122875978               0.050896897               0.000000000              -0.146446229               0.063340840               0.000000000              -0.170016481               0.075784784               0.000000000              -0.193586732               0.088228728               0.000000000              -0.217156983               0.100672672               0.000000000              -0.240727235               0.113116616               0.000000000              -0.264297486               0.125560560               0.000000000              -0.287867738               0.138004504               0.000000000              -0.311437989               0.150448448               0.000000000              -0.335008240               0.162892392               0.000000000              -0.358578492               0.175336336               0.000000000              -0.382148743               0.187780280               0.000000000              -0.405718994               0.200224224               0.000000000              -0.429289246               0.212668168               0.000000000              -0.452859497               0.225112112               0.000000000              -0.476429749               0.237556056               0.000000000              -0.500000000               0.250000000               0.000000000              -0.117295528               0.062695766               0.000000000              -0.141214558               0.078308531               0.000000000              -0.165133587               0.093921295               0.000000000              -0.189052617               0.109534060               0.000000000              -0.212971646               0.125146824               0.000000000              -0.236890676               0.140759589               0.000000000              -0.260809705               0.156372354               0.000000000              -0.284728735               0.171985118               0.000000000              -0.308647764               0.187597883               0.000000000              -0.332566794               0.203210648               0.000000000              -0.356485823               0.218823412               0.000000000              -0.380404853               0.234436177               0.000000000              -0.404323882               0.250048941               0.000000000              -0.428242912               0.265661706               0.000000000              -0.452161941               0.281274471               0.000000000              -0.476080971               0.296887235               0.000000000              -0.500000000               0.312500000               0.000000000              -0.110585458               0.073890841               0.000000000              -0.134923867               0.092710163               0.000000000              -0.159262276               0.111529486               0.000000000              -0.183600685               0.130348808               0.000000000              -0.207939094               0.149168131               0.000000000              -0.232277503               0.167987453               0.000000000              -0.256615912               0.186806776               0.000000000              -0.280954320               0.205626098               0.000000000              -0.305292729               0.224445420               0.000000000              -0.329631138               0.243264743               0.000000000              -0.353969547               0.262084065               0.000000000              -0.378307956               0.280903388               0.000000000              -0.402646365               0.299722710               0.000000000              -0.426984773               0.318542033               0.000000000              -0.451323182               0.337361355               0.000000000              -0.475661591               0.356180678               0.000000000              -0.500000000               0.375000000               0.000000000              -0.102810390               0.084374307               0.000000000              -0.127634741               0.106444663               0.000000000              -0.152459092               0.128515018               0.000000000              -0.177283442               0.150585374               0.000000000              -0.202107793               0.172655730               0.000000000              -0.226932143               0.194726086               0.000000000              -0.251756494               0.216796442               0.000000000              -0.276580845               0.238866798               0.000000000              -0.301405195               0.260937153               0.000000000              -0.326229546               0.283007509               0.000000000              -0.351053896               0.305077865               0.000000000              -0.375878247               0.327148221               0.000000000              -0.400702598               0.349218577               0.000000000              -0.425526948               0.371288933               0.000000000              -0.450351299               0.393359288               0.000000000              -0.475175649               0.415429644               0.000000000              -0.500000000               0.437500000               0.000000000              -0.094045202               0.094045202               0.000000000              -0.119417377               0.119417377               0.000000000              -0.144789552               0.144789552               0.000000000              -0.170161727               0.170161727               0.000000000              -0.195533901               0.195533901               0.000000000              -0.220906076               0.220906076               0.000000000              -0.246278251               0.246278251               0.000000000              -0.271650426               0.271650426               0.000000000              -0.297022601               0.297022601               0.000000000              -0.322394776               0.322394776               0.000000000              -0.347766951               0.347766951               0.000000000              -0.373139126               0.373139126               0.000000000              -0.398511300               0.398511300               0.000000000              -0.423883475               0.423883475               0.000000000              -0.449255650               0.449255650               0.000000000              -0.474627825               0.474627825               0.000000000              -0.500000000               0.500000000               0.000000000              -0.084374307               0.102810390               0.000000000              -0.106444663               0.127634741               0.000000000              -0.128515018               0.152459092               0.000000000              -0.150585374               0.177283442               0.000000000              -0.172655730               0.202107793               0.000000000              -0.194726086               0.226932143               0.000000000              -0.216796442               0.251756494               0.000000000              -0.238866798               0.276580845               0.000000000              -0.260937153               0.301405195               0.000000000              -0.283007509               0.326229546               0.000000000              -0.305077865               0.351053896               0.000000000              -0.327148221               0.375878247               0.000000000              -0.349218577               0.400702598               0.000000000              -0.371288933               0.425526948               0.000000000              -0.393359288               0.450351299               0.000000000              -0.415429644               0.475175649               0.000000000              -0.437500000               0.500000000               0.000000000              -0.073890841               0.110585458               0.000000000              -0.092710163               0.134923867               0.000000000              -0.111529486               0.159262276               0.000000000              -0.130348808               0.183600685               0.000000000              -0.149168131               0.207939094               0.000000000              -0.167987453               0.232277503               0.000000000              -0.186806776               0.256615912               0.000000000              -0.205626098               0.280954320               0.000000000              -0.224445420               0.305292729               0.000000000              -0.243264743               0.329631138               0.000000000              -0.262084065               0.353969547               0.000000000              -0.280903388               0.378307956               0.000000000              -0.299722710               0.402646365               0.000000000              -0.318542033               0.426984773               0.000000000              -0.337361355               0.451323182               0.000000000              -0.356180678               0.475661591               0.000000000              -0.375000000               0.500000000               0.000000000              -0.062695766               0.117295528               0.000000000              -0.078308531               0.141214558               0.000000000              -0.093921295               0.165133587               0.000000000              -0.109534060               0.189052617               0.000000000              -0.125146824               0.212971646               0.000000000              -0.140759589               0.236890676               0.000000000              -0.156372354               0.260809705               0.000000000              -0.171985118               0.284728735               0.000000000              -0.187597883               0.308647764               0.000000000              -0.203210648               0.332566794               0.000000000              -0.218823412               0.356485823               0.000000000              -0.234436177               0.380404853               0.000000000              -0.250048941               0.404323882               0.000000000              -0.265661706               0.428242912               0.000000000              -0.281274471               0.452161941               0.000000000              -0.296887235               0.476080971               0.000000000              -0.312500000               0.500000000               0.000000000              -0.050896897               0.122875978               0.000000000              -0.063340840               0.146446229               0.000000000              -0.075784784               0.170016481               0.000000000              -0.088228728               0.193586732               0.000000000              -0.100672672               0.217156983               0.000000000              -0.113116616               0.240727235               0.000000000              -0.125560560               0.264297486               0.000000000              -0.138004504               0.287867738               0.000000000              -0.150448448               0.311437989               0.000000000              -0.162892392               0.335008240               0.000000000              -0.175336336               0.358578492               0.000000000              -0.187780280               0.382148743               0.000000000              -0.200224224               0.405718994               0.000000000              -0.212668168               0.429289246               0.000000000              -0.225112112               0.452859497               0.000000000              -0.237556056               0.476429749               0.000000000              -0.250000000               0.500000000               0.000000000              -0.038607862               0.127273065               0.000000000              -0.047913621               0.150568498               0.000000000              -0.057219379               0.173863932               0.000000000              -0.066525138               0.197159365               0.000000000              -0.075830897               0.220454798               0.000000000              -0.085136655               0.243750232               0.000000000              -0.094442414               0.267045665               0.000000000              -0.103748172               0.290341099               0.000000000              -0.113053931               0.313636532               0.000000000              -0.122359690               0.336931966               0.000000000              -0.131665448               0.360227399               0.000000000              -0.140971207               0.383522833               0.000000000              -0.150276966               0.406818266               0.000000000              -0.159582724               0.430113700               0.000000000              -0.168888483               0.453409133               0.000000000              -0.178194241               0.476704567               0.000000000              -0.187500000               0.500000000               0.000000000              -0.025947013               0.130444442               0.000000000              -0.032137825               0.153541665               0.000000000              -0.038328636               0.176638887               0.000000000              -0.044519448               0.199736109               0.000000000              -0.050710260               0.222833332               0.000000000              -0.056901071               0.245930554               0.000000000              -0.063091883               0.269027776               0.000000000              -0.069282695               0.292124999               0.000000000              -0.075473506               0.315222221               0.000000000              -0.081664318               0.338319444               0.000000000              -0.087855130               0.361416666               0.000000000              -0.094045942               0.384513888               0.000000000              -0.100236753               0.407611111               0.000000000              -0.106427565               0.430708333               0.000000000              -0.112618377               0.453805555               0.000000000              -0.118809188               0.476902778               0.000000000              -0.125000000               0.500000000               0.000000000              -0.013036280               0.132359569               0.000000000              -0.016127762               0.155337096               0.000000000              -0.019219245               0.178314623               0.000000000              -0.022310727               0.201292150               0.000000000              -0.025402210               0.224269676               0.000000000              -0.028493692               0.247247203               0.000000000              -0.031585175               0.270224730               0.000000000              -0.034676657               0.293202257               0.000000000              -0.037768140               0.316179784               0.000000000              -0.040859622               0.339157311               0.000000000              -0.043951105               0.362134838               0.000000000              -0.047042587               0.385112365               0.000000000              -0.050134070               0.408089892               0.000000000              -0.053225552               0.431067419               0.000000000              -0.056317035               0.454044946               0.000000000              -0.059408517               0.477022473               0.000000000              -0.062500000               0.500000000               0.000000000               0.000000000               0.133000000               0.000000000               0.000000000               0.155937500               0.000000000               0.000000000               0.178875000               0.000000000               0.000000000               0.201812500               0.000000000               0.000000000               0.224750000               0.000000000               0.000000000               0.247687500               0.000000000               0.000000000               0.270625000               0.000000000               0.000000000               0.293562500               0.000000000               0.000000000               0.316500000               0.000000000               0.000000000               0.339437500               0.000000000               0.000000000               0.362375000               0.000000000               0.000000000               0.385312500               0.000000000               0.000000000               0.408250000               0.000000000               0.000000000               0.431187500               0.000000000               0.000000000               0.454125000               0.000000000               0.000000000               0.477062500               0.000000000               0.000000000               0.500000000               0.000000000 </DataArray>
</Points>
<Cells>
<DataArray type="Int32"                                    Name="connectivity"                                                      NumberOfComponents=" 1" format="ascii">
         0          1         18         17          1          2         19         18          2          3         20         19          3          4         21         20          4          5         22         21          5          6         23         22          6          7         24         23          7          8         25         24          8          9         26         25          9         10         27         26         10         11         28         27         11         12         29         28         12         13         30         29         13         14         31         30         14         15         32         31         15         16         33         32         17         18         35         34         18         19         36         35         19         20         37         36         20         21         38         37         21         22         39         38         22         23         40         39         23         24         41         40         24         25         42         41         25         26         43         42         26         27         44         43         27         28         45         44         28         29         46         45         29         30         47         46         30         31         48         47         31         32         49         48         32         33         50         49         34         35         52         51         35         36         53         52         36         37         54         53         37         38         55         54         38         39         56         55         39         40         57         56         40         41         58         57         41         42         59         58         42         43         60         59         43         44         61         60         44         45         62         61         45         46         63         62         46         47         64         63         47         48         65         64         48         49         66         65         49         50         67         66         51         52         69         68         52         53         70         69         53         54         71         70         54         55         72         71         55         56         73         72         56         57         74         73         57         58         75         74         58         59         76         75         59         60         77         76         60         61         78         77         61         62         79         78         62         63         80         79         63         64         81         80         64         65         82         81         65         66         83         82         66         67         84         83         68         69         86         85         69         70         87         86         70         71         88         87         71         72         89         88         72         73         90         89         73         74         91         90         74         75         92         91         75         76         93         92         76         77         94         93         77         78         95         94         78         79         96         95         79         80         97         96         80         81         98         97         81         82         99         98         82         83        100         99         83         84        101        100         85         86        103        102         86         87        104        103         87         88        105        104         88         89        106        105         89         90        107        106         90         91        108        107         91         92        109        108         92         93        110        109         93         94        111        110         94         95        112        111         95         96        113        112         96         97        114        113         97         98        115        114         98         99        116        115         99        100        117        116        100        101        118        117        102        103        120        119        103        104        121        120        104        105        122        121        105        106        123        122        106        107        124        123        107        108        125        124        108        109        126        125        109        110        127        126        110        111        128        127        111        112        129        128        112        113        130        129        113        114        131        130        114        115        132        131        115        116        133        132        116        117        134        133        117        118        135        134        119        120        137        136        120        121        138        137        121        122        139        138        122        123        140        139        123        124        141        140        124        125        142        141        125        126        143        142        126        127        144        143        127        128        145        144        128        129        146        145        129        130        147        146        130        131        148        147        131        132        149        148        132        133        150        149        133        134        151        150        134        135        152        151        136        137        154        153        137        138        155        154        138        139        156        155        139        140        157        156        140        141        158        157        141        142        159        158        142        143        160        159        143        144        161        160        144        145        162        161        145        146        163        162        146        147        164        163        147        148        165        164        148        149        166        165        149        150        167        166        150        151        168        167        151        152        169        168        153        154        171        170        154        155        172        171        155        156        173        172        156        157        174        173        157        158        175        174        158        159        176        175        159        160        177        176        160        161        178        177        161        162        179        178        162        163        180        179        163        164        181        180        164        165        182        181        165        166        183        182        166        167        184        183        167        168        185        184        168        169        186        185        170        171        188        187        171        172        189        188        172        173        190        189        173        174        191        190        174        175        192        191        175        176        193        192        176        177        194        193        177        178        195        194        178        179        196        195        179        180        197        196        180        181        198        197        181        182        199        198        182        183        200        199        183        184        201        200        184        185        202        201        185        186        203        202        187        188        205        204        188        189        206        205        189        190        207        206        190        191        208        207        191        192        209        208        192        193        210        209        193        194        211        210        194        195        212        211        195        196        213        212        196        197        214        213        197        198        215        214        198        199        216        215        199        200        217        216        200        201        218        217        201        202        219        218        202        203        220        219        204        205        222        221        205        206        223        222        206        207        224        223        207        208        225        224        208        209        226        225        209        210        227        226        210        211        228        227        211        212        229        228        212        213        230        229        213        214        231        230        214        215        232        231        215        216        233        232        216        217        234        233        217        218        235        234        218        219        236        235        219        220        237        236        221        222        239        238        222        223        240        239        223        224        241        240        224        225        242        241        225        226        243        242        226        227        244        243        227        228        245        244        228        229        246        245        229        230        247        246        230        231        248        247        231        232        249        248        232        233        250        249        233        234        251        250        234        235        252        251        235        236        253        252        236        237        254        253        238        239        256        255        239        240        257        256        240        241        258        257        241        242        259        258        242        243        260        259        243        244        261        260        244        245        262        261        245        246        263        262        246        247        264        263        247        248        265        264        248        249        266        265        249        250        267        266        250        251        268        267        251        252        269        268        252        253        270        269        253        254        271        270        255        256        273        272        256        257        274        273        257        258        275        274        258        259        276        275        259        260        277        276        260        261        278        277        261        262        279        278        262        263        280        279        263        264        281        280        264        265        282        281        265        266        283        282        266        267        284        283        267        268        285        284        268        269        286        285        269        270        287        286        270        271        288        287        306        307          1          0        307        308          2          1        308        309          3          2        309        310          4          3        310        311          5          4        311        312          6          5        312        313          7          6        313        314          8          7        314        315          9          8        315        316         10          9        316        317         11         10        317        318         12         11        318        319         13         12        319        320         14         13        320        321         15         14        321        322         16         15        323        324        307        306        324        325        308        307        325        326        309        308        326        327        310        309        327        328        311        310        328        329        312        311        329        330        313        312        330        331        314        313        331        332        315        314        332        333        316        315        333        334        317        316        334        335        318        317        335        336        319        318        336        337        320        319        337        338        321        320        338        339        322        321        340        341        324        323        341        342        325        324        342        343        326        325        343        344        327        326        344        345        328        327        345        346        329        328        346        347        330        329        347        348        331        330        348        349        332        331        349        350        333        332        350        351        334        333        351        352        335        334        352        353        336        335        353        354        337        336        354        355        338        337        355        356        339        338        357        358        341        340        358        359        342        341        359        360        343        342        360        361        344        343        361        362        345        344        362        363        346        345        363        364        347        346        364        365        348        347        365        366        349        348        366        367        350        349        367        368        351        350        368        369        352        351        369        370        353        352        370        371        354        353        371        372        355        354        372        373        356        355        374        375        358        357        375        376        359        358        376        377        360        359        377        378        361        360        378        379        362        361        379        380        363        362        380        381        364        363        381        382        365        364        382        383        366        365        383        384        367        366        384        385        368        367        385        386        369        368        386        387        370        369        387        388        371        370        388        389        372        371        389        390        373        372        391        392        375        374        392        393        376        375        393        394        377        376        394        395        378        377        395        396        379        378        396        397        380        379        397        398        381        380        398        399        382        381        399        400        383        382        400        401        384        383        401        402        385        384        402        403        386        385        403        404        387        386        404        405        388        387        405        406        389        388        406        407        390        389        408        409        392        391        409        410        393        392        410        411        394        393        411        412        395        394        412        413        396        395        413        414        397        396        414        415        398        397        415        416        399        398        416        417        400        399        417        418        401        400        418        419        402        401        419        420        403        402        420        421        404        403        421        422        405        404        422        423        406        405        423        424        407        406        425        426        409        408        426        427        410        409        427        428        411        410        428        429        412        411        429        430        413        412        430        431        414        413        431        432        415        414        432        433        416        415        433        434        417        416        434        435        418        417        435        436        419        418        436        437        420        419        437        438        421        420        438        439        422        421        439        440        423        422        440        441        424        423        442        443        426        425        443        444        427        426        444        445        428        427        445        446        429        428        446        447        430        429        447        448        431        430        448        449        432        431        449        450        433        432        450        451        434        433        451        452        435        434        452        453        436        435        453        454        437        436        454        455        438        437        455        456        439        438        456        457        440        439        457        458        441        440        459        460        443        442        460        461        444        443        461        462        445        444        462        463        446        445        463        464        447        446        464        465        448        447        465        466        449        448        466        467        450        449        467        468        451        450        468        469        452        451        469        470        453        452        470        471        454        453        471        472        455        454        472        473        456        455        473        474        457        456        474        475        458        457        476        477        460        459        477        478        461        460        478        479        462        461        479        480        463        462        480        481        464        463        481        482        465        464        482        483        466        465        483        484        467        466        484        485        468        467        485        486        469        468        486        487        470        469        487        488        471        470        488        489        472        471        489        490        473        472        490        491        474        473        491        492        475        474        493        494        477        476        494        495        478        477        495        496        479        478        496        497        480        479        497        498        481        480        498        499        482        481        499        500        483        482        500        501        484        483        501        502        485        484        502        503        486        485        503        504        487        486        504        505        488        487        505        506        489        488        506        507        490        489        507        508        491        490        508        509        492        491        510        511        494        493        511        512        495        494        512        513        496        495        513        514        497        496        514        515        498        497        515        516        499        498        516        517        500        499        517        518        501        500        518        519        502        501        519        520        503        502        520        521        504        503        521        522        505        504        522        523        506        505        523        524        507        506        524        525        508        507        525        526        509        508        527        528        511        510        528        529        512        511        529        530        513        512        530        531        514        513        531        532        515        514        532        533        516        515        533        534        517        516        534        535        518        517        535        536        519        518        536        537        520        519        537        538        521        520        538        539        522        521        539        540        523        522        540        541        524        523        541        542        525        524        542        543        526        525        544        545        528        527        545        546        529        528        546        547        530        529        547        548        531        530        548        549        532        531        549        550        533        532        550        551        534        533        551        552        535        534        552        553        536        535        553        554        537        536        554        555        538        537        555        556        539        538        556        557        540        539        557        558        541        540        558        559        542        541        559        560        543        542        561        562        545        544        562        563        546        545        563        564        547        546        564        565        548        547        565        566        549        548        566        567        550        549        567        568        551        550        568        569        552        551        569        570        553        552        570        571        554        553        571        572        555        554        572        573        556        555        573        574        557        556        574        575        558        557        575        576        559        558        576        577        560        559        578        579        596        595        579        580        597        596        580        581        598        597        581        582        599        598        582        583        600        599        583        584        601        600        584        585        602        601        585        586        603        602        586        587        604        603        587        588        605        604        588        589        606        605        589        590        607        606        590        591        608        607        591        592        609        608        592        593        610        609        593        594        611        610        595        596        613        612        596        597        614        613        597        598        615        614        598        599        616        615        599        600        617        616        600        601        618        617        601        602        619        618        602        603        620        619        603        604        621        620        604        605        622        621        605        606        623        622        606        607        624        623        607        608        625        624        608        609        626        625        609        610        627        626        610        611        628        627        612        613        630        629        613        614        631        630        614        615        632        631        615        616        633        632        616        617        634        633        617        618        635        634        618        619        636        635        619        620        637        636        620        621        638        637        621        622        639        638        622        623        640        639        623        624        641        640        624        625        642        641        625        626        643        642        626        627        644        643        627        628        645        644        629        630        647        646        630        631        648        647        631        632        649        648        632        633        650        649        633        634        651        650        634        635        652        651        635        636        653        652        636        637        654        653        637        638        655        654        638        639        656        655        639        640        657        656        640        641        658        657        641        642        659        658        642        643        660        659        643        644        661        660        644        645        662        661        646        647        664        663        647        648        665        664        648        649        666        665        649        650        667        666        650        651        668        667        651        652        669        668        652        653        670        669        653        654        671        670        654        655        672        671        655        656        673        672        656        657        674        673        657        658        675        674        658        659        676        675        659        660        677        676        660        661        678        677        661        662        679        678        663        664        681        680        664        665        682        681        665        666        683        682        666        667        684        683        667        668        685        684        668        669        686        685        669        670        687        686        670        671        688        687        671        672        689        688        672        673        690        689        673        674        691        690        674        675        692        691        675        676        693        692        676        677        694        693        677        678        695        694        678        679        696        695        680        681        698        697        681        682        699        698        682        683        700        699        683        684        701        700        684        685        702        701        685        686        703        702        686        687        704        703        687        688        705        704        688        689        706        705        689        690        707        706        690        691        708        707        691        692        709        708        692        693        710        709        693        694        711        710        694        695        712        711        695        696        713        712        697        698        715        714        698        699        716        715        699        700        717        716        700        701        718        717        701        702        719        718        702        703        720        719        703        704        721        720        704        705        722        721        705        706        723        722        706        707        724        723        707        708        725        724        708        709        726        725        709        710        727        726        710        711        728        727        711        712        729        728        712        713        730        729        714        715        732        731        715        716        733        732        716        717        734        733        717        718        735        734        718        719        736        735        719        720        737        736        720        721        738        737        721        722        739        738        722        723        740        739        723        724        741        740        724        725        742        741        725        726        743        742        726        727        744        743        727        728        745        744        728        729        746        745        729        730        747        746        731        732        749        748        732        733        750        749        733        734        751        750        734        735        752        751        735        736        753        752        736        737        754        753        737        738        755        754        738        739        756        755        739        740        757        756        740        741        758        757        741        742        759        758        742        743        760        759        743        744        761        760        744        745        762        761        745        746        763        762        746        747        764        763        748        749        766        765        749        750        767        766        750        751        768        767        751        752        769        768        752        753        770        769        753        754        771        770        754        755        772        771        755        756        773        772        756        757        774        773        757        758        775        774        758        759        776        775        759        760        777        776        760        761        778        777        761        762        779        778        762        763        780        779        763        764        781        780        765        766        783        782        766        767        784        783        767        768        785        784        768        769        786        785        769        770        787        786        770        771        788        787        771        772        789        788        772        773        790        789        773        774        791        790        774        775        792        791        775        776        793        792        776        777        794        793        777        778        795        794        778        779        796        795        779        780        797        796        780        781        798        797        782        783        800        799        783        784        801        800        784        785        802        801        785        786        803        802        786        787        804        803        787        788        805        804        788        789        806        805        789        790        807        806        790        791        808        807        791        792        809        808        792        793        810        809        793        794        811        810        794        795        812        811        795        796        813        812        796        797        814        813        797        798        815        814        799        800        817        816        800        801        818        817        801        802        819        818        802        803        820        819        803        804        821        820        804        805        822        821        805        806        823        822        806        807        824        823        807        808        825        824        808        809        826        825        809        810        827        826        810        811        828        827        811        812        829        828        812        813        830        829        813        814        831        830        814        815        832        831        816        817        834        833        817        818        835        834        818        819        836        835        819        820        837        836        820        821        838        837        821        822        839        838        822        823        840        839        823        824        841        840        824        825        842        841        825        826        843        842        826        827        844        843        827        828        845        844        828        829        846        845        829        830        847        846        830        831        848        847        831        832        849        848        833        834        562        561        834        835        563        562        835        836        564        563        836        837        565        564        837        838        566        565        838        839        567        566        839        840        568        567        840        841        569        568        841        842        570        569        842        843        571        570        843        844        572        571        844        845        573        572        845        846        574        573        846        847        575        574        847        848        576        575        848        849        577        576        884        885        579        578        885        886        580        579        886        887        581        580        887        888        582        581        888        889        583        582        889        890        584        583        890        891        585        584        891        892        586        585        892        893        587        586        893        894        588        587        894        895        589        588        895        896        590        589        896        897        591        590        897        898        592        591        898        899        593        592        899        900        594        593        901        902        885        884        902        903        886        885        903        904        887        886        904        905        888        887        905        906        889        888        906        907        890        889        907        908        891        890        908        909        892        891        909        910        893        892        910        911        894        893        911        912        895        894        912        913        896        895        913        914        897        896        914        915        898        897        915        916        899        898        916        917        900        899        918        919        902        901        919        920        903        902        920        921        904        903        921        922        905        904        922        923        906        905        923        924        907        906        924        925        908        907        925        926        909        908        926        927        910        909        927        928        911        910        928        929        912        911        929        930        913        912        930        931        914        913        931        932        915        914        932        933        916        915        933        934        917        916        935        936        919        918        936        937        920        919        937        938        921        920        938        939        922        921        939        940        923        922        940        941        924        923        941        942        925        924        942        943        926        925        943        944        927        926        944        945        928        927        945        946        929        928        946        947        930        929        947        948        931        930        948        949        932        931        949        950        933        932        950        951        934        933        952        953        936        935        953        954        937        936        954        955        938        937        955        956        939        938        956        957        940        939        957        958        941        940        958        959        942        941        959        960        943        942        960        961        944        943        961        962        945        944        962        963        946        945        963        964        947        946        964        965        948        947        965        966        949        948        966        967        950        949        967        968        951        950        969        970        953        952        970        971        954        953        971        972        955        954        972        973        956        955        973        974        957        956        974        975        958        957        975        976        959        958        976        977        960        959        977        978        961        960        978        979        962        961        979        980        963        962        980        981        964        963        981        982        965        964        982        983        966        965        983        984        967        966        984        985        968        967        986        987        970        969        987        988        971        970        988        989        972        971        989        990        973        972        990        991        974        973        991        992        975        974        992        993        976        975        993        994        977        976        994        995        978        977        995        996        979        978        996        997        980        979        997        998        981        980        998        999        982        981        999       1000        983        982       1000       1001        984        983       1001       1002        985        984       1003       1004        987        986       1004       1005        988        987       1005       1006        989        988       1006       1007        990        989       1007       1008        991        990       1008       1009        992        991       1009       1010        993        992       1010       1011        994        993       1011       1012        995        994       1012       1013        996        995       1013       1014        997        996       1014       1015        998        997       1015       1016        999        998       1016       1017       1000        999       1017       1018       1001       1000       1018       1019       1002       1001       1020       1021       1004       1003       1021       1022       1005       1004       1022       1023       1006       1005       1023       1024       1007       1006       1024       1025       1008       1007       1025       1026       1009       1008       1026       1027       1010       1009       1027       1028       1011       1010       1028       1029       1012       1011       1029       1030       1013       1012       1030       1031       1014       1013       1031       1032       1015       1014       1032       1033       1016       1015       1033       1034       1017       1016       1034       1035       1018       1017       1035       1036       1019       1018       1037       1038       1021       1020       1038       1039       1022       1021       1039       1040       1023       1022       1040       1041       1024       1023       1041       1042       1025       1024       1042       1043       1026       1025       1043       1044       1027       1026       1044       1045       1028       1027       1045       1046       1029       1028       1046       1047       1030       1029       1047       1048       1031       1030       1048       1049       1032       1031       1049       1050       1033       1032       1050       1051       1034       1033       1051       1052       1035       1034       1052       1053       1036       1035       1054       1055       1038       1037       1055       1056       1039       1038       1056       1057       1040       1039       1057       1058       1041       1040       1058       1059       1042       1041       1059       1060       1043       1042       1060       1061       1044       1043       1061       1062       1045       1044       1062       1063       1046       1045       1063       1064       1047       1046       1064       1065       1048       1047       1065       1066       1049       1048       1066       1067       1050       1049       1067       1068       1051       1050       1068       1069       1052       1051       1069       1070       1053       1052       1071       1072       1055       1054       1072       1073       1056       1055       1073       1074       1057       1056       1074       1075       1058       1057       1075       1076       1059       1058       1076       1077       1060       1059       1077       1078       1061       1060       1078       1079       1062       1061       1079       1080       1063       1062       1080       1081       1064       1063       1081       1082       1065       1064       1082       1083       1066       1065       1083       1084       1067       1066       1084       1085       1068       1067       1085       1086       1069       1068       1086       1087       1070       1069       1088       1089       1072       1071       1089       1090       1073       1072       1090       1091       1074       1073       1091       1092       1075       1074       1092       1093       1076       1075       1093       1094       1077       1076       1094       1095       1078       1077       1095       1096       1079       1078       1096       1097       1080       1079       1097       1098       1081       1080       1098       1099       1082       1081       1099       1100       1083       1082       1100       1101       1084       1083       1101       1102       1085       1084       1102       1103       1086       1085       1103       1104       1087       1086       1105       1106       1089       1088       1106       1107       1090       1089       1107       1108       1091       1090       1108       1109       1092       1091       1109       1110       1093       1092       1110       1111       1094       1093       1111       1112       1095       1094       1112       1113       1096       1095       1113       1114       1097       1096       1114       1115       1098       1097       1115       1116       1099       1098       1116       1117       1100       1099       1117       1118       1101       1100       1118       1119       1102       1101       1119       1120       1103       1102       1120       1121       1104       1103       1122       1123       1106       1105       1123       1124       1107       1106       1124       1125       1108       1107       1125       1126       1109       1108       1126       1127       1110       1109       1127       1128       1111       1110       1128       1129       1112       1111       1129       1130       1113       1112       1130       1131       1114       1113       1131       1132       1115       1114       1132       1133       1116       1115       1133       1134       1117       1116       1134       1135       1118       1117       1135       1136       1119       1118       1136       1137       1120       1119       1137       1138       1121       1120        272        273       1123       1122        273        274       1124       1123        274        275       1125       1124        275        276       1126       1125        276        277       1127       1126        277        278       1128       1127        278        279       1129       1128        279        280       1130       1129        280        281       1131       1130        281        282       1132       1131        282        283       1133       1132        283        284       1134       1133        284        285       1135       1134        285        286       1136       1135        286        287       1137       1136        287        288       1138       1137 </DataArray>
<DataArray type="Int32"                                    Name="offsets"                                                      NumberOfComponents=" 1" format="ascii">
         4          8         12         16         20         24         28         32         36         40         44         48         52         56         60         64         68         72         76         80         84         88         92         96        100        104        108        112        116        120        124        128        132        136        140        144        148        152        156        160        164        168        172        176        180        184        188        192        196        200        204        208        212        216        220        224        228        232        236        240        244        248        252        256        260        264        268        272        276        280        284        288        292        296        300        304        308        312        316        320        324        328        332        336        340        344        348        352        356        360        364        368        372        376        380        384        388        392        396        400        404        408        412        416        420        424        428        432        436        440        444        448        452        456        460        464        468        472        476        480        484        488        492        496        500        504        508        512        516        520        524        528        532        536        540        544        548        552        556        560        564        568        572        576        580        584        588        592        596        600        604        608        612        616        620        624        628        632        636        640        644        648        652        656        660        664        668        672        676        680        684        688        692        696        700        704        708        712        716        720        724        728        732        736        740        744        748        752        756        760        764        768        772        776        780        784        788        792        796        800        804        808        812        816        820        824        828        832        836        840        844        848        852        856        860        864        868        872        876        880        884        888        892        896        900        904        908        912        916        920        924        928        932        936        940        944        948        952        956        960        964        968        972        976        980        984        988        992        996       1000       1004       1008       1012       1016       1020       1024       1028       1032       1036       1040       1044       1048       1052       1056       1060       1064       1068       1072       1076       1080       1084       1088       1092       1096       1100       1104       1108       1112       1116       1120       1124       1128       1132       1136       1140       1144       1148       1152       1156       1160       1164       1168       1172       1176       1180       1184       1188       1192       1196       1200       1204       1208       1212       1216       1220       1224       1228       1232       1236       1240       1244       1248       1252       1256       1260       1264       1268       1272       1276       1280       1284       1288       1292       1296       1300       1304       1308       1312       1316       1320       1324       1328       1332       1336       1340       1344       1348       1352       1356       1360       1364       1368       1372       1376       1380       1384       1388       1392       1396       1400       1404       1408       1412       1416       1420       1424       1428       1432       1436       1440       1444       1448       1452       1456       1460       1464       1468       1472       1476       1480       1484       1488       1492       1496       1500       1504       1508       1512       1516       1520       1524       1528       1532       1536       1540       1544       1548       1552       1556       1560       1564       1568       1572       1576       1580       1584       1588       1592       1596       1600       1604       1608       1612       1616       1620       1624       1628       1632       1636       1640       1644       1648       1652       1656       1660       1664       1668       1672       1676       1680       1684       1688       1692       1696       1700       1704       1708       1712       1716       1720       1724       1728       1732       1736       1740       1744       1748       1752       1756       1760       1764       1768       1772       1776       1780       1784       1788       1792       1796       1800       1804       1808       1812       1816       1820       1824       1828       1832       1836       1840       1844       1848       1852       1856       1860       1864       1868       1872       1876       1880       1884       1888       1892       1896       1900       1904       1908       1912       1916       1920       1924       1928       1932       1936       1940       1944       1948       1952       1956       1960       1964       1968       1972       1976       1980       1984       1988       1992       1996       2000       2004       2008       2012       2016       2020       2024       2028       2032       2036       2040       2044       2048       2052       2056       2060       2064       2068       2072       2076       2080       2084       2088       2092       2096       2100       2104       2108       2112       2116       2120       2124       2128       2132       2136       2140       2144       2148       2152       2156       2160       2164       2168       2172       2176       2180       2184       2188       2192       2196       2200       2204       2208       2212       2216       2220       2224       2228       2232       2236       2240       2244       2248       2252       2256       2260       2264       2268       2272       2276       2280       2284       2288       2292       2296       2300       2304       2308       2312       2316       2320       2324       2328       2332       2336       2340       2344       2348       2352       2356       2360       2364       2368       2372       2376       2380       2384       2388       2392       2396       2400       2404       2408       2412       2416       2420       2424       2428       2432       2436       2440       2444       2448       2452       2456       2460       2464       2468       2472       2476       2480       2484       2488       2492       2496       2500       2504       2508       2512       2516       2520       2524       2528       2532       2536       2540       2544       2548       2552       2556       2560       2564       2568       2572       2576       2580       2584       2588       2592       2596       2600       2604       2608       2612       2616       2620       2624       2628       2632       2636       2640       2644       2648       2652       2656       2660       2664       2668       2672       2676       2680       2684       2688       2692       2696       2700       2704       2708       2712       2716       2720       2724       2728       2732       2736       2740       2744       2748       2752       2756       2760       2764       2768       2772       2776       2780       2784       2788       2792       2796       2800       2804       2808       2812       2816       2820       2824       2828       2832       2836       2840       2844       2848       2852       2856       2860       2864       2868       2872       2876       2880       2884       2888       2892       2896       2900       2904       2908       2912       2916       2920       2924       2928       2932       2936       2940       2944       2948       2952       2956       2960       2964       2968       2972       2976       2980       2984       2988       2992       2996       3000       3004       3008       3012       3016       3020       3024       3028       3032       3036       3040       3044       3048       3052       3056       3060       3064       3068       3072       3076       3080       3084       3088       3092       3096       3100       3104       3108       3112       3116       3120       3124       3128       3132       3136       3140       3144       3148       3152       3156       3160       3164       3168       3172       3176       3180       3184       3188       3192       3196       3200       3204       3208       3212       3216       3220       3224       3228       3232       3236       3240       3244       3248       3252       3256       3260       3264       3268       3272       3276       3280       3284       3288       3292       3296       3300       3304       3308       3312       3316       3320       3324       3328       3332       3336       3340       3344       3348       3352       3356       3360       3364       3368       3372       3376       3380       3384       3388       3392       3396       3400       3404       3408       3412       3416       3420       3424       3428       3432       3436       3440       3444       3448       3452       3456       3460       3464       3468       3472       3476       3480       3484       3488       3492       3496       3500       3504       3508       3512       3516       3520       3524       3528       3532       3536       3540       3544       3548       3552       3556       3560       3564       3568       3572       3576       3580       3584       3588       3592       3596       3600       3604       3608       3612       3616       3620       3624       3628       3632       3636       3640       3644       3648       3652       3656       3660       3664       3668       3672       3676       3680       3684       3688       3692       3696       3700       3704       3708       3712       3716       3720       3724       3728       3732       3736       3740       3744       3748       3752       3756       3760       3764       3768       3772       3776       3780       3784       3788       3792       3796       3800       3804       3808       3812       3816       3820       3824       3828       3832       3836       3840       3844       3848       3852       3856       3860       3864       3868       3872       3876       3880       3884       3888       3892       3896       3900       3904       3908       3912       3916       3920       3924       3928       3932       3936       3940       3944       3948       3952       3956       3960       3964       3968       3972       3976       3980       3984       3988       3992       3996       4000       4004       4008       4012       4016       4020       4024       4028       4032       4036       4040       4044       4048       4052       4056       4060       4064       4068       4072       4076       4080       4084       4088       4092       4096 </DataArray>
<DataArray type="UInt8"                                    Name="types"                                                      NumberOfComponents=" 1" format="ascii">
         9          9          9          9          9          9          9          9          9          9          9          9          9          9          9          9          9          9          9          9          9          9          9          9          9          9          9          9          9          9          9          9          9          9          9          9          9          9          9          9          9          9          9          9          9          9          9          9          9          9          9          9          9          9          9          9          9          9          9          9          9          9          9          9          9          9          9          9          9          9          9          9          9          9          9          9          9          9          9          9          9          9          9          9          9          9          9          9          9          9          9          9          9          9          9          9          9          9          9          9          9          9          9          9          9          9          9          9          9          9          9          9          9          9          9          9          9          9          9          9          9          9          9          9          9          9          9          9          9          9          9          9          9          9          9          9          9          9          9          9          9          9          9          9          9          9          9          9          9          9          9          9          9          9          9          9          9          9          9          9          9          9          9          9          9          9          9          9          9          9          9          9          9          9          9          9          9          9          9          9          9          9          9          9          9          9          9          9          9          9          9          9          9          9          9          9          9          9          9          9          9          9          9          9          9          9          9          9          9          9          9          9          9          9          9          9          9          9          9          9          9          9          9          9          9          9          9          9          9          9          9          9          9          9          9          9          9          9          9          9          9          9          9          9          9          9          9          9          9          9          9          9          9          9          9          9          9          9          9          9          9          9          9          9          9          9          9          9          9          9          9          9          9          9          9          9          9          9          9          9          9          9          9          9          9          9          9          9          9          9          9          9          9          9          9          9          9          9          9          9          9          9          9          9          9          9          9          9          9          9          9          9          9          9          9          9          9          9          9          9          9          9          9          9          9          9          9          9          9          9          9          9          9          9          9          9          9          9          9          9          9          9          9          9          9          9          9          9          9          9          9          9          9          9          9          9          9          9          9          9          9          9          9          9          9          9          9          9          9          9          9          9          9          9          9          9          9          9          9          9          9          9          9          9          9          9          9          9          9          9          9          9          9          9          9          9          9          9          9          9          9          9          9          9          9          9          9          9          9          9          9          9          9          9          9          9          9          9          9          9          9          9          9          9          9          9          9          9          9          9          9          9          9          9          9          9          9          9          9          9          9          9          9          9          9          9          9          9          9          9          9          9          9          9          9          9          9          9          9          9          9          9          9          9          9          9          9          9          9          9          9          9          9          9          9          9          9          9          9          9          9          9          9          9          9          9          9          9          9          9          9          9          9          9          9          9          9          9          9          9          9          9          9          9          9          9          9          9          9          9          9          9          9          9          9          9          9          9          9          9          9          9          9          9          9          9          9          9          9          9          9          9          9          9          9          9          9          9          9          9          9          9          9          9          9          9          9          9          9          9          9          9          9          9          9          9          9          9          9          9          9          9          9          9          9          9          9          9          9          9          9          9          9          9          9          9          9          9          9          9          9          9          9          9          9          9          9          9          9          9          9          9          9          9          9          9          9          9          9          9          9          9          9          9          9          9          9          9          9          9          9          9          9          9          9          9          9          9          9          9          9          9          9          9          9          9          9          9          9          9          9          9          9          9          9          9          9          9          9          9          9          9          9          9          9          9          9          9          9          9          9          9          9          9          9          9          9          9          9          9          9          9          9          9          9          9          9          9          9          9          9          9          9          9          9          9          9          9          9          9          9          9          9          9          9          9          9          9          9          9          9          9          9          9          9          9          9          9          9          9          9          9          9          9          9          9          9          9          9          9          9          9          9          9          9          9          9          9          9          9          9          9          9          9          9          9          9          9          9          9          9          9          9          9          9          9          9          9          9          9          9          9          9          9          9          9          9          9          9          9          9          9          9          9          9          9          9          9          9          9          9          9          9          9          9          9          9          9          9          9          9          9          9          9          9          9          9          9          9          9          9          9          9          9          9          9          9          9          9          9          9          9          9          9          9          9          9          9          9          9          9          9          9          9          9          9          9          9          9          9          9          9          9          9          9          9          9          9          9          9          9          9          9          9          9          9          9          9          9          9          9          9          9          9          9          9          9          9          9          9          9          9          9          9          9          9          9          9          9          9          9          9          9          9          9          9          9          9          9          9          9          9          9          9          9          9          9          9          9          9          9          9          9          9          9          9          9          9          9          9          9          9          9          9          9          9          9          9          9          9          9          9          9          9          9          9          9          9          9          9          9          9          9          9          9          9          9          9          9          9          9          9          9          9          9          9          9          9          9          9          9          9          9          9          9          9          9          9          9          9          9          9          9          9          9          9          9          9          9          9          9          9          9          9          9          9          9          9          9          9          9          9          9          9          9          9          9          9          9          9          9          9          9          9          9          9          9          9          9          9          9          9          9          9          9          9          9          9          9          9          9          9          9          9          9          9          9          9          9          9          9          9          9          9          9          9          9          9          9          9          9          9          9          9          9          9          9          9          9          9          9          9          9          9          9          9          9          9          9          9          9          9          9          9 </DataArray>
</Cells>
<CellData>
<DataArray type="Int32"                                    Name="material"                                                      NumberOfComponents=" 1" format="ascii">
         1          1          1          1          1          1          1          1          1          1          1          1          1          1          1          1          1          1          1          1          1          1          1          1          1          1          1          1          1          1          1          1          1          1          1          1          1          1          1          1          1          1          1          1          1          1          1          1          1          1          1          1          1          1          1          1          1          1          1          1          1          1          1          1          1          1          1          1          1          1          1          1          1          1          1          1          1          1          1          1          1          1          1          1          1          1          1          1          1          1          1          1          1          1          1          1          1          1          1          1          1          1          1          1          1          1          1          1          1          1          1          1          1          1          1          1          1          1          1          1          1          1          1          1          1          1          1          1          1          1          1          1          1          1          1          1          1          1          1          1          1          1          1          1          1          1          1          1          1          1          1          1          1          1          1          1          1          1          1          1          1          1          1          1          1          1          1          1          1          1          1          1          1          1          1          1          1          1          1          1          1          1          1          1          1          1          1          1          1          1          1          1          1          1          1          1          1          1          1          1          1          1          1          1          1          1          1          1          1          1          1          1          1          1          1          1          1          1          1          1          1          1          1          1          1          1          1          1          1          1          1          1          1          1          1          1          1          1          1          1          1          1          1          1          1          1          1          1          1          1          1          1          1          1          1          1          1          1          1          1          1          1          1          1          1          1          1          1          1          1          1          1          1          1          1          1          1          1          1          1          1          1          1          1          1          1          1          1          1          1          1          1          1          1          1          1          1          1          1          1          1          1          1          1          1          1          1          1          1          1          1          1          1          1          1          1          1          1          1          1          1          1          1          1          1          1          1          1          1          1          1          1          1          1          1          1          1          1          1          1          1          1          1          1          1          1          1          1          1          1          1          1          1          1          1          1          1          1          1          1          1          1          1          1          1          1          1          1          1          1          1          1          1          1          1          1          1          1          1          1          1          1          1          1          1          1          1          1          1          1          1          1          1          1          1          1          1          1          1          1          1          1          1          1          1          1          1          1          1          1          1          1          1          1          1          1          1          1          1          1          1          1          1          1          1          1          1          1          1          1          1          1          1          1          1          1          1          1          1          1          1          1          1          1          1          1          1          1          1          1          1          1          1          1          1          1          1          1          1          1          1          1          1          1          1          1          1          1          1          1          1          1          1          1          1          1          1          1          1          1          1          1          1          1          1          1          1          1          1          1          1          1          1          1          1          1          1          1          1          1          1          1          1          1          1          1          1          1          1          1          1          1          1          1          1          1          1          1          1          1          1          1          1          1          1          1          1          1          1          1          1          1          1          1          1          1          1          1          1          1          1          1          1          1          1          1          1          1          1          1          1          1          1          1          1          1          1          1          1          1          1          1          1          1          1          1          1          1          1          1          1          1          1          1          1          1          1          1          1          1          1          1          1          1          1          1          1          1          1          1          1          1          1          1          1          1          1          1          1          1          1          1          1          1          1          1          1          1          1          1          1          1          1          1          1          1          1          1          1          1          1          1          1          1          1          1          1          1          1          1          1          1          1          1          1          1          1          1          1          1          1          1          1          1          1          1          1          1          1          1          1          1          1          1          1          1          1          1          1          1          1          1          1          1          1          1          1          1          1          1          1          1          1          1          1          1          1          1          1          1          1          1          1          1          1          1          1          1          1          1          1          1          1          1          1          1          1          1          1          1          1          1          1          1          1          1          1          1          1          1          1          1          1          1          1          1          1          1          1          1          1          1          1          1          1          1          1          1          1          1          1          1          1          1          1          1          1          1          1          1          1          1          1          1          1          1          1          1          1          1          1          1          1          1          1          1          1          1          1          1          1          1          1          1          1          1          1          1          1          1          1          1          1          1          1          1          1          1          1          1          1          1          1          1          1          1          1          1          1          1          1          1          1          1          1          1          1          1          1          1          1          1          1          1          1          1          1          1          1          1          1          1          1          1          1          1          1          1          1          1          1          1          1          1          1          1          1          1          1          1          1          1          1          1          1          1          1          1          1          1          1          1          1          1          1          1          1          1          1          1          1          1          1          1          1          1          1          1          1          1          1          1          1          1          1          1          1          1          1          1          1          1          1          1          1          1          1          1          1          1          1          1          1          1          1          1          1          1          1          1          1          1          1          1          1          1          1          1          1          1          1          1          1          1          1          1          1          1          1          1          1          1          1          1          1          1          1          1          1          1          1          1          1          1          1          1          1          1          1          1          1          1          1          1          1          1          1          1          1          1          1          1          1          1          1          1          1          1          1          1          1          1          1          1          1          1          1          1          1          1          1          1          1          1          1          1          1          1          1          1          1          1          1          1          1          1          1          1          1          1          1          1          1          1          1          1          1          1          1          1          1          1          1          1          1          1          1          1          1          1          1          1          1          1          1          1          1          1          1          1          1          1          1          1          1          1          1          1          1          1          1          1          1          1 </DataArray>
</CellData>
<PointData>
<DataArray type="Float64"                                    Name="u"                                                      NumberOfComponents=" 3" format="ascii">
             -0.000029581               0.000000000               0.999999996              -0.000046103              -0.000000000               0.999999996              -0.000054304               0.000000000               0.999999996              -0.000059285               0.000000000               0.999999996              -0.000063140               0.000000000               0.999999996              -0.000066817               0.000000000               0.999999996              -0.000070804               0.000000000               0.999999996              -0.000075318               0.000000000               0.999999996              -0.000080385               0.000000000               0.999999996              -0.000086100              -0.000000000               0.999999996              -0.000092523               0.000000000               0.999999996              -0.000099714               0.000000000               0.999999996              -0.000107554               0.000000000               0.999999996              -0.000116057               0.000000000               0.999999996              -0.000125233               0.000000000               0.999999996              -0.000134945              -0.000000000               0.999999996              -0.000145133               0.000000000               0.999999996              -0.000029412               0.000040862               0.999999996              -0.000045202               0.000036187               0.999999996              -0.000052943               0.000035019               0.999999996              -0.000057735               0.000035743               0.999999996              -0.000061591               0.000037674               0.999999996              -0.000065334               0.000040309               0.999999996              -0.000069367               0.000043486               0.999999996              -0.000073954               0.000047025               0.999999996              -0.000079140               0.000050764               0.999999996              -0.000084965               0.000054775               0.999999996              -0.000091519               0.000058960               0.999999996              -0.000098788               0.000063309               0.999999996              -0.000106732               0.000067739               0.999999996              -0.000115348               0.000072224               0.999999996              -0.000124563               0.000076682               0.999999996              -0.000134295               0.000080998               0.999999996              -0.000144481               0.000084982               0.999999996              -0.000028747               0.000081243               0.999999996              -0.000042464               0.000071932               0.999999996              -0.000049081               0.000069808               0.999999996              -0.000053362               0.000071471               0.999999996              -0.000057091               0.000075446               0.999999996              -0.000060984               0.000080796               0.999999996              -0.000065308               0.000087113               0.999999996              -0.000070209               0.000094140               0.999999996              -0.000075733               0.000101625               0.999999996              -0.000081912               0.000109565               0.999999996              -0.000088796               0.000117948               0.999999996              -0.000096388               0.000126631               0.999999996              -0.000104636               0.000135542               0.999999996              -0.000113489               0.000144490               0.999999996              -0.000122868               0.000153495               0.999999996              -0.000132722               0.000162304               0.999999996              -0.000143049               0.000170801               0.999999996              -0.000027732               0.000120641               0.999999996              -0.000038206               0.000106867               0.999999996              -0.000043241               0.000104121               0.999999996              -0.000046896               0.000107078               0.999999996              -0.000050612               0.000113290               0.999999996              -0.000054781               0.000121428               0.999999996              -0.000059497               0.000130946               0.999999996              -0.000064979               0.000141551               0.999999996              -0.000071197               0.000152772               0.999999996              -0.000078083               0.000164703               0.999999996              -0.000085660               0.000177281               0.999999996              -0.000093883               0.000190334               0.999999996              -0.000102702               0.000203692               0.999999996              -0.000112061               0.000217206               0.999999996              -0.000121909               0.000230854               0.999999996              -0.000132261               0.000244618               0.999999996              -0.000143195               0.000258384               0.999999996              -0.000026443               0.000158647               0.999999996              -0.000032636               0.000140704               0.999999996              -0.000035923               0.000137836               0.999999996              -0.000039194               0.000142327               0.999999996              -0.000043083               0.000150970               0.999999996              -0.000047818               0.000162073               0.999999996              -0.000053396               0.000174921               0.999999996              -0.000059795               0.000189126               0.999999996              -0.000066943               0.000204238               0.999999996              -0.000074826               0.000220140               0.999999996              -0.000083371               0.000236891               0.999999996              -0.000092522               0.000254305               0.999999996              -0.000102198               0.000272197               0.999999996              -0.000112421               0.000290448               0.999999996              -0.000123245               0.000309072               0.999999996              -0.000134716               0.000328222               0.999999996              -0.000146915               0.000348135               0.999999996              -0.000024792               0.000194905               0.999999996              -0.000026132               0.000173247               0.999999996              -0.000027934               0.000170728               0.999999996              -0.000031158               0.000177033               0.999999996              -0.000035654               0.000188239               0.999999996              -0.000041332               0.000202444               0.999999996              -0.000047952               0.000218663               0.999999996              -0.000055420               0.000236511               0.999999996              -0.000063750               0.000255649               0.999999996              -0.000072920               0.000275650               0.999999996              -0.000082796               0.000296613               0.999999996              -0.000093301               0.000318399               0.999999996              -0.000104430               0.000340873               0.999999996              -0.000116235               0.000364010               0.999999996              -0.000128768               0.000387769               0.999999996              -0.000141962               0.000412381               0.999999996              -0.000155703               0.000438043               0.999999996              -0.000022875               0.000228970               0.999999996              -0.000019210               0.000204377               0.999999996              -0.000020046               0.000202551               0.999999996              -0.000023664               0.000210870               0.999999996              -0.000029142               0.000224674               0.999999996              -0.000035943               0.000242052               0.999999996              -0.000043784               0.000261642               0.999999996              -0.000052662               0.000283260               0.999999996              -0.000062583               0.000306494               0.999999996              -0.000073391               0.000330759               0.999999996              -0.000085038               0.000355957               0.999999996              -0.000097330               0.000382095               0.999999996              -0.000110292               0.000409090               0.999999996              -0.000123890               0.000436954               0.999999996              -0.000138041               0.000465580               0.999999996              -0.000152564               0.000495036               0.999999996              -0.000167197               0.000525150               0.999999996              -0.000020835               0.000260445               0.999999996              -0.000012324               0.000233998               0.999999996              -0.000012737               0.000233196               0.999999996              -0.000017245               0.000243476               0.999999996              -0.000023864               0.000259929               0.999999996              -0.000031986               0.000280471               0.999999996              -0.000041347               0.000303647               0.999999996              -0.000051936               0.000329190               0.999999996              -0.000063680               0.000356613               0.999999996              -0.000076291               0.000385092               0.999999996              -0.000089618               0.000414409               0.999999996              -0.000103571               0.000444784               0.999999996              -0.000118083               0.000476180               0.999999996              -0.000132971               0.000508522               0.999999996              -0.000148110               0.000541710               0.999999996              -0.000163312               0.000575460               0.999999996              -0.000178283               0.000609259               0.999999996              -0.000018909               0.000288894               0.999999996              -0.000005788               0.000262070               0.999999996              -0.000006574               0.000262269               0.999999996              -0.000012134               0.000274557               0.999999996              -0.000020055               0.000293675               0.999999996              -0.000029710               0.000317408               0.999999996              -0.000040750               0.000344474               0.999999996              -0.000053184               0.000374044               0.999999996              -0.000066591               0.000405501               0.999999996              -0.000080703               0.000438059               0.999999996              -0.000095402               0.000471580               0.999999996              -0.000110567               0.000506122               0.999999996              -0.000126069               0.000541631               0.999999996              -0.000141838               0.000578124               0.999999996              -0.000157853               0.000615236               0.999999996              -0.000173899               0.000652559               0.999999996              -0.000189786               0.000689640               0.999999996              -0.000017455               0.000315391               0.999999996              -0.000001204               0.000291122               0.999999996              -0.000000372               0.000288661               0.999999996              -0.000004908               0.000297876               0.999999996              -0.000011884               0.000313869               0.999999996              -0.000020545               0.000334640               0.999999996              -0.000030471               0.000358990               0.999999996              -0.000041434               0.000385974               0.999999996              -0.000053342               0.000414887               0.999999996              -0.000065896               0.000445130               0.999999996              -0.000078813               0.000476251               0.999999996              -0.000091974               0.000508103               0.999999996              -0.000105240               0.000540726               0.999999996              -0.000118685               0.000574129               0.999999996              -0.000132481               0.000608341               0.999999996              -0.000146666               0.000643101               0.999999996              -0.000161229               0.000678077               0.999999996              -0.000015698               0.000339211               0.999999996               0.000001960               0.000318625               0.999999996               0.000004501               0.000315123               0.999999996               0.000001252               0.000321870               0.999999996              -0.000004604               0.000335190               0.999999996              -0.000012128               0.000353303               0.999999996              -0.000020911               0.000375001               0.999999996              -0.000030453               0.000399388               0.999999996              -0.000040782               0.000425829               0.999999996              -0.000051611               0.000453841               0.999999996              -0.000062837               0.000482806               0.999999996              -0.000074149               0.000512426               0.999999996              -0.000085274               0.000542567               0.999999996              -0.000096276               0.000573309               0.999999996              -0.000107328               0.000604651               0.999999996              -0.000118730               0.000636750               0.999999996              -0.000130450               0.000669421               0.999999996              -0.000013717               0.000359890               0.999999996               0.000003890               0.000344004               0.999999996               0.000007669               0.000340600               0.999999996               0.000005810               0.000345814               0.999999996               0.000001204               0.000357075               0.999999996              -0.000005063               0.000372881               0.999999996              -0.000012495               0.000392165               0.999999996              -0.000020564               0.000414195               0.999999996              -0.000029156               0.000438482               0.999999996              -0.000038308               0.000464306               0.999999996              -0.000047889               0.000491237               0.999999996              -0.000057382               0.000518954               0.999999996              -0.000066529               0.000547237               0.999999996              -0.000075249               0.000575921               0.999999996              -0.000083622               0.000605014               0.999999996              -0.000091687               0.000634682               0.999999996              -0.000099798               0.000664994               0.999999996              -0.000011455               0.000377165               0.999999996               0.000004677               0.000366383               0.999999996               0.000009082               0.000364077               0.999999996               0.000008348               0.000368610               0.999999996               0.000005031               0.000378479               0.999999996               0.000000137               0.000392515               0.999999996              -0.000005748               0.000409960               0.999999996              -0.000012193               0.000430061               0.999999996              -0.000019029               0.000452322               0.999999996              -0.000026391               0.000476300               0.999999996              -0.000034058               0.000501642               0.999999996              -0.000041800               0.000527831               0.999999996              -0.000049196               0.000554647               0.999999996              -0.000055937               0.000581875               0.999999996              -0.000061788               0.000609483               0.999999996              -0.000066786               0.000637454               0.999999996              -0.000071080               0.000665882               0.999999996              -0.000008887               0.000390918               0.999999996               0.000004438               0.000384899               0.999999996               0.000008739               0.000384250               0.999999996               0.000008742               0.000388890               0.999999996               0.000006548               0.000397970               0.999999996               0.000003165               0.000410903               0.999999996              -0.000001043               0.000427023               0.999999996              -0.000005931               0.000445733               0.999999996              -0.000011039               0.000466525               0.999999996              -0.000016341               0.000489156               0.999999996              -0.000021974               0.000513279               0.999999996              -0.000027913               0.000538404               0.999999996              -0.000033587               0.000564237               0.999999996              -0.000038484               0.000590598               0.999999996              -0.000042228               0.000617326               0.999999996              -0.000044744               0.000644385               0.999999996              -0.000045994               0.000671716               0.999999996              -0.000006096               0.000400878               0.999999996               0.000003410               0.000398850               0.999999996               0.000006813               0.000399899               0.999999996               0.000007135               0.000404996               0.999999996               0.000005922               0.000413879               0.999999996               0.000003897               0.000426181               0.999999996               0.000001241               0.000441415               0.999999996              -0.000002078               0.000459211               0.999999996              -0.000005419               0.000479166               0.999999996              -0.000008753               0.000500908               0.999999996              -0.000012483               0.000524109               0.999999996              -0.000016521               0.000548515               0.999999996              -0.000020355               0.000573835               0.999999996              -0.000023488               0.000599728               0.999999996              -0.000025662               0.000626029               0.999999996              -0.000026564               0.000652662               0.999999996              -0.000026131               0.000679466               0.999999996              -0.000003120               0.000406909               0.999999996               0.000001854               0.000407510               0.999999996               0.000003703               0.000409849               0.999999996               0.000003993               0.000415428               0.999999996               0.000003490               0.000424378               0.999999996               0.000002579               0.000436405               0.999999996               0.000001254               0.000451163               0.999999996              -0.000000392               0.000468432               0.999999996              -0.000001996               0.000487885               0.999999996              -0.000003619               0.000509066               0.999999996              -0.000005490               0.000531694               0.999999996              -0.000007513               0.000555616               0.999999996              -0.000009506               0.000580603               0.999999996              -0.000011115               0.000606371               0.999999996              -0.000012073               0.000632672               0.999999996              -0.000012283               0.000659296               0.999999996              -0.000011538               0.000686007               0.999999996              -0.000000000               0.000408997               0.999999996              -0.000000000               0.000410465               0.999999996               0.000000000               0.000413208               0.999999996               0.000000000               0.000419023               0.999999996              -0.000000000               0.000428055               0.999999996              -0.000000000               0.000439963               0.999999996               0.000000000               0.000454608               0.999999996              -0.000000000               0.000471735               0.999999996              -0.000000000               0.000491007               0.999999996              -0.000000000               0.000512048               0.999999996               0.000000000               0.000534495               0.999999996               0.000000000               0.000558208               0.999999996               0.000000000               0.000583040               0.999999996              -0.000000000               0.000608815               0.999999996              -0.000000000               0.000635256               0.999999996               0.000000000               0.000662036               0.999999996               0.000000000               0.000688833               0.999999996              -0.000029581               0.000000000               0.999999996              -0.000046103              -0.000000000               0.999999996              -0.000054304               0.000000000               0.999999996              -0.000059285               0.000000000               0.999999996              -0.000063140               0.000000000               0.999999996              -0.000066817               0.000000000               0.999999996              -0.000070804               0.000000000               0.999999996              -0.000075318               0.000000000               0.999999996              -0.000080385               0.000000000               0.999999996              -0.000086100              -0.000000000               0.999999996              -0.000092523               0.000000000               0.999999996              -0.000099714               0.000000000               0.999999996              -0.000107554               0.000000000               0.999999996              -0.000116057               0.000000000               0.999999996              -0.000125233               0.000000000               0.999999996              -0.000134945              -0.000000000               0.999999996              -0.000145133               0.000000000               0.999999996              -0.000029412              -0.000040862               0.999999996              -0.000045202              -0.000036187               0.999999996              -0.000052943              -0.000035019               0.999999996              -0.000057735              -0.000035743               0.999999996              -0.000061591              -0.000037674               0.999999996              -0.000065334              -0.000040309               0.999999996              -0.000069367              -0.000043486               0.999999996              -0.000073954              -0.000047025               0.999999996              -0.000079140              -0.000050764               0.999999996              -0.000084965              -0.000054775               0.999999996              -0.000091519              -0.000058960               0.999999996              -0.000098788              -0.000063309               0.999999996              -0.000106732              -0.000067739               0.999999996              -0.000115348              -0.000072224               0.999999996              -0.000124563              -0.000076682               0.999999996              -0.000134295              -0.000080998               0.999999996              -0.000144481              -0.000084982               0.999999996              -0.000028747              -0.000081243               0.999999996              -0.000042464              -0.000071932               0.999999996              -0.000049081              -0.000069808               0.999999996              -0.000053362              -0.000071471               0.999999996              -0.000057091              -0.000075446               0.999999996              -0.000060984              -0.000080796               0.999999996              -0.000065308              -0.000087113               0.999999996              -0.000070209              -0.000094140               0.999999996              -0.000075733              -0.000101625               0.999999996              -0.000081912              -0.000109565               0.999999996              -0.000088796              -0.000117948               0.999999996              -0.000096388              -0.000126631               0.999999996              -0.000104636              -0.000135542               0.999999996              -0.000113489              -0.000144490               0.999999996              -0.000122868              -0.000153495               0.999999996              -0.000132722              -0.000162304               0.999999996              -0.000143049              -0.000170801               0.999999996              -0.000027732              -0.000120641               0.999999996              -0.000038206              -0.000106867               0.999999996              -0.000043241              -0.000104121               0.999999996              -0.000046896              -0.000107078               0.999999996              -0.000050612              -0.000113290               0.999999996              -0.000054781              -0.000121428               0.999999996              -0.000059497              -0.000130946               0.999999996              -0.000064979              -0.000141551               0.999999996              -0.000071197              -0.000152772               0.999999996              -0.000078083              -0.000164703               0.999999996              -0.000085660              -0.000177281               0.999999996              -0.000093883              -0.000190334               0.999999996              -0.000102702              -0.000203692               0.999999996              -0.000112061              -0.000217206               0.999999996              -0.000121909              -0.000230854               0.999999996              -0.000132261              -0.000244618               0.999999996              -0.000143195              -0.000258384               0.999999996              -0.000026443              -0.000158647               0.999999996              -0.000032636              -0.000140704               0.999999996              -0.000035923              -0.000137836               0.999999996              -0.000039194              -0.000142327               0.999999996              -0.000043083              -0.000150970               0.999999996              -0.000047818              -0.000162073               0.999999996              -0.000053396              -0.000174921               0.999999996              -0.000059795              -0.000189126               0.999999996              -0.000066943              -0.000204238               0.999999996              -0.000074826              -0.000220140               0.999999996              -0.000083371              -0.000236891               0.999999996              -0.000092522              -0.000254305               0.999999996              -0.000102198              -0.000272197               0.999999996              -0.000112421              -0.000290448               0.999999996              -0.000123245              -0.000309072               0.999999996              -0.000134716              -0.000328222               0.999999996              -0.000146915              -0.000348135               0.999999996              -0.000024792              -0.000194905               0.999999996              -0.000026132              -0.000173247               0.999999996              -0.000027934              -0.000170728               0.999999996              -0.000031158              -0.000177033               0.999999996              -0.000035654              -0.000188239               0.999999996              -0.000041332              -0.000202444               0.999999996              -0.000047952              -0.000218663               0.999999996              -0.000055420              -0.000236511               0.999999996              -0.000063750              -0.000255649               0.999999996              -0.000072920              -0.000275650               0.999999996              -0.000082796              -0.000296613               0.999999996              -0.000093301              -0.000318399               0.999999996              -0.000104430              -0.000340873               0.999999996              -0.000116235              -0.000364010               0.999999996              -0.000128768              -0.000387769               0.999999996              -0.000141962              -0.000412381               0.999999996              -0.000155703              -0.000438043               0.999999996              -0.000022875              -0.000228970               0.999999996              -0.000019210              -0.000204377               0.999999996              -0.000020046              -0.000202551               0.999999996              -0.000023664              -0.000210870               0.999999996              -0.000029142              -0.000224674               0.999999996              -0.000035943              -0.000242052               0.999999996              -0.000043784              -0.000261642               0.999999996              -0.000052662              -0.000283260               0.999999996              -0.000062583              -0.000306494               0.999999996              -0.000073391              -0.000330759               0.999999996              -0.000085038              -0.000355957               0.999999996              -0.000097330              -0.000382095               0.999999996              -0.000110292              -0.000409090               0.999999996              -0.000123890              -0.000436954               0.999999996              -0.000138041              -0.000465580               0.999999996              -0.000152564              -0.000495036               0.999999996              -0.000167197              -0.000525150               0.999999996              -0.000020835              -0.000260445               0.999999996              -0.000012324              -0.000233998               0.999999996              -0.000012737              -0.000233196               0.999999996              -0.000017245              -0.000243476               0.999999996              -0.000023864              -0.000259929               0.999999996              -0.000031986              -0.000280471               0.999999996              -0.000041347              -0.000303647               0.999999996              -0.000051936              -0.000329190               0.999999996              -0.000063680              -0.000356613               0.999999996              -0.000076291              -0.000385092               0.999999996              -0.000089618              -0.000414409               0.999999996              -0.000103571              -0.000444784               0.999999996              -0.000118083              -0.000476180               0.999999996              -0.000132971              -0.000508522               0.999999996              -0.000148110              -0.000541710               0.999999996              -0.000163312              -0.000575460               0.999999996              -0.000178283              -0.000609259               0.999999996              -0.000018909              -0.000288894               0.999999996              -0.000005788              -0.000262070               0.999999996              -0.000006574              -0.000262269               0.999999996              -0.000012134              -0.000274557               0.999999996              -0.000020055              -0.000293675               0.999999996              -0.000029710              -0.000317408               0.999999996              -0.000040750              -0.000344474               0.999999996              -0.000053184              -0.000374044               0.999999996              -0.000066591              -0.000405501               0.999999996              -0.000080703              -0.000438059               0.999999996              -0.000095402              -0.000471580               0.999999996              -0.000110567              -0.000506122               0.999999996              -0.000126069              -0.000541631               0.999999996              -0.000141838              -0.000578124               0.999999996              -0.000157853              -0.000615236               0.999999996              -0.000173899              -0.000652559               0.999999996              -0.000189786              -0.000689640               0.999999996              -0.000017455              -0.000315391               0.999999996              -0.000001204              -0.000291122               0.999999996              -0.000000372              -0.000288661               0.999999996              -0.000004908              -0.000297876               0.999999996              -0.000011884              -0.000313869               0.999999996              -0.000020545              -0.000334640               0.999999996              -0.000030471              -0.000358990               0.999999996              -0.000041434              -0.000385974               0.999999996              -0.000053342              -0.000414887               0.999999996              -0.000065896              -0.000445130               0.999999996              -0.000078813              -0.000476251               0.999999996              -0.000091974              -0.000508103               0.999999996              -0.000105240              -0.000540726               0.999999996              -0.000118685              -0.000574129               0.999999996              -0.000132481              -0.000608341               0.999999996              -0.000146666              -0.000643101               0.999999996              -0.000161229              -0.000678077               0.999999996              -0.000015698              -0.000339211               0.999999996               0.000001960              -0.000318625               0.999999996               0.000004501              -0.000315123               0.999999996               0.000001252              -0.000321870               0.999999996              -0.000004604              -0.000335190               0.999999996              -0.000012128              -0.000353303               0.999999996              -0.000020911              -0.000375001               0.999999996              -0.000030453              -0.000399388               0.999999996              -0.000040782              -0.000425829               0.999999996              -0.000051611              -0.000453841               0.999999996              -0.000062837              -0.000482806               0.999999996              -0.000074149              -0.000512426               0.999999996              -0.000085274              -0.000542567               0.999999996              -0.000096276              -0.000573309               0.999999996              -0.000107328              -0.000604651               0.999999996              -0.000118730              -0.000636750               0.999999996              -0.000130450              -0.000669421               0.999999996              -0.000013717              -0.000359890               0.999999996               0.000003890              -0.000344004               0.999999996               0.000007669              -0.000340600               0.999999996               0.000005810              -0.000345814               0.999999996               0.000001204              -0.000357075               0.999999996              -0.000005063              -0.000372881               0.999999996              -0.000012495              -0.000392165               0.999999996              -0.000020564              -0.000414195               0.999999996              -0.000029156              -0.000438482               0.999999996              -0.000038308              -0.000464306               0.999999996              -0.000047889              -0.000491237               0.999999996              -0.000057382              -0.000518954               0.999999996              -0.000066529              -0.000547237               0.999999996              -0.000075249              -0.000575921               0.999999996              -0.000083622              -0.000605014               0.999999996              -0.000091687              -0.000634682               0.999999996              -0.000099798              -0.000664994               0.999999996              -0.000011455              -0.000377165               0.999999996               0.000004677              -0.000366383               0.999999996               0.000009082              -0.000364077               0.999999996               0.000008348              -0.000368610               0.999999996               0.000005031              -0.000378479               0.999999996               0.000000137              -0.000392515               0.999999996              -0.000005748              -0.000409960               0.999999996              -0.000012193              -0.000430061               0.999999996              -0.000019029              -0.000452322               0.999999996              -0.000026391              -0.000476300               0.999999996              -0.000034058              -0.000501642               0.999999996              -0.000041800              -0.000527831               0.999999996              -0.000049196              -0.000554647               0.999999996              -0.000055937              -0.000581875               0.999999996              -0.000061788              -0.000609483               0.999999996              -0.000066786              -0.000637454               0.999999996              -0.000071080              -0.000665882               0.999999996              -0.000008887              -0.000390918               0.999999996               0.000004438              -0.000384899               0.999999996               0.000008739              -0.000384250               0.999999996               0.000008742              -0.000388890               0.999999996               0.000006548              -0.000397970               0.999999996               0.000003165              -0.000410903               0.999999996              -0.000001043              -0.000427023               0.999999996              -0.000005931              -0.000445733               0.999999996              -0.000011039              -0.000466525               0.999999996              -0.000016341              -0.000489156               0.999999996              -0.000021974              -0.000513279               0.999999996              -0.000027913              -0.000538404               0.999999996              -0.000033587              -0.000564237               0.999999996              -0.000038484              -0.000590598               0.999999996              -0.000042228              -0.000617326               0.999999996              -0.000044744              -0.000644385               0.999999996              -0.000045994              -0.000671716               0.999999996              -0.000006096              -0.000400878               0.999999996               0.000003410              -0.000398850               0.999999996               0.000006813              -0.000399899               0.999999996               0.000007135              -0.000404996               0.999999996               0.000005922              -0.000413879               0.999999996               0.000003897              -0.000426181               0.999999996               0.000001241              -0.000441415               0.999999996              -0.000002078              -0.000459211               0.999999996              -0.000005419              -0.000479166               0.999999996              -0.000008753              -0.000500908               0.999999996              -0.000012483              -0.000524109               0.999999996              -0.000016521              -0.000548515               0.999999996              -0.000020355              -0.000573835               0.999999996              -0.000023488              -0.000599728               0.999999996              -0.000025662              -0.000626029               0.999999996              -0.000026564              -0.000652662               0.999999996              -0.000026131              -0.000679466               0.999999996              -0.000003120              -0.000406909               0.999999996               0.000001854              -0.000407510               0.999999996               0.000003703              -0.000409849               0.999999996               0.000003993              -0.000415428               0.999999996               0.000003490              -0.000424378               0.999999996               0.000002579              -0.000436405               0.999999996               0.000001254              -0.000451163               0.999999996              -0.000000392              -0.000468432               0.999999996              -0.000001996              -0.000487885               0.999999996              -0.000003619              -0.000509066               0.999999996              -0.000005490              -0.000531694               0.999999996              -0.000007513              -0.000555616               0.999999996              -0.000009506              -0.000580603               0.999999996              -0.000011115              -0.000606371               0.999999996              -0.000012073              -0.000632672               0.999999996              -0.000012283              -0.000659296               0.999999996              -0.000011538              -0.000686007               0.999999996               0.000000000              -0.000408997               0.999999996              -0.000000000              -0.000410465               0.999999996              -0.000000000              -0.000413208               0.999999996              -0.000000000              -0.000419023               0.999999996               0.000000000              -0.000428055               0.999999996              -0.000000000              -0.000439963               0.999999996              -0.000000000              -0.000454608               0.999999996               0.000000000              -0.000471735               0.999999996               0.000000000              -0.000491007               0.999999996               0.000000000              -0.000512048               0.999999996               0.000000000              -0.000534495               0.999999996              -0.000000000              -0.000558208               0.999999996               0.000000000              -0.000583040               0.999999996              -0.000000000              -0.000608815               0.999999996              -0.000000000              -0.000635256               0.999999996              -0.000000000              -0.000662036               0.999999996               0.000000000              -0.000688833               0.999999996               0.000029581              -0.000000000               0.999999996               0.000046103               0.000000000               0.999999996               0.000054304              -0.000000000               0.999999996               0.000059285              -0.000000000               0.999999996               0.000063140              -0.000000000               0.999999996               0.000066817              -0.000000000               0.999999996               0.000070804              -0.000000000               0.999999996               0.000075318               0.000000000               0.999999996               0.000080385              -0.000000000               0.999999996               0.000086100              -0.000000000               0.999999996               0.000092523              -0.000000000               0.999999996               0.000099714               0.000000000               0.999999996               0.000107554               0.000000000               0.999999996               0.000116057               0.000000000               0.999999996               0.000125233               0.000000000               0.999999996               0.000134945               0.000000000               0.999999996               0.000145133               0.000000000               0.999999996               0.000029412              -0.000040862               0.999999996               0.000045202              -0.000036187               0.999999996               0.000052943              -0.000035019               0.999999996               0.000057735              -0.000035743               0.999999996               0.000061591              -0.000037674               0.999999996               0.000065334              -0.000040309               0.999999996               0.000069367              -0.000043486               0.999999996               0.000073954              -0.000047025               0.999999996               0.000079140              -0.000050764               0.999999996               0.000084965              -0.000054775               0.999999996               0.000091519              -0.000058960               0.999999996               0.000098788              -0.000063309               0.999999996               0.000106732              -0.000067739               0.999999996               0.000115348              -0.000072224               0.999999996               0.000124563              -0.000076682               0.999999996               0.000134295              -0.000080998               0.999999996               0.000144481              -0.000084982               0.999999996               0.000028747              -0.000081243               0.999999996               0.000042464              -0.000071932               0.999999996               0.000049081              -0.000069808               0.999999996               0.000053362              -0.000071471               0.999999996               0.000057091              -0.000075446               0.999999996               0.000060984              -0.000080796               0.999999996               0.000065308              -0.000087113               0.999999996               0.000070209              -0.000094140               0.999999996               0.000075733              -0.000101625               0.999999996               0.000081912              -0.000109565               0.999999996               0.000088796              -0.000117948               0.999999996               0.000096388              -0.000126631               0.999999996               0.000104636              -0.000135542               0.999999996               0.000113489              -0.000144490               0.999999996               0.000122868              -0.000153495               0.999999996               0.000132722              -0.000162304               0.999999996               0.000143049              -0.000170801               0.999999996               0.000027732              -0.000120641               0.999999996               0.000038206              -0.000106867               0.999999996               0.000043241              -0.000104121               0.999999996               0.000046896              -0.000107078               0.999999996               0.000050612              -0.000113290               0.999999996               0.000054781              -0.000121428               0.999999996               0.000059497              -0.000130946               0.999999996               0.000064979              -0.000141551               0.999999996               0.000071197              -0.000152772               0.999999996               0.000078083              -0.000164703               0.999999996               0.000085660              -0.000177281               0.999999996               0.000093883              -0.000190334               0.999999996               0.000102702              -0.000203692               0.999999996               0.000112061              -0.000217206               0.999999996               0.000121909              -0.000230854               0.999999996               0.000132261              -0.000244618               0.999999996               0.000143195              -0.000258384               0.999999996               0.000026443              -0.000158647               0.999999996               0.000032636              -0.000140704               0.999999996               0.000035923              -0.000137836               0.999999996               0.000039194              -0.000142327               0.999999996               0.000043083              -0.000150970               0.999999996               0.000047818              -0.000162073               0.999999996               0.000053396              -0.000174921               0.999999996               0.000059795              -0.000189126               0.999999996               0.000066943              -0.000204238               0.999999996               0.000074826              -0.000220140               0.999999996               0.000083371              -0.000236891               0.999999996               0.000092522              -0.000254305               0.999999996               0.000102198              -0.000272197               0.999999996               0.000112421              -0.000290448               0.999999996               0.000123245              -0.000309072               0.999999996               0.000134716              -0.000328222               0.999999996               0.000146915              -0.000348135               0.999999996               0.000024792              -0.000194905               0.999999996               0.000026132              -0.000173247               0.999999996               0.000027934              -0.000170728               0.999999996               0.000031158              -0.000177033               0.999999996               0.000035654              -0.000188239               0.999999996               0.000041332              -0.000202444               0.999999996               0.000047952              -0.000218663               0.999999996               0.000055420              -0.000236511               0.999999996               0.000063750              -0.000255649               0.999999996               0.000072920              -0.000275650               0.999999996               0.000082796              -0.000296613               0.999999996               0.000093301              -0.000318399               0.999999996               0.000104430              -0.000340873               0.999999996               0.000116235              -0.000364010               0.999999996               0.000128768              -0.000387769               0.999999996               0.000141962              -0.000412381               0.999999996               0.000155703              -0.000438043               0.999999996               0.000022875              -0.000228970               0.999999996               0.000019210              -0.000204377               0.999999996               0.000020046              -0.000202551               0.999999996               0.000023664              -0.000210870               0.999999996               0.000029142              -0.000224674               0.999999996               0.000035943              -0.000242052               0.999999996               0.000043784              -0.000261642               0.999999996               0.000052662              -0.000283260               0.999999996               0.000062583              -0.000306494               0.999999996               0.000073391              -0.000330759               0.999999996               0.000085038              -0.000355957               0.999999996               0.000097330              -0.000382095               0.999999996               0.000110292              -0.000409090               0.999999996               0.000123890              -0.000436954               0.999999996               0.000138041              -0.000465580               0.999999996               0.000152564              -0.000495036               0.999999996               0.000167197              -0.000525150               0.999999996               0.000020835              -0.000260445               0.999999996               0.000012324              -0.000233998               0.999999996               0.000012737              -0.000233196               0.999999996               0.000017245              -0.000243476               0.999999996               0.000023864              -0.000259929               0.999999996               0.000031986              -0.000280471               0.999999996               0.000041347              -0.000303647               0.999999996               0.000051936              -0.000329190               0.999999996               0.000063680              -0.000356613               0.999999996               0.000076291              -0.000385092               0.999999996               0.000089618              -0.000414409               0.999999996               0.000103571              -0.000444784               0.999999996               0.000118083              -0.000476180               0.999999996               0.000132971              -0.000508522               0.999999996               0.000148110              -0.000541710               0.999999996               0.000163312              -0.000575460               0.999999996               0.000178283              -0.000609259               0.999999996               0.000018909              -0.000288894               0.999999996               0.000005788              -0.000262070               0.999999996               0.000006574              -0.000262269               0.999999996               0.000012134              -0.000274557               0.999999996               0.000020055              -0.000293675               0.999999996               0.000029710              -0.000317408               0.999999996               0.000040750              -0.000344474               0.999999996               0.000053184              -0.000374044               0.999999996               0.000066591              -0.000405501               0.999999996               0.000080703              -0.000438059               0.999999996               0.000095402              -0.000471580               0.999999996               0.000110567              -0.000506122               0.999999996               0.000126069              -0.000541631               0.999999996               0.000141838              -0.000578124               0.999999996               0.000157853              -0.000615236               0.999999996               0.000173899              -0.000652559               0.999999996               0.000189786              -0.000689640               0.999999996               0.000017455              -0.000315391               0.999999996               0.000001204              -0.000291122               0.999999996               0.000000372              -0.000288661               0.999999996               0.000004908              -0.000297876               0.999999996               0.000011884              -0.000313869               0.999999996               0.000020545              -0.000334640               0.999999996               0.000030471              -0.000358990               0.999999996               0.000041434              -0.000385974               0.999999996               0.000053342              -0.000414887               0.999999996               0.000065896              -0.000445130               0.999999996               0.000078813              -0.000476251               0.999999996               0.000091974              -0.000508103               0.999999996               0.000105240              -0.000540726               0.999999996               0.000118685              -0.000574129               0.999999996               0.000132481              -0.000608341               0.999999996               0.000146666              -0.000643101               0.999999996               0.000161229              -0.000678077               0.999999996               0.000015698              -0.000339211               0.999999996              -0.000001960              -0.000318625               0.999999996              -0.000004501              -0.000315123               0.999999996              -0.000001252              -0.000321870               0.999999996               0.000004604              -0.000335190               0.999999996               0.000012128              -0.000353303               0.999999996               0.000020911              -0.000375001               0.999999996               0.000030453              -0.000399388               0.999999996               0.000040782              -0.000425829               0.999999996               0.000051611              -0.000453841               0.999999996               0.000062837              -0.000482806               0.999999996               0.000074149              -0.000512426               0.999999996               0.000085274              -0.000542567               0.999999996               0.000096276              -0.000573309               0.999999996               0.000107328              -0.000604651               0.999999996               0.000118730              -0.000636750               0.999999996               0.000130450              -0.000669421               0.999999996               0.000013717              -0.000359890               0.999999996              -0.000003890              -0.000344004               0.999999996              -0.000007669              -0.000340600               0.999999996              -0.000005810              -0.000345814               0.999999996              -0.000001204              -0.000357075               0.999999996               0.000005063              -0.000372881               0.999999996               0.000012495              -0.000392165               0.999999996               0.000020564              -0.000414195               0.999999996               0.000029156              -0.000438482               0.999999996               0.000038308              -0.000464306               0.999999996               0.000047889              -0.000491237               0.999999996               0.000057382              -0.000518954               0.999999996               0.000066529              -0.000547237               0.999999996               0.000075249              -0.000575921               0.999999996               0.000083622              -0.000605014               0.999999996               0.000091687              -0.000634682               0.999999996               0.000099798              -0.000664994               0.999999996               0.000011455              -0.000377165               0.999999996              -0.000004677              -0.000366383               0.999999996              -0.000009082              -0.000364077               0.999999996              -0.000008348              -0.000368610               0.999999996              -0.000005031              -0.000378479               0.999999996              -0.000000137              -0.000392515               0.999999996               0.000005748              -0.000409960               0.999999996               0.000012193              -0.000430061               0.999999996               0.000019029              -0.000452322               0.999999996               0.000026391              -0.000476300               0.999999996               0.000034058              -0.000501642               0.999999996               0.000041800              -0.000527831               0.999999996               0.000049196              -0.000554647               0.999999996               0.000055937              -0.000581875               0.999999996               0.000061788              -0.000609483               0.999999996               0.000066786              -0.000637454               0.999999996               0.000071080              -0.000665882               0.999999996               0.000008887              -0.000390918               0.999999996              -0.000004438              -0.000384899               0.999999996              -0.000008739              -0.000384250               0.999999996              -0.000008742              -0.000388890               0.999999996              -0.000006548              -0.000397970               0.999999996              -0.000003165              -0.000410903               0.999999996               0.000001043              -0.000427023               0.999999996               0.000005931              -0.000445733               0.999999996               0.000011039              -0.000466525               0.999999996               0.000016341              -0.000489156               0.999999996               0.000021974              -0.000513279               0.999999996               0.000027913              -0.000538404               0.999999996               0.000033587              -0.000564237               0.999999996               0.000038484              -0.000590598               0.999999996               0.000042228              -0.000617326               0.999999996               0.000044744              -0.000644385               0.999999996               0.000045994              -0.000671716               0.999999996               0.000006096              -0.000400878               0.999999996              -0.000003410              -0.000398850               0.999999996              -0.000006813              -0.000399899               0.999999996              -0.000007135              -0.000404996               0.999999996              -0.000005922              -0.000413879               0.999999996              -0.000003897              -0.000426181               0.999999996              -0.000001241              -0.000441415               0.999999996               0.000002078              -0.000459211               0.999999996               0.000005419              -0.000479166               0.999999996               0.000008753              -0.000500908               0.999999996               0.000012483              -0.000524109               0.999999996               0.000016521              -0.000548515               0.999999996               0.000020355              -0.000573835               0.999999996               0.000023488              -0.000599728               0.999999996               0.000025662              -0.000626029               0.999999996               0.000026564              -0.000652662               0.999999996               0.000026131              -0.000679466               0.999999996               0.000003120              -0.000406909               0.999999996              -0.000001854              -0.000407510               0.999999996              -0.000003703              -0.000409849               0.999999996              -0.000003993              -0.000415428               0.999999996              -0.000003490              -0.000424378               0.999999996              -0.000002579              -0.000436405               0.999999996              -0.000001254              -0.000451163               0.999999996               0.000000392              -0.000468432               0.999999996               0.000001996              -0.000487885               0.999999996               0.000003619              -0.000509066               0.999999996               0.000005490              -0.000531694               0.999999996               0.000007513              -0.000555616               0.999999996               0.000009506              -0.000580603               0.999999996               0.000011115              -0.000606371               0.999999996               0.000012073              -0.000632672               0.999999996               0.000012283              -0.000659296               0.999999996               0.000011538              -0.000686007               0.999999996               0.000000000              -0.000408997               0.999999996              -0.000000000              -0.000410465               0.999999996              -0.000000000              -0.000413208               0.999999996              -0.000000000              -0.000419023               0.999999996               0.000000000              -0.000428055               0.999999996              -0.000000000              -0.000439963               0.999999996              -0.000000000              -0.000454608               0.999999996               0.000000000              -0.000471735               0.999999996               0.000000000              -0.000491007               0.999999996               0.000000000              -0.000512048               0.999999996               0.000000000              -0.000534495               0.999999996              -0.000000000              -0.000558208               0.999999996               0.000000000              -0.000583040               0.999999996              -0.000000000              -0.000608815               0.999999996              -0.000000000              -0.000635256               0.999999996              -0.000000000              -0.000662036               0.999999996               0.000000000              -0.000688833               0.999999996               0.000029581              -0.000000000               0.999999996               0.000046103               0.000000000               0.999999996               0.000054304              -0.000000000               0.999999996               0.000059285              -0.000000000               0.999999996               0.000063140              -0.000000000               0.999999996               0.000066817              -0.000000000               0.999999996               0.000070804              -0.000000000               0.999999996               0.000075318               0.000000000               0.999999996               0.000080385              -0.000000000               0.999999996               0.000086100              -0.000000000               0.999999996               0.000092523              -0.000000000               0.999999996               0.000099714               0.000000000               0.999999996               0.000107554               0.000000000               0.999999996               0.000116057               0.000000000               0.999999996               0.000125233               0.000000000               0.999999996               0.000134945               0.000000000               0.999999996               0.000145133               0.000000000               0.999999996               0.000029412               0.000040862               0.999999996               0.000045202               0.000036187               0.999999996               0.000052943               0.000035019               0.999999996               0.000057735               0.000035743               0.999999996               0.000061591               0.000037674               0.999999996               0.000065334               0.000040309               0.999999996               0.000069367               0.000043486               0.999999996               0.000073954               0.000047025               0.999999996               0.000079140               0.000050764               0.999999996               0.000084965               0.000054775               0.999999996               0.000091519               0.000058960               0.999999996               0.000098788               0.000063309               0.999999996               0.000106732               0.000067739               0.999999996               0.000115348               0.000072224               0.999999996               0.000124563               0.000076682               0.999999996               0.000134295               0.000080998               0.999999996               0.000144481               0.000084982               0.999999996               0.000028747               0.000081243               0.999999996               0.000042464               0.000071932               0.999999996               0.000049081               0.000069808               0.999999996               0.000053362               0.000071471               0.999999996               0.000057091               0.000075446               0.999999996               0.000060984               0.000080796               0.999999996               0.000065308               0.000087113               0.999999996               0.000070209               0.000094140               0.999999996               0.000075733               0.000101625               0.999999996               0.000081912               0.000109565               0.999999996               0.000088796               0.000117948               0.999999996               0.000096388               0.000126631               0.999999996               0.000104636               0.000135542               0.999999996               0.000113489               0.000144490               0.999999996               0.000122868               0.000153495               0.999999996               0.000132722               0.000162304               0.999999996               0.000143049               0.000170801               0.999999996               0.000027732               0.000120641               0.999999996               0.000038206               0.000106867               0.999999996               0.000043241               0.000104121               0.999999996               0.000046896               0.000107078               0.999999996               0.000050612               0.000113290               0.999999996               0.000054781               0.000121428               0.999999996               0.000059497               0.000130946               0.999999996               0.000064979               0.000141551               0.999999996               0.000071197               0.000152772               0.999999996               0.000078083               0.000164703               0.999999996               0.000085660               0.000177281               0.999999996               0.000093883               0.000190334               0.999999996               0.000102702               0.000203692               0.999999996               0.000112061               0.000217206               0.999999996               0.000121909               0.000230854               0.999999996               0.000132261               0.000244618               0.999999996               0.000143195               0.000258384               0.999999996               0.000026443               0.000158647               0.999999996               0.000032636               0.000140704               0.999999996               0.000035923               0.000137836               0.999999996               0.000039194               0.000142327               0.999999996               0.000043083               0.000150970               0.999999996               0.000047818               0.000162073               0.999999996               0.000053396               0.000174921               0.999999996               0.000059795               0.000189126               0.999999996               0.000066943               0.000204238               0.999999996               0.000074826               0.000220140               0.999999996               0.000083371               0.000236891               0.999999996               0.000092522               0.000254305               0.999999996               0.000102198               0.000272197               0.999999996               0.000112421               0.000290448               0.999999996               0.000123245               0.000309072               0.999999996               0.000134716               0.000328222               0.999999996               0.000146915               0.000348135               0.999999996               0.000024792               0.000194905               0.999999996               0.000026132               0.000173247               0.999999996               0.000027934               0.000170728               0.999999996               0.000031158               0.000177033               0.999999996               0.000035654               0.000188239               0.999999996               0.000041332               0.000202444               0.999999996               0.000047952               0.000218663               0.999999996               0.000055420               0.000236511               0.999999996               0.000063750               0.000255649               0.999999996               0.000072920               0.000275650               0.999999996               0.000082796               0.000296613               0.999999996               0.000093301               0.000318399               0.999999996               0.000104430               0.000340873               0.999999996               0.000116235               0.000364010               0.999999996               0.000128768               0.000387769               0.999999996               0.000141962               0.000412381               0.999999996               0.000155703               0.000438043               0.999999996               0.000022875               0.000228970               0.999999996               0.000019210               0.000204377               0.999999996               0.000020046               0.000202551               0.999999996               0.000023664               0.000210870               0.999999996               0.000029142               0.000224674               0.999999996               0.000035943               0.000242052               0.999999996               0.000043784               0.000261642               0.999999996               0.000052662               0.000283260               0.999999996               0.000062583               0.000306494               0.999999996               0.000073391               0.000330759               0.999999996               0.000085038               0.000355957               0.999999996               0.000097330               0.000382095               0.999999996               0.000110292               0.000409090               0.999999996               0.000123890               0.000436954               0.999999996               0.000138041               0.000465580               0.999999996               0.000152564               0.000495036               0.999999996               0.000167197               0.000525150               0.999999996               0.000020835               0.000260445               0.999999996               0.000012324               0.000233998               0.999999996               0.000012737               0.000233196               0.999999996               0.000017245               0.000243476               0.999999996               0.000023864               0.000259929               0.999999996               0.000031986               0.000280471               0.999999996               0.000041347               0.000303647               0.999999996               0.000051936               0.000329190               0.999999996               0.000063680               0.000356613               0.999999996               0.000076291               0.000385092               0.999999996               0.000089618               0.000414409               0.999999996               0.000103571               0.000444784               0.999999996               0.000118083               0.000476180               0.999999996               0.000132971               0.000508522               0.999999996               0.000148110               0.000541710               0.999999996               0.000163312               0.000575460               0.999999996               0.000178283               0.000609259               0.999999996               0.000018909               0.000288894               0.999999996               0.000005788               0.000262070               0.999999996               0.000006574               0.000262269               0.999999996               0.000012134               0.000274557               0.999999996               0.000020055               0.000293675               0.999999996               0.000029710               0.000317408               0.999999996               0.000040750               0.000344474               0.999999996               0.000053184               0.000374044               0.999999996               0.000066591               0.000405501               0.999999996               0.000080703               0.000438059               0.999999996               0.000095402               0.000471580               0.999999996               0.000110567               0.000506122               0.999999996               0.000126069               0.000541631               0.999999996               0.000141838               0.000578124               0.999999996               0.000157853               0.000615236               0.999999996               0.000173899               0.000652559               0.999999996               0.000189786               0.000689640               0.999999996               0.000017455               0.000315391               0.999999996               0.000001204               0.000291122               0.999999996               0.000000372               0.000288661               0.999999996               0.000004908               0.000297876               0.999999996               0.000011884               0.000313869               0.999999996               0.000020545               0.000334640               0.999999996               0.000030471               0.000358990               0.999999996               0.000041434               0.000385974               0.999999996               0.000053342               0.000414887               0.999999996               0.000065896               0.000445130               0.999999996               0.000078813               0.000476251               0.999999996               0.000091974               0.000508103               0.999999996               0.000105240               0.000540726               0.999999996               0.000118685               0.000574129               0.999999996               0.000132481               0.000608341               0.999999996               0.000146666               0.000643101               0.999999996               0.000161229               0.000678077               0.999999996               0.000015698               0.000339211               0.999999996              -0.000001960               0.000318625               0.999999996              -0.000004501               0.000315123               0.999999996              -0.000001252               0.000321870               0.999999996               0.000004604               0.000335190               0.999999996               0.000012128               0.000353303               0.999999996               0.000020911               0.000375001               0.999999996               0.000030453               0.000399388               0.999999996               0.000040782               0.000425829               0.999999996               0.000051611               0.000453841               0.999999996               0.000062837               0.000482806               0.999999996               0.000074149               0.000512426               0.999999996               0.000085274               0.000542567               0.999999996               0.000096276               0.000573309               0.999999996               0.000107328               0.000604651               0.999999996               0.000118730               0.000636750               0.999999996               0.000130450               0.000669421               0.999999996               0.000013717               0.000359890               0.999999996              -0.000003890               0.000344004               0.999999996              -0.000007669               0.000340600               0.999999996              -0.000005810               0.000345814               0.999999996              -0.000001204               0.000357075               0.999999996               0.000005063               0.000372881               0.999999996               0.000012495               0.000392165               0.999999996               0.000020564               0.000414195               0.999999996               0.000029156               0.000438482               0.999999996               0.000038308               0.000464306               0.999999996               0.000047889               0.000491237               0.999999996               0.000057382               0.000518954               0.999999996               0.000066529               0.000547237               0.999999996               0.000075249               0.000575921               0.999999996               0.000083622               0.000605014               0.999999996               0.000091687               0.000634682               0.999999996               0.000099798               0.000664994               0.999999996               0.000011455               0.000377165               0.999999996              -0.000004677               0.000366383               0.999999996              -0.000009082               0.000364077               0.999999996              -0.000008348               0.000368610               0.999999996              -0.000005031               0.000378479               0.999999996              -0.000000137               0.000392515               0.999999996               0.000005748               0.000409960               0.999999996               0.000012193               0.000430061               0.999999996               0.000019029               0.000452322               0.999999996               0.000026391               0.000476300               0.999999996               0.000034058               0.000501642               0.999999996               0.000041800               0.000527831               0.999999996               0.000049196               0.000554647               0.999999996               0.000055937               0.000581875               0.999999996               0.000061788               0.000609483               0.999999996               0.000066786               0.000637454               0.999999996               0.000071080               0.000665882               0.999999996               0.000008887               0.000390918               0.999999996              -0.000004438               0.000384899               0.999999996              -0.000008739               0.000384250               0.999999996              -0.000008742               0.000388890               0.999999996              -0.000006548               0.000397970               0.999999996              -0.000003165               0.000410903               0.999999996               0.000001043               0.000427023               0.999999996               0.000005931               0.000445733               0.999999996               0.000011039               0.000466525               0.999999996               0.000016341               0.000489156               0.999999996               0.000021974               0.000513279               0.999999996               0.000027913               0.000538404               0.999999996               0.000033587               0.000564237               0.999999996               0.000038484               0.000590598               0.999999996               0.000042228               0.000617326               0.999999996               0.000044744               0.000644385               0.999999996               0.000045994               0.000671716               0.999999996               0.000006096               0.000400878               0.999999996              -0.000003410               0.000398850               0.999999996              -0.000006813               0.000399899               0.999999996              -0.000007135               0.000404996               0.999999996              -0.000005922               0.000413879               0.999999996              -0.000003897               0.000426181               0.999999996              -0.000001241               0.000441415               0.999999996               0.000002078               0.000459211               0.999999996               0.000005419               0.000479166               0.999999996               0.000008753               0.000500908               0.999999996               0.000012483               0.000524109               0.999999996               0.000016521               0.000548515               0.999999996               0.000020355               0.000573835               0.999999996               0.000023488               0.000599728               0.999999996               0.000025662               0.000626029               0.999999996               0.000026564               0.000652662               0.999999996               0.000026131               0.000679466               0.999999996               0.000003120               0.000406909               0.999999996              -0.000001854               0.000407510               0.999999996              -0.000003703               0.000409849               0.999999996              -0.000003993               0.000415428               0.999999996              -0.000003490               0.000424378               0.999999996              -0.000002579               0.000436405               0.999999996              -0.000001254               0.000451163               0.999999996               0.000000392               0.000468432               0.999999996               0.000001996               0.000487885               0.999999996               0.000003619               0.000509066               0.999999996               0.000005490               0.000531694               0.999999996               0.000007513               0.000555616               0.999999996               0.000009506               0.000580603               0.999999996               0.000011115               0.000606371               0.999999996               0.000012073               0.000632672               0.999999996               0.000012283               0.000659296               0.999999996               0.000011538               0.000686007               0.999999996              -0.000000000               0.000408997               0.999999996              -0.000000000               0.000410465               0.999999996               0.000000000               0.000413208               0.999999996               0.000000000               0.000419023               0.999999996              -0.000000000               0.000428055               0.999999996              -0.000000000               0.000439963               0.999999996               0.000000000               0.000454608               0.999999996              -0.000000000               0.000471735               0.999999996              -0.000000000               0.000491007               0.999999996              -0.000000000               0.000512048               0.999999996               0.000000000               0.000534495               0.999999996               0.000000000               0.000558208               0.999999996               0.000000000               0.000583040               0.999999996              -0.000000000               0.000608815               0.999999996              -0.000000000               0.000635256               0.999999996               0.000000000               0.000662036               0.999999996               0.000000000               0.000688833               0.999999996 </DataArray>
<DataArray type="Float64"                                    Name="defo"                                                      NumberOfComponents=" 3" format="ascii">
             -0.000029581               0.000000000               0.999999996              -0.000046103              -0.000000000               0.999999996              -0.000054304               0.000000000               0.999999996              -0.000059285               0.000000000               0.999999996              -0.000063140               0.000000000               0.999999996              -0.000066817               0.000000000               0.999999996              -0.000070804               0.000000000               0.999999996              -0.000075318               0.000000000               0.999999996              -0.000080385               0.000000000               0.999999996              -0.000086100              -0.000000000               0.999999996              -0.000092523               0.000000000               0.999999996              -0.000099714               0.000000000               0.999999996              -0.000107554               0.000000000               0.999999996              -0.000116057               0.000000000               0.999999996              -0.000125233               0.000000000               0.999999996              -0.000134945              -0.000000000               0.999999996              -0.000145133               0.000000000               0.999999996              -0.000029412               0.000040862               0.999999996              -0.000045202               0.000036187               0.999999996              -0.000052943               0.000035019               0.999999996              -0.000057735               0.000035743               0.999999996              -0.000061591               0.000037674               0.999999996              -0.000065334               0.000040309               0.999999996              -0.000069367               0.000043486               0.999999996              -0.000073954               0.000047025               0.999999996              -0.000079140               0.000050764               0.999999996              -0.000084965               0.000054775               0.999999996              -0.000091519               0.000058960               0.999999996              -0.000098788               0.000063309               0.999999996              -0.000106732               0.000067739               0.999999996              -0.000115348               0.000072224               0.999999996              -0.000124563               0.000076682               0.999999996              -0.000134295               0.000080998               0.999999996              -0.000144481               0.000084982               0.999999996              -0.000028747               0.000081243               0.999999996              -0.000042464               0.000071932               0.999999996              -0.000049081               0.000069808               0.999999996              -0.000053362               0.000071471               0.999999996              -0.000057091               0.000075446               0.999999996              -0.000060984               0.000080796               0.999999996              -0.000065308               0.000087113               0.999999996              -0.000070209               0.000094140               0.999999996              -0.000075733               0.000101625               0.999999996              -0.000081912               0.000109565               0.999999996              -0.000088796               0.000117948               0.999999996              -0.000096388               0.000126631               0.999999996              -0.000104636               0.000135542               0.999999996              -0.000113489               0.000144490               0.999999996              -0.000122868               0.000153495               0.999999996              -0.000132722               0.000162304               0.999999996              -0.000143049               0.000170801               0.999999996              -0.000027732               0.000120641               0.999999996              -0.000038206               0.000106867               0.999999996              -0.000043241               0.000104121               0.999999996              -0.000046896               0.000107078               0.999999996              -0.000050612               0.000113290               0.999999996              -0.000054781               0.000121428               0.999999996              -0.000059497               0.000130946               0.999999996              -0.000064979               0.000141551               0.999999996              -0.000071197               0.000152772               0.999999996              -0.000078083               0.000164703               0.999999996              -0.000085660               0.000177281               0.999999996              -0.000093883               0.000190334               0.999999996              -0.000102702               0.000203692               0.999999996              -0.000112061               0.000217206               0.999999996              -0.000121909               0.000230854               0.999999996              -0.000132261               0.000244618               0.999999996              -0.000143195               0.000258384               0.999999996              -0.000026443               0.000158647               0.999999996              -0.000032636               0.000140704               0.999999996              -0.000035923               0.000137836               0.999999996              -0.000039194               0.000142327               0.999999996              -0.000043083               0.000150970               0.999999996              -0.000047818               0.000162073               0.999999996              -0.000053396               0.000174921               0.999999996              -0.000059795               0.000189126               0.999999996              -0.000066943               0.000204238               0.999999996              -0.000074826               0.000220140               0.999999996              -0.000083371               0.000236891               0.999999996              -0.000092522               0.000254305               0.999999996              -0.000102198               0.000272197               0.999999996              -0.000112421               0.000290448               0.999999996              -0.000123245               0.000309072               0.999999996              -0.000134716               0.000328222               0.999999996              -0.000146915               0.000348135               0.999999996              -0.000024792               0.000194905               0.999999996              -0.000026132               0.000173247               0.999999996              -0.000027934               0.000170728               0.999999996              -0.000031158               0.000177033               0.999999996              -0.000035654               0.000188239               0.999999996              -0.000041332               0.000202444               0.999999996              -0.000047952               0.000218663               0.999999996              -0.000055420               0.000236511               0.999999996              -0.000063750               0.000255649               0.999999996              -0.000072920               0.000275650               0.999999996              -0.000082796               0.000296613               0.999999996              -0.000093301               0.000318399               0.999999996              -0.000104430               0.000340873               0.999999996              -0.000116235               0.000364010               0.999999996              -0.000128768               0.000387769               0.999999996              -0.000141962               0.000412381               0.999999996              -0.000155703               0.000438043               0.999999996              -0.000022875               0.000228970               0.999999996              -0.000019210               0.000204377               0.999999996              -0.000020046               0.000202551               0.999999996              -0.000023664               0.000210870               0.999999996              -0.000029142               0.000224674               0.999999996              -0.000035943               0.000242052               0.999999996              -0.000043784               0.000261642               0.999999996              -0.000052662               0.000283260               0.999999996              -0.000062583               0.000306494               0.999999996              -0.000073391               0.000330759               0.999999996              -0.000085038               0.000355957               0.999999996              -0.000097330               0.000382095               0.999999996              -0.000110292               0.000409090               0.999999996              -0.000123890               0.000436954               0.999999996              -0.000138041               0.000465580               0.999999996              -0.000152564               0.000495036               0.999999996              -0.000167197               0.000525150               0.999999996              -0.000020835               0.000260445               0.999999996              -0.000012324               0.000233998               0.999999996              -0.000012737               0.000233196               0.999999996              -0.000017245               0.000243476               0.999999996              -0.000023864               0.000259929               0.999999996              -0.000031986               0.000280471               0.999999996              -0.000041347               0.000303647               0.999999996              -0.000051936               0.000329190               0.999999996              -0.000063680               0.000356613               0.999999996              -0.000076291               0.000385092               0.999999996              -0.000089618               0.000414409               0.999999996              -0.000103571               0.000444784               0.999999996              -0.000118083               0.000476180               0.999999996              -0.000132971               0.000508522               0.999999996              -0.000148110               0.000541710               0.999999996              -0.000163312               0.000575460               0.999999996              -0.000178283               0.000609259               0.999999996              -0.000018909               0.000288894               0.999999996              -0.000005788               0.000262070               0.999999996              -0.000006574               0.000262269               0.999999996              -0.000012134               0.000274557               0.999999996              -0.000020055               0.000293675               0.999999996              -0.000029710               0.000317408               0.999999996              -0.000040750               0.000344474               0.999999996              -0.000053184               0.000374044               0.999999996              -0.000066591               0.000405501               0.999999996              -0.000080703               0.000438059               0.999999996              -0.000095402               0.000471580               0.999999996              -0.000110567               0.000506122               0.999999996              -0.000126069               0.000541631               0.999999996              -0.000141838               0.000578124               0.999999996              -0.000157853               0.000615236               0.999999996              -0.000173899               0.000652559               0.999999996              -0.000189786               0.000689640               0.999999996              -0.000017455               0.000315391               0.999999996              -0.000001204               0.000291122               0.999999996              -0.000000372               0.000288661               0.999999996              -0.000004908               0.000297876               0.999999996              -0.000011884               0.000313869               0.999999996              -0.000020545               0.000334640               0.999999996              -0.000030471               0.000358990               0.999999996              -0.000041434               0.000385974               0.999999996              -0.000053342               0.000414887               0.999999996              -0.000065896               0.000445130               0.999999996              -0.000078813               0.000476251               0.999999996              -0.000091974               0.000508103               0.999999996              -0.000105240               0.000540726               0.999999996              -0.000118685               0.000574129               0.999999996              -0.000132481               0.000608341               0.999999996              -0.000146666               0.000643101               0.999999996              -0.000161229               0.000678077               0.999999996              -0.000015698               0.000339211               0.999999996               0.000001960               0.000318625               0.999999996               0.000004501               0.000315123               0.999999996               0.000001252               0.000321870               0.999999996              -0.000004604               0.000335190               0.999999996              -0.000012128               0.000353303               0.999999996              -0.000020911               0.000375001               0.999999996              -0.000030453               0.000399388               0.999999996              -0.000040782               0.000425829               0.999999996              -0.000051611               0.000453841               0.999999996              -0.000062837               0.000482806               0.999999996              -0.000074149               0.000512426               0.999999996              -0.000085274               0.000542567               0.999999996              -0.000096276               0.000573309               0.999999996              -0.000107328               0.000604651               0.999999996              -0.000118730               0.000636750               0.999999996              -0.000130450               0.000669421               0.999999996              -0.000013717               0.000359890               0.999999996               0.000003890               0.000344004               0.999999996               0.000007669               0.000340600               0.999999996               0.000005810               0.000345814               0.999999996               0.000001204               0.000357075               0.999999996              -0.000005063               0.000372881               0.999999996              -0.000012495               0.000392165               0.999999996              -0.000020564               0.000414195               0.999999996              -0.000029156               0.000438482               0.999999996              -0.000038308               0.000464306               0.999999996              -0.000047889               0.000491237               0.999999996              -0.000057382               0.000518954               0.999999996              -0.000066529               0.000547237               0.999999996              -0.000075249               0.000575921               0.999999996              -0.000083622               0.000605014               0.999999996              -0.000091687               0.000634682               0.999999996              -0.000099798               0.000664994               0.999999996              -0.000011455               0.000377165               0.999999996               0.000004677               0.000366383               0.999999996               0.000009082               0.000364077               0.999999996               0.000008348               0.000368610               0.999999996               0.000005031               0.000378479               0.999999996               0.000000137               0.000392515               0.999999996              -0.000005748               0.000409960               0.999999996              -0.000012193               0.000430061               0.999999996              -0.000019029               0.000452322               0.999999996              -0.000026391               0.000476300               0.999999996              -0.000034058               0.000501642               0.999999996              -0.000041800               0.000527831               0.999999996              -0.000049196               0.000554647               0.999999996              -0.000055937               0.000581875               0.999999996              -0.000061788               0.000609483               0.999999996              -0.000066786               0.000637454               0.999999996              -0.000071080               0.000665882               0.999999996              -0.000008887               0.000390918               0.999999996               0.000004438               0.000384899               0.999999996               0.000008739               0.000384250               0.999999996               0.000008742               0.000388890               0.999999996               0.000006548               0.000397970               0.999999996               0.000003165               0.000410903               0.999999996              -0.000001043               0.000427023               0.999999996              -0.000005931               0.000445733               0.999999996              -0.000011039               0.000466525               0.999999996              -0.000016341               0.000489156               0.999999996              -0.000021974               0.000513279               0.999999996              -0.000027913               0.000538404               0.999999996              -0.000033587               0.000564237               0.999999996              -0.000038484               0.000590598               0.999999996              -0.000042228               0.000617326               0.999999996              -0.000044744               0.000644385               0.999999996              -0.000045994               0.000671716               0.999999996              -0.000006096               0.000400878               0.999999996               0.000003410               0.000398850               0.999999996               0.000006813               0.000399899               0.999999996               0.000007135               0.000404996               0.999999996               0.000005922               0.000413879               0.999999996               0.000003897               0.000426181               0.999999996               0.000001241               0.000441415               0.999999996              -0.000002078               0.000459211               0.999999996              -0.000005419               0.000479166               0.999999996              -0.000008753               0.000500908               0.999999996              -0.000012483               0.000524109               0.999999996              -0.000016521               0.000548515               0.999999996              -0.000020355               0.000573835               0.999999996              -0.000023488               0.000599728               0.999999996              -0.000025662               0.000626029               0.999999996              -0.000026564               0.000652662               0.999999996              -0.000026131               0.000679466               0.999999996              -0.000003120               0.000406909               0.999999996               0.000001854               0.000407510               0.999999996               0.000003703               0.000409849               0.999999996               0.000003993               0.000415428               0.999999996               0.000003490               0.000424378               0.999999996               0.000002579               0.000436405               0.999999996               0.000001254               0.000451163               0.999999996              -0.000000392               0.000468432               0.999999996              -0.000001996               0.000487885               0.999999996              -0.000003619               0.000509066               0.999999996              -0.000005490               0.000531694               0.999999996              -0.000007513               0.000555616               0.999999996              -0.000009506               0.000580603               0.999999996              -0.000011115               0.000606371               0.999999996              -0.000012073               0.000632672               0.999999996              -0.000012283               0.000659296               0.999999996              -0.000011538               0.000686007               0.999999996              -0.000000000               0.000408997               0.999999996              -0.000000000               0.000410465               0.999999996               0.000000000               0.000413208               0.999999996               0.000000000               0.000419023               0.999999996              -0.000000000               0.000428055               0.999999996              -0.000000000               0.000439963               0.999999996               0.000000000               0.000454608               0.999999996              -0.000000000               0.000471735               0.999999996              -0.000000000               0.000491007               0.999999996              -0.000000000               0.000512048               0.999999996               0.000000000               0.000534495               0.999999996               0.000000000               0.000558208               0.999999996               0.000000000               0.000583040               0.999999996              -0.000000000               0.000608815               0.999999996              -0.000000000               0.000635256               0.999999996               0.000000000               0.000662036               0.999999996               0.000000000               0.000688833               0.999999996              -0.000029581               0.000000000               0.999999996              -0.000046103              -0.000000000               0.999999996              -0.000054304               0.000000000               0.999999996              -0.000059285               0.000000000               0.999999996              -0.000063140               0.000000000               0.999999996              -0.000066817               0.000000000               0.999999996              -0.000070804               0.000000000               0.999999996              -0.000075318               0.000000000               0.999999996              -0.000080385               0.000000000               0.999999996              -0.000086100              -0.000000000               0.999999996              -0.000092523               0.000000000               0.999999996              -0.000099714               0.000000000               0.999999996              -0.000107554               0.000000000               0.999999996              -0.000116057               0.000000000               0.999999996              -0.000125233               0.000000000               0.999999996              -0.000134945              -0.000000000               0.999999996              -0.000145133               0.000000000               0.999999996              -0.000029412              -0.000040862               0.999999996              -0.000045202              -0.000036187               0.999999996              -0.000052943              -0.000035019               0.999999996              -0.000057735              -0.000035743               0.999999996              -0.000061591              -0.000037674               0.999999996              -0.000065334              -0.000040309               0.999999996              -0.000069367              -0.000043486               0.999999996              -0.000073954              -0.000047025               0.999999996              -0.000079140              -0.000050764               0.999999996              -0.000084965              -0.000054775               0.999999996              -0.000091519              -0.000058960               0.999999996              -0.000098788              -0.000063309               0.999999996              -0.000106732              -0.000067739               0.999999996              -0.000115348              -0.000072224               0.999999996              -0.000124563              -0.000076682               0.999999996              -0.000134295              -0.000080998               0.999999996              -0.000144481              -0.000084982               0.999999996              -0.000028747              -0.000081243               0.999999996              -0.000042464              -0.000071932               0.999999996              -0.000049081              -0.000069808               0.999999996              -0.000053362              -0.000071471               0.999999996              -0.000057091              -0.000075446               0.999999996              -0.000060984              -0.000080796               0.999999996              -0.000065308              -0.000087113               0.999999996              -0.000070209              -0.000094140               0.999999996              -0.000075733              -0.000101625               0.999999996              -0.000081912              -0.000109565               0.999999996              -0.000088796              -0.000117948               0.999999996              -0.000096388              -0.000126631               0.999999996              -0.000104636              -0.000135542               0.999999996              -0.000113489              -0.000144490               0.999999996              -0.000122868              -0.000153495               0.999999996              -0.000132722              -0.000162304               0.999999996              -0.000143049              -0.000170801               0.999999996              -0.000027732              -0.000120641               0.999999996              -0.000038206              -0.000106867               0.999999996              -0.000043241              -0.000104121               0.999999996              -0.000046896              -0.000107078               0.999999996              -0.000050612              -0.000113290               0.999999996              -0.000054781              -0.000121428               0.999999996              -0.000059497              -0.000130946               0.999999996              -0.000064979              -0.000141551               0.999999996              -0.000071197              -0.000152772               0.999999996              -0.000078083              -0.000164703               0.999999996              -0.000085660              -0.000177281               0.999999996              -0.000093883              -0.000190334               0.999999996              -0.000102702              -0.000203692               0.999999996              -0.000112061              -0.000217206               0.999999996              -0.000121909              -0.000230854               0.999999996              -0.000132261              -0.000244618               0.999999996              -0.000143195              -0.000258384               0.999999996              -0.000026443              -0.000158647               0.999999996              -0.000032636              -0.000140704               0.999999996              -0.000035923              -0.000137836               0.999999996              -0.000039194              -0.000142327               0.999999996              -0.000043083              -0.000150970               0.999999996              -0.000047818              -0.000162073               0.999999996              -0.000053396              -0.000174921               0.999999996              -0.000059795              -0.000189126               0.999999996              -0.000066943              -0.000204238               0.999999996              -0.000074826              -0.000220140               0.999999996              -0.000083371              -0.000236891               0.999999996              -0.000092522              -0.000254305               0.999999996              -0.000102198              -0.000272197               0.999999996              -0.000112421              -0.000290448               0.999999996              -0.000123245              -0.000309072               0.999999996              -0.000134716              -0.000328222               0.999999996              -0.000146915              -0.000348135               0.999999996              -0.000024792              -0.000194905               0.999999996              -0.000026132              -0.000173247               0.999999996              -0.000027934              -0.000170728               0.999999996              -0.000031158              -0.000177033               0.999999996              -0.000035654              -0.000188239               0.999999996              -0.000041332              -0.000202444               0.999999996              -0.000047952              -0.000218663               0.999999996              -0.000055420              -0.000236511               0.999999996              -0.000063750              -0.000255649               0.999999996              -0.000072920              -0.000275650               0.999999996              -0.000082796              -0.000296613               0.999999996              -0.000093301              -0.000318399               0.999999996              -0.000104430              -0.000340873               0.999999996              -0.000116235              -0.000364010               0.999999996              -0.000128768              -0.000387769               0.999999996              -0.000141962              -0.000412381               0.999999996              -0.000155703              -0.000438043               0.999999996              -0.000022875              -0.000228970               0.999999996              -0.000019210              -0.000204377               0.999999996              -0.000020046              -0.000202551               0.999999996              -0.000023664              -0.000210870               0.999999996              -0.000029142              -0.000224674               0.999999996              -0.000035943              -0.000242052               0.999999996              -0.000043784              -0.000261642               0.999999996              -0.000052662              -0.000283260               0.999999996              -0.000062583              -0.000306494               0.999999996              -0.000073391              -0.000330759               0.999999996              -0.000085038              -0.000355957               0.999999996              -0.000097330              -0.000382095               0.999999996              -0.000110292              -0.000409090               0.999999996              -0.000123890              -0.000436954               0.999999996              -0.000138041              -0.000465580               0.999999996              -0.000152564              -0.000495036               0.999999996              -0.000167197              -0.000525150               0.999999996              -0.000020835              -0.000260445               0.999999996              -0.000012324              -0.000233998               0.999999996              -0.000012737              -0.000233196               0.999999996              -0.000017245              -0.000243476               0.999999996              -0.000023864              -0.000259929               0.999999996              -0.000031986              -0.000280471               0.999999996              -0.000041347              -0.000303647               0.999999996              -0.000051936              -0.000329190               0.999999996              -0.000063680              -0.000356613               0.999999996              -0.000076291              -0.000385092               0.999999996              -0.000089618              -0.000414409               0.999999996              -0.000103571              -0.000444784               0.999999996              -0.000118083              -0.000476180               0.999999996              -0.000132971              -0.000508522               0.999999996              -0.000148110              -0.000541710               0.999999996              -0.000163312              -0.000575460               0.999999996              -0.000178283              -0.000609259               0.999999996              -0.000018909              -0.000288894               0.999999996              -0.000005788              -0.000262070               0.999999996              -0.000006574              -0.000262269               0.999999996              -0.000012134              -0.000274557               0.999999996              -0.000020055              -0.000293675               0.999999996              -0.000029710              -0.000317408               0.999999996              -0.000040750              -0.000344474               0.999999996              -0.000053184              -0.000374044               0.999999996              -0.000066591              -0.000405501               0.999999996              -0.000080703              -0.000438059               0.999999996              -0.000095402              -0.000471580               0.999999996              -0.000110567              -0.000506122               0.999999996              -0.000126069              -0.000541631               0.999999996              -0.000141838              -0.000578124               0.999999996              -0.000157853              -0.000615236               0.999999996              -0.000173899              -0.000652559               0.999999996              -0.000189786              -0.000689640               0.999999996              -0.000017455              -0.000315391               0.999999996              -0.000001204              -0.000291122               0.999999996              -0.000000372              -0.000288661               0.999999996              -0.000004908              -0.000297876               0.999999996              -0.000011884              -0.000313869               0.999999996              -0.000020545              -0.000334640               0.999999996              -0.000030471              -0.000358990               0.999999996              -0.000041434              -0.000385974               0.999999996              -0.000053342              -0.000414887               0.999999996              -0.000065896              -0.000445130               0.999999996              -0.000078813              -0.000476251               0.999999996              -0.000091974              -0.000508103               0.999999996              -0.000105240              -0.000540726               0.999999996              -0.000118685              -0.000574129               0.999999996              -0.000132481              -0.000608341               0.999999996              -0.000146666              -0.000643101               0.999999996              -0.000161229              -0.000678077               0.999999996              -0.000015698              -0.000339211               0.999999996               0.000001960              -0.000318625               0.999999996               0.000004501              -0.000315123               0.999999996               0.000001252              -0.000321870               0.999999996              -0.000004604              -0.000335190               0.999999996              -0.000012128              -0.000353303               0.999999996              -0.000020911              -0.000375001               0.999999996              -0.000030453              -0.000399388               0.999999996              -0.000040782              -0.000425829               0.999999996              -0.000051611              -0.000453841               0.999999996              -0.000062837              -0.000482806               0.999999996              -0.000074149              -0.000512426               0.999999996              -0.000085274              -0.000542567               0.999999996              -0.000096276              -0.000573309               0.999999996              -0.000107328              -0.000604651               0.999999996              -0.000118730              -0.000636750               0.999999996              -0.000130450              -0.000669421               0.999999996              -0.000013717              -0.000359890               0.999999996               0.000003890              -0.000344004               0.999999996               0.000007669              -0.000340600               0.999999996               0.000005810              -0.000345814               0.999999996               0.000001204              -0.000357075               0.999999996              -0.000005063              -0.000372881               0.999999996              -0.000012495              -0.000392165               0.999999996              -0.000020564              -0.000414195               0.999999996              -0.000029156              -0.000438482               0.999999996              -0.000038308              -0.000464306               0.999999996              -0.000047889              -0.000491237               0.999999996              -0.000057382              -0.000518954               0.999999996              -0.000066529              -0.000547237               0.999999996              -0.000075249              -0.000575921               0.999999996              -0.000083622              -0.000605014               0.999999996              -0.000091687              -0.000634682               0.999999996              -0.000099798              -0.000664994               0.999999996              -0.000011455              -0.000377165               0.999999996               0.000004677              -0.000366383               0.999999996               0.000009082              -0.000364077               0.999999996               0.000008348              -0.000368610               0.999999996               0.000005031              -0.000378479               0.999999996               0.000000137              -0.000392515               0.999999996              -0.000005748              -0.000409960               0.999999996              -0.000012193              -0.000430061               0.999999996              -0.000019029              -0.000452322               0.999999996              -0.000026391              -0.000476300               0.999999996              -0.000034058              -0.000501642               0.999999996              -0.000041800              -0.000527831               0.999999996              -0.000049196              -0.000554647               0.999999996              -0.000055937              -0.000581875               0.999999996              -0.000061788              -0.000609483               0.999999996              -0.000066786              -0.000637454               0.999999996              -0.000071080              -0.000665882               0.999999996              -0.000008887              -0.000390918               0.999999996               0.000004438              -0.000384899               0.999999996               0.000008739              -0.000384250               0.999999996               0.000008742              -0.000388890               0.999999996               0.000006548              -0.000397970               0.999999996               0.000003165              -0.000410903               0.999999996              -0.000001043              -0.000427023               0.999999996              -0.000005931              -0.000445733               0.999999996              -0.000011039              -0.000466525               0.999999996              -0.000016341              -0.000489156               0.999999996              -0.000021974              -0.000513279               0.999999996              -0.000027913              -0.000538404               0.999999996              -0.000033587              -0.000564237               0.999999996              -0.000038484              -0.000590598               0.999999996              -0.000042228              -0.000617326               0.999999996              -0.000044744              -0.000644385               0.999999996              -0.000045994              -0.000671716               0.999999996              -0.000006096              -0.000400878               0.999999996               0.000003410              -0.000398850               0.999999996               0.000006813              -0.000399899               0.999999996               0.000007135              -0.000404996               0.999999996               0.000005922              -0.000413879               0.999999996               0.000003897              -0.000426181               0.999999996               0.000001241              -0.000441415               0.999999996              -0.000002078              -0.000459211               0.999999996              -0.000005419              -0.000479166               0.999999996              -0.000008753              -0.000500908               0.999999996              -0.000012483              -0.000524109               0.999999996              -0.000016521              -0.000548515               0.999999996              -0.000020355              -0.000573835               0.999999996              -0.000023488              -0.000599728               0.999999996              -0.000025662              -0.000626029               0.999999996              -0.000026564              -0.000652662               0.999999996              -0.000026131              -0.000679466               0.999999996              -0.000003120              -0.000406909               0.999999996               0.000001854              -0.000407510               0.999999996               0.000003703              -0.000409849               0.999999996               0.000003993              -0.000415428               0.999999996               0.000003490              -0.000424378               0.999999996               0.000002579              -0.000436405               0.999999996               0.000001254              -0.000451163               0.999999996              -0.000000392              -0.000468432               0.999999996              -0.000001996              -0.000487885               0.999999996              -0.000003619              -0.000509066               0.999999996              -0.000005490              -0.000531694               0.999999996              -0.000007513              -0.000555616               0.999999996              -0.000009506              -0.000580603               0.999999996              -0.000011115              -0.000606371               0.999999996              -0.000012073              -0.000632672               0.999999996              -0.000012283              -0.000659296               0.999999996              -0.000011538              -0.000686007               0.999999996               0.000000000              -0.000408997               0.999999996              -0.000000000              -0.000410465               0.999999996              -0.000000000              -0.000413208               0.999999996              -0.000000000              -0.000419023               0.999999996               0.000000000              -0.000428055               0.999999996              -0.000000000              -0.000439963               0.999999996              -0.000000000              -0.000454608               0.999999996               0.000000000              -0.000471735               0.999999996               0.000000000              -0.000491007               0.999999996               0.000000000              -0.000512048               0.999999996               0.000000000              -0.000534495               0.999999996              -0.000000000              -0.000558208               0.999999996               0.000000000              -0.000583040               0.999999996              -0.000000000              -0.000608815               0.999999996              -0.000000000              -0.000635256               0.999999996              -0.000000000              -0.000662036               0.999999996               0.000000000              -0.000688833               0.999999996               0.000029581              -0.000000000               0.999999996               0.000046103               0.000000000               0.999999996               0.000054304              -0.000000000               0.999999996               0.000059285              -0.000000000               0.999999996               0.000063140              -0.000000000               0.999999996               0.000066817              -0.000000000               0.999999996               0.000070804              -0.000000000               0.999999996               0.000075318               0.000000000               0.999999996               0.000080385              -0.000000000               0.999999996               0.000086100              -0.000000000               0.999999996               0.000092523              -0.000000000               0.999999996               0.000099714               0.000000000               0.999999996               0.000107554               0.000000000               0.999999996               0.000116057               0.000000000               0.999999996               0.000125233               0.000000000               0.999999996               0.000134945               0.000000000               0.999999996               0.000145133               0.000000000               0.999999996               0.000029412              -0.000040862               0.999999996               0.000045202              -0.000036187               0.999999996               0.000052943              -0.000035019               0.999999996               0.000057735              -0.000035743               0.999999996               0.000061591              -0.000037674               0.999999996               0.000065334              -0.000040309               0.999999996               0.000069367              -0.000043486               0.999999996               0.000073954              -0.000047025               0.999999996               0.000079140              -0.000050764               0.999999996               0.000084965              -0.000054775               0.999999996               0.000091519              -0.000058960               0.999999996               0.000098788              -0.000063309               0.999999996               0.000106732              -0.000067739               0.999999996               0.000115348              -0.000072224               0.999999996               0.000124563              -0.000076682               0.999999996               0.000134295              -0.000080998               0.999999996               0.000144481              -0.000084982               0.999999996               0.000028747              -0.000081243               0.999999996               0.000042464              -0.000071932               0.999999996               0.000049081              -0.000069808               0.999999996               0.000053362              -0.000071471               0.999999996               0.000057091              -0.000075446               0.999999996               0.000060984              -0.000080796               0.999999996               0.000065308              -0.000087113               0.999999996               0.000070209              -0.000094140               0.999999996               0.000075733              -0.000101625               0.999999996               0.000081912              -0.000109565               0.999999996               0.000088796              -0.000117948               0.999999996               0.000096388              -0.000126631               0.999999996               0.000104636              -0.000135542               0.999999996               0.000113489              -0.000144490               0.999999996               0.000122868              -0.000153495               0.999999996               0.000132722              -0.000162304               0.999999996               0.000143049              -0.000170801               0.999999996               0.000027732              -0.000120641               0.999999996               0.000038206              -0.000106867               0.999999996               0.000043241              -0.000104121               0.999999996               0.000046896              -0.000107078               0.999999996               0.000050612              -0.000113290               0.999999996               0.000054781              -0.000121428               0.999999996               0.000059497              -0.000130946               0.999999996               0.000064979              -0.000141551               0.999999996               0.000071197              -0.000152772               0.999999996               0.000078083              -0.000164703               0.999999996               0.000085660              -0.000177281               0.999999996               0.000093883              -0.000190334               0.999999996               0.000102702              -0.000203692               0.999999996               0.000112061              -0.000217206               0.999999996               0.000121909              -0.000230854               0.999999996               0.000132261              -0.000244618               0.999999996               0.000143195              -0.000258384               0.999999996               0.000026443              -0.000158647               0.999999996               0.000032636              -0.000140704               0.999999996               0.000035923              -0.000137836               0.999999996               0.000039194              -0.000142327               0.999999996               0.000043083              -0.000150970               0.999999996               0.000047818              -0.000162073               0.999999996               0.000053396              -0.000174921               0.999999996               0.000059795              -0.000189126               0.999999996               0.000066943              -0.000204238               0.999999996               0.000074826              -0.000220140               0.999999996               0.000083371              -0.000236891               0.999999996               0.000092522              -0.000254305               0.999999996               0.000102198              -0.000272197               0.999999996               0.000112421              -0.000290448               0.999999996               0.000123245              -0.000309072               0.999999996               0.000134716              -0.000328222               0.999999996               0.000146915              -0.000348135               0.999999996               0.000024792              -0.000194905               0.999999996               0.000026132              -0.000173247               0.999999996               0.000027934              -0.000170728               0.999999996               0.000031158              -0.000177033               0.999999996               0.000035654              -0.000188239               0.999999996               0.000041332              -0.000202444               0.999999996               0.000047952              -0.000218663               0.999999996               0.000055420              -0.000236511               0.999999996               0.000063750              -0.000255649               0.999999996               0.000072920              -0.000275650               0.999999996               0.000082796              -0.000296613               0.999999996               0.000093301              -0.000318399               0.999999996               0.000104430              -0.000340873               0.999999996               0.000116235              -0.000364010               0.999999996               0.000128768              -0.000387769               0.999999996               0.000141962              -0.000412381               0.999999996               0.000155703              -0.000438043               0.999999996               0.000022875              -0.000228970               0.999999996               0.000019210              -0.000204377               0.999999996               0.000020046              -0.000202551               0.999999996               0.000023664              -0.000210870               0.999999996               0.000029142              -0.000224674               0.999999996               0.000035943              -0.000242052               0.999999996               0.000043784              -0.000261642               0.999999996               0.000052662              -0.000283260               0.999999996               0.000062583              -0.000306494               0.999999996               0.000073391              -0.000330759               0.999999996               0.000085038              -0.000355957               0.999999996               0.000097330              -0.000382095               0.999999996               0.000110292              -0.000409090               0.999999996               0.000123890              -0.000436954               0.999999996               0.000138041              -0.000465580               0.999999996               0.000152564              -0.000495036               0.999999996               0.000167197              -0.000525150               0.999999996               0.000020835              -0.000260445               0.999999996               0.000012324              -0.000233998               0.999999996               0.000012737              -0.000233196               0.999999996               0.000017245              -0.000243476               0.999999996               0.000023864              -0.000259929               0.999999996               0.000031986              -0.000280471               0.999999996               0.000041347              -0.000303647               0.999999996               0.000051936              -0.000329190               0.999999996               0.000063680              -0.000356613               0.999999996               0.000076291              -0.000385092               0.999999996               0.000089618              -0.000414409               0.999999996               0.000103571              -0.000444784               0.999999996               0.000118083              -0.000476180               0.999999996               0.000132971              -0.000508522               0.999999996               0.000148110              -0.000541710               0.999999996               0.000163312              -0.000575460               0.999999996               0.000178283              -0.000609259               0.999999996               0.000018909              -0.000288894               0.999999996               0.000005788              -0.000262070               0.999999996               0.000006574              -0.000262269               0.999999996               0.000012134              -0.000274557               0.999999996               0.000020055              -0.000293675               0.999999996               0.000029710              -0.000317408               0.999999996               0.000040750              -0.000344474               0.999999996               0.000053184              -0.000374044               0.999999996               0.000066591              -0.000405501               0.999999996               0.000080703              -0.000438059               0.999999996               0.000095402              -0.000471580               0.999999996               0.000110567              -0.000506122               0.999999996               0.000126069              -0.000541631               0.999999996               0.000141838              -0.000578124               0.999999996               0.000157853              -0.000615236               0.999999996               0.000173899              -0.000652559               0.999999996               0.000189786              -0.000689640               0.999999996               0.000017455              -0.000315391               0.999999996               0.000001204              -0.000291122               0.999999996               0.000000372              -0.000288661               0.999999996               0.000004908              -0.000297876               0.999999996               0.000011884              -0.000313869               0.999999996               0.000020545              -0.000334640               0.999999996               0.000030471              -0.000358990               0.999999996               0.000041434              -0.000385974               0.999999996               0.000053342              -0.000414887               0.999999996               0.000065896              -0.000445130               0.999999996               0.000078813              -0.000476251               0.999999996               0.000091974              -0.000508103               0.999999996               0.000105240              -0.000540726               0.999999996               0.000118685              -0.000574129               0.999999996               0.000132481              -0.000608341               0.999999996               0.000146666              -0.000643101               0.999999996               0.000161229              -0.000678077               0.999999996               0.000015698              -0.000339211               0.999999996              -0.000001960              -0.000318625               0.999999996              -0.000004501              -0.000315123               0.999999996              -0.000001252              -0.000321870               0.999999996               0.000004604              -0.000335190               0.999999996               0.000012128              -0.000353303               0.999999996               0.000020911              -0.000375001               0.999999996               0.000030453              -0.000399388               0.999999996               0.000040782              -0.000425829               0.999999996               0.000051611              -0.000453841               0.999999996               0.000062837              -0.000482806               0.999999996               0.000074149              -0.000512426               0.999999996               0.000085274              -0.000542567               0.999999996               0.000096276              -0.000573309               0.999999996               0.000107328              -0.000604651               0.999999996               0.000118730              -0.000636750               0.999999996               0.000130450              -0.000669421               0.999999996               0.000013717              -0.000359890               0.999999996              -0.000003890              -0.000344004               0.999999996              -0.000007669              -0.000340600               0.999999996              -0.000005810              -0.000345814               0.999999996              -0.000001204              -0.000357075               0.999999996               0.000005063              -0.000372881               0.999999996               0.000012495              -0.000392165               0.999999996               0.000020564              -0.000414195               0.999999996               0.000029156              -0.000438482               0.999999996               0.000038308              -0.000464306               0.999999996               0.000047889              -0.000491237               0.999999996               0.000057382              -0.000518954               0.999999996               0.000066529              -0.000547237               0.999999996               0.000075249              -0.000575921               0.999999996               0.000083622              -0.000605014               0.999999996               0.000091687              -0.000634682               0.999999996               0.000099798              -0.000664994               0.999999996               0.000011455              -0.000377165               0.999999996              -0.000004677              -0.000366383               0.999999996              -0.000009082              -0.000364077               0.999999996              -0.000008348              -0.000368610               0.999999996              -0.000005031              -0.000378479               0.999999996              -0.000000137              -0.000392515               0.999999996               0.000005748              -0.000409960               0.999999996               0.000012193              -0.000430061               0.999999996               0.000019029              -0.000452322               0.999999996               0.000026391              -0.000476300               0.999999996               0.000034058              -0.000501642               0.999999996               0.000041800              -0.000527831               0.999999996               0.000049196              -0.000554647               0.999999996               0.000055937              -0.000581875               0.999999996               0.000061788              -0.000609483               0.999999996               0.000066786              -0.000637454               0.999999996               0.000071080              -0.000665882               0.999999996               0.000008887              -0.000390918               0.999999996              -0.000004438              -0.000384899               0.999999996              -0.000008739              -0.000384250               0.999999996              -0.000008742              -0.000388890               0.999999996              -0.000006548              -0.000397970               0.999999996              -0.000003165              -0.000410903               0.999999996               0.000001043              -0.000427023               0.999999996               0.000005931              -0.000445733               0.999999996               0.000011039              -0.000466525               0.999999996               0.000016341              -0.000489156               0.999999996               0.000021974              -0.000513279               0.999999996               0.000027913              -0.000538404               0.999999996               0.000033587              -0.000564237               0.999999996               0.000038484              -0.000590598               0.999999996               0.000042228              -0.000617326               0.999999996               0.000044744              -0.000644385               0.999999996               0.000045994              -0.000671716               0.999999996               0.000006096              -0.000400878               0.999999996              -0.000003410              -0.000398850               0.999999996              -0.000006813              -0.000399899               0.999999996              -0.000007135              -0.000404996               0.999999996              -0.000005922              -0.000413879               0.999999996              -0.000003897              -0.000426181               0.999999996              -0.000001241              -0.000441415               0.999999996               0.000002078              -0.000459211               0.999999996               0.000005419              -0.000479166               0.999999996               0.000008753              -0.000500908               0.999999996               0.000012483              -0.000524109               0.999999996               0.000016521              -0.000548515               0.999999996               0.000020355              -0.000573835               0.999999996               0.000023488              -0.000599728               0.999999996               0.000025662              -0.000626029               0.999999996               0.000026564              -0.000652662               0.999999996               0.000026131              -0.000679466               0.999999996               0.000003120              -0.000406909               0.999999996              -0.000001854              -0.000407510               0.999999996              -0.000003703              -0.000409849               0.999999996              -0.000003993              -0.000415428               0.999999996              -0.000003490              -0.000424378               0.999999996              -0.000002579              -0.000436405               0.999999996              -0.000001254              -0.000451163               0.999999996               0.000000392              -0.000468432               0.999999996               0.000001996              -0.000487885               0.999999996               0.000003619              -0.000509066               0.999999996               0.000005490              -0.000531694               0.999999996               0.000007513              -0.000555616               0.999999996               0.000009506              -0.000580603               0.999999996               0.000011115              -0.000606371               0.999999996               0.000012073              -0.000632672               0.999999996               0.000012283              -0.000659296               0.999999996               0.000011538              -0.000686007               0.999999996               0.000000000              -0.000408997               0.999999996              -0.000000000              -0.000410465               0.999999996              -0.000000000              -0.000413208               0.999999996              -0.000000000              -0.000419023               0.999999996               0.000000000              -0.000428055               0.999999996              -0.000000000              -0.000439963               0.999999996              -0.000000000              -0.000454608               0.999999996               0.000000000              -0.000471735               0.999999996               0.000000000              -0.000491007               0.999999996               0.000000000              -0.000512048               0.999999996               0.000000000              -0.000534495               0.999999996              -0.000000000              -0.000558208               0.999999996               0.000000000              -0.000583040               0.999999996              -0.000000000              -0.000608815               0.999999996              -0.000000000              -0.000635256               0.999999996              -0.000000000              -0.000662036               0.999999996               0.000000000              -0.000688833               0.999999996               0.000029581              -0.000000000               0.999999996               0.000046103               0.000000000               0.999999996               0.000054304              -0.000000000               0.999999996               0.000059285              -0.000000000               0.999999996               0.000063140              -0.000000000               0.999999996               0.000066817              -0.000000000               0.999999996               0.000070804              -0.000000000               0.999999996               0.000075318               0.000000000               0.999999996               0.000080385              -0.000000000               0.999999996               0.000086100              -0.000000000               0.999999996               0.000092523              -0.000000000               0.999999996               0.000099714               0.000000000               0.999999996               0.000107554               0.000000000               0.999999996               0.000116057               0.000000000               0.999999996               0.000125233               0.000000000               0.999999996               0.000134945               0.000000000               0.999999996               0.000145133               0.000000000               0.999999996               0.000029412               0.000040862               0.999999996               0.000045202               0.000036187               0.999999996               0.000052943               0.000035019               0.999999996               0.000057735               0.000035743               0.999999996               0.000061591               0.000037674               0.999999996               0.000065334               0.000040309               0.999999996               0.000069367               0.000043486               0.999999996               0.000073954               0.000047025               0.999999996               0.000079140               0.000050764               0.999999996               0.000084965               0.000054775               0.999999996               0.000091519               0.000058960               0.999999996               0.000098788               0.000063309               0.999999996               0.000106732               0.000067739               0.999999996               0.000115348               0.000072224               0.999999996               0.000124563               0.000076682               0.999999996               0.000134295               0.000080998               0.999999996               0.000144481               0.000084982               0.999999996               0.000028747               0.000081243               0.999999996               0.000042464               0.000071932               0.999999996               0.000049081               0.000069808               0.999999996               0.000053362               0.000071471               0.999999996               0.000057091               0.000075446               0.999999996               0.000060984               0.000080796               0.999999996               0.000065308               0.000087113               0.999999996               0.000070209               0.000094140               0.999999996               0.000075733               0.000101625               0.999999996               0.000081912               0.000109565               0.999999996               0.000088796               0.000117948               0.999999996               0.000096388               0.000126631               0.999999996               0.000104636               0.000135542               0.999999996               0.000113489               0.000144490               0.999999996               0.000122868               0.000153495               0.999999996               0.000132722               0.000162304               0.999999996               0.000143049               0.000170801               0.999999996               0.000027732               0.000120641               0.999999996               0.000038206               0.000106867               0.999999996               0.000043241               0.000104121               0.999999996               0.000046896               0.000107078               0.999999996               0.000050612               0.000113290               0.999999996               0.000054781               0.000121428               0.999999996               0.000059497               0.000130946               0.999999996               0.000064979               0.000141551               0.999999996               0.000071197               0.000152772               0.999999996               0.000078083               0.000164703               0.999999996               0.000085660               0.000177281               0.999999996               0.000093883               0.000190334               0.999999996               0.000102702               0.000203692               0.999999996               0.000112061               0.000217206               0.999999996               0.000121909               0.000230854               0.999999996               0.000132261               0.000244618               0.999999996               0.000143195               0.000258384               0.999999996               0.000026443               0.000158647               0.999999996               0.000032636               0.000140704               0.999999996               0.000035923               0.000137836               0.999999996               0.000039194               0.000142327               0.999999996               0.000043083               0.000150970               0.999999996               0.000047818               0.000162073               0.999999996               0.000053396               0.000174921               0.999999996               0.000059795               0.000189126               0.999999996               0.000066943               0.000204238               0.999999996               0.000074826               0.000220140               0.999999996               0.000083371               0.000236891               0.999999996               0.000092522               0.000254305               0.999999996               0.000102198               0.000272197               0.999999996               0.000112421               0.000290448               0.999999996               0.000123245               0.000309072               0.999999996               0.000134716               0.000328222               0.999999996               0.000146915               0.000348135               0.999999996               0.000024792               0.000194905               0.999999996               0.000026132               0.000173247               0.999999996               0.000027934               0.000170728               0.999999996               0.000031158               0.000177033               0.999999996               0.000035654               0.000188239               0.999999996               0.000041332               0.000202444               0.999999996               0.000047952               0.000218663               0.999999996               0.000055420               0.000236511               0.999999996               0.000063750               0.000255649               0.999999996               0.000072920               0.000275650               0.999999996               0.000082796               0.000296613               0.999999996               0.000093301               0.000318399               0.999999996               0.000104430               0.000340873               0.999999996               0.000116235               0.000364010               0.999999996               0.000128768               0.000387769               0.999999996               0.000141962               0.000412381               0.999999996               0.000155703               0.000438043               0.999999996               0.000022875               0.000228970               0.999999996               0.000019210               0.000204377               0.999999996               0.000020046               0.000202551               0.999999996               0.000023664               0.000210870               0.999999996               0.000029142               0.000224674               0.999999996               0.000035943               0.000242052               0.999999996               0.000043784               0.000261642               0.999999996               0.000052662               0.000283260               0.999999996               0.000062583               0.000306494               0.999999996               0.000073391               0.000330759               0.999999996               0.000085038               0.000355957               0.999999996               0.000097330               0.000382095               0.999999996               0.000110292               0.000409090               0.999999996               0.000123890               0.000436954               0.999999996               0.000138041               0.000465580               0.999999996               0.000152564               0.000495036               0.999999996               0.000167197               0.000525150               0.999999996               0.000020835               0.000260445               0.999999996               0.000012324               0.000233998               0.999999996               0.000012737               0.000233196               0.999999996               0.000017245               0.000243476               0.999999996               0.000023864               0.000259929               0.999999996               0.000031986               0.000280471               0.999999996               0.000041347               0.000303647               0.999999996               0.000051936               0.000329190               0.999999996               0.000063680               0.000356613               0.999999996               0.000076291               0.000385092               0.999999996               0.000089618               0.000414409               0.999999996               0.000103571               0.000444784               0.999999996               0.000118083               0.000476180               0.999999996               0.000132971               0.000508522               0.999999996               0.000148110               0.000541710               0.999999996               0.000163312               0.000575460               0.999999996               0.000178283               0.000609259               0.999999996               0.000018909               0.000288894               0.999999996               0.000005788               0.000262070               0.999999996               0.000006574               0.000262269               0.999999996               0.000012134               0.000274557               0.999999996               0.000020055               0.000293675               0.999999996               0.000029710               0.000317408               0.999999996               0.000040750               0.000344474               0.999999996               0.000053184               0.000374044               0.999999996               0.000066591               0.000405501               0.999999996               0.000080703               0.000438059               0.999999996               0.000095402               0.000471580               0.999999996               0.000110567               0.000506122               0.999999996               0.000126069               0.000541631               0.999999996               0.000141838               0.000578124               0.999999996               0.000157853               0.000615236               0.999999996               0.000173899               0.000652559               0.999999996               0.000189786               0.000689640               0.999999996               0.000017455               0.000315391               0.999999996               0.000001204               0.000291122               0.999999996               0.000000372               0.000288661               0.999999996               0.000004908               0.000297876               0.999999996               0.000011884               0.000313869               0.999999996               0.000020545               0.000334640               0.999999996               0.000030471               0.000358990               0.999999996               0.000041434               0.000385974               0.999999996               0.000053342               0.000414887               0.999999996               0.000065896               0.000445130               0.999999996               0.000078813               0.000476251               0.999999996               0.000091974               0.000508103               0.999999996               0.000105240               0.000540726               0.999999996               0.000118685               0.000574129               0.999999996               0.000132481               0.000608341               0.999999996               0.000146666               0.000643101               0.999999996               0.000161229               0.000678077               0.999999996               0.000015698               0.000339211               0.999999996              -0.000001960               0.000318625               0.999999996              -0.000004501               0.000315123               0.999999996              -0.000001252               0.000321870               0.999999996               0.000004604               0.000335190               0.999999996               0.000012128               0.000353303               0.999999996               0.000020911               0.000375001               0.999999996               0.000030453               0.000399388               0.999999996               0.000040782               0.000425829               0.999999996               0.000051611               0.000453841               0.999999996               0.000062837               0.000482806               0.999999996               0.000074149               0.000512426               0.999999996               0.000085274               0.000542567               0.999999996               0.000096276               0.000573309               0.999999996               0.000107328               0.000604651               0.999999996               0.000118730               0.000636750               0.999999996               0.000130450               0.000669421               0.999999996               0.000013717               0.000359890               0.999999996              -0.000003890               0.000344004               0.999999996              -0.000007669               0.000340600               0.999999996              -0.000005810               0.000345814               0.999999996              -0.000001204               0.000357075               0.999999996               0.000005063               0.000372881               0.999999996               0.000012495               0.000392165               0.999999996               0.000020564               0.000414195               0.999999996               0.000029156               0.000438482               0.999999996               0.000038308               0.000464306               0.999999996               0.000047889               0.000491237               0.999999996               0.000057382               0.000518954               0.999999996               0.000066529               0.000547237               0.999999996               0.000075249               0.000575921               0.999999996               0.000083622               0.000605014               0.999999996               0.000091687               0.000634682               0.999999996               0.000099798               0.000664994               0.999999996               0.000011455               0.000377165               0.999999996              -0.000004677               0.000366383               0.999999996              -0.000009082               0.000364077               0.999999996              -0.000008348               0.000368610               0.999999996              -0.000005031               0.000378479               0.999999996              -0.000000137               0.000392515               0.999999996               0.000005748               0.000409960               0.999999996               0.000012193               0.000430061               0.999999996               0.000019029               0.000452322               0.999999996               0.000026391               0.000476300               0.999999996               0.000034058               0.000501642               0.999999996               0.000041800               0.000527831               0.999999996               0.000049196               0.000554647               0.999999996               0.000055937               0.000581875               0.999999996               0.000061788               0.000609483               0.999999996               0.000066786               0.000637454               0.999999996               0.000071080               0.000665882               0.999999996               0.000008887               0.000390918               0.999999996              -0.000004438               0.000384899               0.999999996              -0.000008739               0.000384250               0.999999996              -0.000008742               0.000388890               0.999999996              -0.000006548               0.000397970               0.999999996              -0.000003165               0.000410903               0.999999996               0.000001043               0.000427023               0.999999996               0.000005931               0.000445733               0.999999996               0.000011039               0.000466525               0.999999996               0.000016341               0.000489156               0.999999996               0.000021974               0.000513279               0.999999996               0.000027913               0.000538404               0.999999996               0.000033587               0.000564237               0.999999996               0.000038484               0.000590598               0.999999996               0.000042228               0.000617326               0.999999996               0.000044744               0.000644385               0.999999996               0.000045994               0.000671716               0.999999996               0.000006096               0.000400878               0.999999996              -0.000003410               0.000398850               0.999999996              -0.000006813               0.000399899               0.999999996              -0.000007135               0.000404996               0.999999996              -0.000005922               0.000413879               0.999999996              -0.000003897               0.000426181               0.999999996              -0.000001241               0.000441415               0.999999996               0.000002078               0.000459211               0.999999996               0.000005419               0.000479166               0.999999996               0.000008753               0.000500908               0.999999996               0.000012483               0.000524109               0.999999996               0.000016521               0.000548515               0.999999996               0.000020355               0.000573835               0.999999996               0.000023488               0.000599728               0.999999996               0.000025662               0.000626029               0.999999996               0.000026564               0.000652662               0.999999996               0.000026131               0.000679466               0.999999996               0.000003120               0.000406909               0.999999996              -0.000001854               0.000407510               0.999999996              -0.000003703               0.000409849               0.999999996              -0.000003993               0.000415428               0.999999996              -0.000003490               0.000424378               0.999999996              -0.000002579               0.000436405               0.999999996              -0.000001254               0.000451163               0.999999996               0.000000392               0.000468432               0.999999996               0.000001996               0.000487885               0.999999996               0.000003619               0.000509066               0.999999996               0.000005490               0.000531694               0.999999996               0.000007513               0.000555616               0.999999996               0.000009506               0.000580603               0.999999996               0.000011115               0.000606371               0.999999996               0.000012073               0.000632672               0.999999996               0.000012283               0.000659296               0.999999996               0.000011538               0.000686007               0.999999996              -0.000000000               0.000408997               0.999999996              -0.000000000               0.000410465               0.999999996               0.000000000               0.000413208               0.999999996               0.000000000               0.000419023               0.999999996              -0.000000000               0.000428055               0.999999996              -0.000000000               0.000439963               0.999999996               0.000000000               0.000454608               0.999999996              -0.000000000               0.000471735               0.999999996              -0.000000000               0.000491007               0.999999996              -0.000000000               0.000512048               0.999999996               0.000000000               0.000534495               0.999999996               0.000000000               0.000558208               0.999999996               0.000000000               0.000583040               0.999999996              -0.000000000               0.000608815               0.999999996              -0.000000000               0.000635256               0.999999996               0.000000000               0.000662036               0.999999996               0.000000000               0.000688833               0.999999996 </DataArray>
<DataArray type="Float64"                                    Name="stress"                                                      NumberOfComponents="10" format="ascii">
              0.000658001               0.007647286              -0.000000000              -0.000709159               0.002785456               0.002076298               0.000000000               0.000000000               0.000000000               0.000000000               0.000714580               0.006303851              -0.000000000              -0.000520013               0.002274600               0.001754587               0.000000000               0.000000000               0.000000000               0.000000000               0.000991443               0.005226465               0.000000000              -0.000281516               0.001835976               0.001554460               0.000000000               0.000000000               0.000000000               0.000000000               0.001031108               0.004636631               0.000000000              -0.000192913               0.001609833               0.001416920               0.000000000               0.000000000               0.000000000               0.000000000               0.000986061               0.004294270              -0.000000000              -0.000167010               0.001487079               0.001320069               0.000000000               0.000000000               0.000000000               0.000000000               0.000906783               0.004082279              -0.000000000              -0.000170241               0.001417493               0.001247252               0.000000000               0.000000000               0.000000000               0.000000000               0.000813443               0.003947257               0.000000000              -0.000188366               0.001378528               0.001190162               0.000000000               0.000000000               0.000000000               0.000000000               0.000720541               0.003858846               0.000000000              -0.000212152               0.001356986               0.001144834               0.000000000               0.000000000               0.000000000               0.000000000               0.000630264               0.003797511              -0.000000000              -0.000238339               0.001345271               0.001106931               0.000000000               0.000000000               0.000000000               0.000000000               0.000538079               0.003756121              -0.000000000              -0.000267735               0.001341273               0.001073538               0.000000000               0.000000000               0.000000000               0.000000000               0.000443764               0.003726934               0.000000000              -0.000299455               0.001342117               0.001042663               0.000000000               0.000000000               0.000000000               0.000000000               0.000356341               0.003708380               0.000000000              -0.000329919               0.001346087               0.001016168               0.000000000               0.000000000               0.000000000               0.000000000               0.000275550               0.003695511              -0.000000000              -0.000358607               0.001351360               0.000992754               0.000000000               0.000000000               0.000000000               0.000000000               0.000195620               0.003683556              -0.000000000              -0.000387086               0.001356869               0.000969782               0.000000000               0.000000000               0.000000000               0.000000000               0.000123317               0.003671007              -0.000000000              -0.000412631               0.001361200               0.000948569               0.000000000               0.000000000               0.000000000               0.000000000               0.000059500               0.003653144               0.000000000              -0.000434329               0.001362479               0.000928150               0.000000000               0.000000000               0.000000000               0.000000000               0.000027859               0.003638403               0.000000000              -0.000444352               0.001360906               0.000916554               0.000000000               0.000000000               0.000000000               0.000000000               0.000697147               0.007513007              -0.000565733              -0.000677694               0.002730209               0.002052514               0.000000000               0.000000000               0.000000000               0.000000000               0.000725190               0.006210397              -0.000352820              -0.000504352               0.002238229               0.001733877               0.000000000               0.000000000               0.000000000               0.000000000               0.000969416               0.005177868              -0.000134635              -0.000283702               0.001820506               0.001536804               0.000000000               0.000000000               0.000000000               0.000000000               0.000992127               0.004612031              -0.000034429              -0.000204456               0.001605480               0.001401024               0.000000000               0.000000000               0.000000000               0.000000000               0.000940598               0.004281271               0.000011631              -0.000182434               0.001487887               0.001305453               0.000000000               0.000000000               0.000000000               0.000000000               0.000863521               0.004075708               0.000032150              -0.000185643               0.001420437               0.001234794               0.000000000               0.000000000               0.000000000               0.000000000               0.000774326               0.003941911               0.000041904              -0.000202366               0.001381413               0.001179046               0.000000000               0.000000000               0.000000000               0.000000000               0.000683405               0.003852580               0.000044218              -0.000225295               0.001359279               0.001133984               0.000000000               0.000000000               0.000000000               0.000000000               0.000595920               0.003791325               0.000044500              -0.000250445               0.001347244               0.001096799               0.000000000               0.000000000               0.000000000               0.000000000               0.000506800               0.003748988               0.000044923              -0.000278573               0.001342508               0.001063935               0.000000000               0.000000000               0.000000000               0.000000000               0.000417194               0.003720847               0.000044136              -0.000308657               0.001343156               0.001034498               0.000000000               0.000000000               0.000000000               0.000000000               0.000333586               0.003703175               0.000042380              -0.000337801               0.001346980               0.001009178               0.000000000               0.000000000               0.000000000               0.000000000               0.000255092               0.003691378               0.000038929              -0.000365762               0.001352368               0.000986606               0.000000000               0.000000000               0.000000000               0.000000000               0.000180545               0.003680996               0.000034645              -0.000392419               0.001357793               0.000965374               0.000000000               0.000000000               0.000000000               0.000000000               0.000114304               0.003672031               0.000028272              -0.000416139               0.001362711               0.000946572               0.000000000               0.000000000               0.000000000               0.000000000               0.000054624               0.003660000               0.000017249              -0.000437015               0.001365659               0.000928644               0.000000000               0.000000000               0.000000000               0.000000000               0.000026218               0.003652268               0.000010231              -0.000446700               0.001366311               0.000919610               0.000000000               0.000000000               0.000000000               0.000000000               0.000800347               0.007124767              -0.001068653              -0.000590465               0.002571720               0.001981255               0.000000000               0.000000000               0.000000000               0.000000000               0.000747750               0.005942281              -0.000670469              -0.000462378               0.002134867               0.001672489               0.000000000               0.000000000               0.000000000               0.000000000               0.000904711               0.005037839              -0.000264221              -0.000290463               0.001776084               0.001485621               0.000000000               0.000000000               0.000000000               0.000000000               0.000891165               0.004541370              -0.000080648              -0.000233484               0.001591603               0.001358119               0.000000000               0.000000000               0.000000000               0.000000000               0.000825492               0.004243296               0.000004090              -0.000220852               0.001488035               0.001267183               0.000000000               0.000000000               0.000000000               0.000000000               0.000747597               0.004052566               0.000042780              -0.000226221               0.001426249               0.001200028               0.000000000               0.000000000               0.000000000               0.000000000               0.000665721               0.003925789               0.000061539              -0.000241078               0.001388943               0.001147865               0.000000000               0.000000000               0.000000000               0.000000000               0.000584695               0.003840984               0.000066648              -0.000260862               0.001367269               0.001106407               0.000000000               0.000000000               0.000000000               0.000000000               0.000507638               0.003782261               0.000066713              -0.000282418               0.001354880               0.001072463               0.000000000               0.000000000               0.000000000               0.000000000               0.000430576               0.003742335               0.000067808              -0.000306325               0.001349541               0.001043216               0.000000000               0.000000000               0.000000000               0.000000000               0.000353457               0.003717069               0.000067248              -0.000332086               0.001349706               0.001017620               0.000000000               0.000000000               0.000000000               0.000000000               0.000280619               0.003701777               0.000064221              -0.000357489               0.001353076               0.000995587               0.000000000               0.000000000               0.000000000               0.000000000               0.000213214               0.003692608               0.000058118              -0.000381620               0.001358063               0.000976444               0.000000000               0.000000000               0.000000000               0.000000000               0.000152008               0.003687093               0.000050958              -0.000403883               0.001363646               0.000959764               0.000000000               0.000000000               0.000000000               0.000000000               0.000097753               0.003686136               0.000041127              -0.000424109               0.001370069               0.000945961               0.000000000               0.000000000               0.000000000               0.000000000               0.000047075               0.003690293               0.000024767              -0.000443632               0.001377963               0.000934330               0.000000000               0.000000000               0.000000000               0.000000000               0.000025249               0.003699369               0.000013734              -0.000452952               0.001384095               0.000931143               0.000000000               0.000000000               0.000000000               0.000000000               0.000942954               0.006534453              -0.001464454              -0.000463199               0.002332528               0.001869330               0.000000000               0.000000000               0.000000000               0.000000000               0.000772909               0.005539221              -0.000926400              -0.000402561               0.001980575               0.001578014               0.000000000               0.000000000               0.000000000               0.000000000               0.000805739               0.004828927              -0.000381335              -0.000301463               0.001710114               0.001408651               0.000000000               0.000000000               0.000000000               0.000000000               0.000747487               0.004427121              -0.000142959              -0.000273082               0.001566719               0.001293638               0.000000000               0.000000000               0.000000000               0.000000000               0.000670220               0.004176600              -0.000034070              -0.000270742               0.001482433               0.001211691               0.000000000               0.000000000               0.000000000               0.000000000               0.000599194               0.004013219               0.000016758              -0.000276954               0.001430044               0.001153090               0.000000000               0.000000000               0.000000000               0.000000000               0.000529549               0.003903531               0.000042458              -0.000289360               0.001397617               0.001108257               0.000000000               0.000000000               0.000000000               0.000000000               0.000459729               0.003828257               0.000050682              -0.000306133               0.001378117               0.001071984               0.000000000               0.000000000               0.000000000               0.000000000               0.000396940               0.003777306               0.000051921              -0.000323310               0.001366859               0.001043549               0.000000000               0.000000000               0.000000000               0.000000000               0.000336773               0.003742595               0.000055236              -0.000341534               0.001361364               0.001019830               0.000000000               0.000000000               0.000000000               0.000000000               0.000277735               0.003720712               0.000056711              -0.000360937               0.001360537               0.000999600               0.000000000               0.000000000               0.000000000               0.000000000               0.000222914               0.003709285               0.000054145              -0.000380067               0.001363105               0.000983038               0.000000000               0.000000000               0.000000000               0.000000000               0.000172189               0.003705083               0.000047749              -0.000398564               0.001367870               0.000969306               0.000000000               0.000000000               0.000000000               0.000000000               0.000126015               0.003708278               0.000039460              -0.000416278               0.001374840               0.000958562               0.000000000               0.000000000               0.000000000               0.000000000               0.000083285               0.003719546               0.000030172              -0.000433710               0.001384406               0.000950696               0.000000000               0.000000000               0.000000000               0.000000000               0.000040801               0.003744142               0.000016960              -0.000452716               0.001398940               0.000946224               0.000000000               0.000000000               0.000000000               0.000000000               0.000026437               0.003773826               0.000005219              -0.000461813               0.001411867               0.000950054               0.000000000               0.000000000               0.000000000               0.000000000               0.001089356               0.005812735              -0.001720708              -0.000318084               0.002043587               0.001725503               0.000000000               0.000000000               0.000000000               0.000000000               0.000789774               0.005051824              -0.001104101              -0.000335313               0.001795695               0.001460382               0.000000000               0.000000000               0.000000000               0.000000000               0.000683803               0.004575876              -0.000485846              -0.000315558               0.001630463               0.001314905               0.000000000               0.000000000               0.000000000               0.000000000               0.000588183               0.004281302              -0.000222912              -0.000314594               0.001531951               0.001217357               0.000000000               0.000000000               0.000000000               0.000000000               0.000510775               0.004086934              -0.000101483              -0.000319325               0.001468740               0.001149414               0.000000000               0.000000000               0.000000000               0.000000000               0.000448543               0.003956951              -0.000043967              -0.000326414               0.001427775               0.001101361               0.000000000               0.000000000               0.000000000               0.000000000               0.000394588               0.003867377              -0.000012667              -0.000335451               0.001400930               0.001065479               0.000000000               0.000000000               0.000000000               0.000000000               0.000342874               0.003805581               0.000002976              -0.000347119               0.001384221               0.001037102               0.000000000               0.000000000               0.000000000               0.000000000               0.000295702               0.003767460               0.000007743              -0.000360043               0.001375822               0.001015779               0.000000000               0.000000000               0.000000000               0.000000000               0.000251742               0.003740398               0.000012828              -0.000373146               0.001371169               0.000998023               0.000000000               0.000000000               0.000000000               0.000000000               0.000212125               0.003723679               0.000017701              -0.000385912               0.001369851               0.000983939               0.000000000               0.000000000               0.000000000               0.000000000               0.000177186               0.003716950               0.000017448              -0.000398173               0.001371695               0.000973522               0.000000000               0.000000000               0.000000000               0.000000000               0.000144393               0.003719654               0.000012226              -0.000410808               0.001376809               0.000966000               0.000000000               0.000000000               0.000000000               0.000000000               0.000110039               0.003731656               0.000004053              -0.000425191               0.001385603               0.000960412               0.000000000               0.000000000               0.000000000               0.000000000               0.000074829               0.003753054              -0.000002640              -0.000441070               0.001398029               0.000956959               0.000000000               0.000000000               0.000000000               0.000000000               0.000038228               0.003786940              -0.000004263              -0.000459031               0.001415311               0.000956280               0.000000000               0.000000000               0.000000000               0.000000000               0.000027818               0.003821985              -0.000008411              -0.000467315               0.001429754               0.000962439               0.000000000               0.000000000               0.000000000               0.000000000               0.001196109               0.005019699              -0.001837245              -0.000178923               0.001732857               0.001553934               0.000000000               0.000000000               0.000000000               0.000000000               0.000787623               0.004525952              -0.001210832              -0.000270386               0.001598764               0.001328378               0.000000000               0.000000000               0.000000000               0.000000000               0.000561448               0.004299744              -0.000583002              -0.000326924               0.001542208               0.001215284               0.000000000               0.000000000               0.000000000               0.000000000               0.000443647               0.004115650              -0.000318729              -0.000348088               0.001487899               0.001139811               0.000000000               0.000000000               0.000000000               0.000000000               0.000374630               0.003977275              -0.000191299              -0.000356672               0.001444636               0.001087964               0.000000000               0.000000000               0.000000000               0.000000000               0.000327684               0.003880789              -0.000125890              -0.000362216               0.001414322               0.001052106               0.000000000               0.000000000               0.000000000               0.000000000               0.000290174               0.003810848              -0.000085654              -0.000367540               0.001392783               0.001025243               0.000000000               0.000000000               0.000000000               0.000000000               0.000254764               0.003766540              -0.000060674              -0.000375280               0.001380594               0.001005314               0.000000000               0.000000000               0.000000000               0.000000000               0.000221535               0.003742528              -0.000052475              -0.000384740               0.001375744               0.000991004               0.000000000               0.000000000               0.000000000               0.000000000               0.000192311               0.003727439              -0.000048738              -0.000393812               0.001373738               0.000979926               0.000000000               0.000000000               0.000000000               0.000000000               0.000169521               0.003717543              -0.000043339              -0.000401121               0.001372876               0.000971754               0.000000000               0.000000000               0.000000000               0.000000000               0.000148220               0.003713577              -0.000041015              -0.000408613               0.001374051               0.000965438               0.000000000               0.000000000               0.000000000               0.000000000               0.000123692               0.003716658              -0.000041658              -0.000418197               0.001378273               0.000960076               0.000000000               0.000000000               0.000000000               0.000000000               0.000093610               0.003727107              -0.000043671              -0.000430783               0.001385951               0.000955168               0.000000000               0.000000000               0.000000000               0.000000000               0.000061474               0.003743170              -0.000040667              -0.000444843               0.001395992               0.000951149               0.000000000               0.000000000               0.000000000               0.000000000               0.000031310               0.003761919              -0.000026296              -0.000458497               0.001406793               0.000948296               0.000000000               0.000000000               0.000000000               0.000000000               0.000019449               0.003774870              -0.000017775              -0.000464564               0.001413132               0.000948568               0.000000000               0.000000000               0.000000000               0.000000000               0.001246156               0.004217696              -0.001830743              -0.000059906               0.001425852               0.001365947               0.000000000               0.000000000               0.000000000               0.000000000               0.000766557               0.004004523              -0.001257581              -0.000213107               0.001405863               0.001192756               0.000000000               0.000000000               0.000000000               0.000000000               0.000452921               0.004021825              -0.000672854              -0.000332882               0.001451556               0.001118673               0.000000000               0.000000000               0.000000000               0.000000000               0.000332321               0.003935907              -0.000419770              -0.000367367               0.001434412               0.001067045               0.000000000               0.000000000               0.000000000               0.000000000               0.000277282               0.003850323              -0.000285713              -0.000377309               0.001409198               0.001031889               0.000000000               0.000000000               0.000000000               0.000000000               0.000247520               0.003787167              -0.000210821              -0.000380575               0.001389235               0.001008660               0.000000000               0.000000000               0.000000000               0.000000000               0.000224339               0.003743447              -0.000164408              -0.000383803               0.001375738               0.000991935               0.000000000               0.000000000               0.000000000               0.000000000               0.000200486               0.003720723              -0.000133036              -0.000389907               0.001370198               0.000980291               0.000000000               0.000000000               0.000000000               0.000000000               0.000179667               0.003710037              -0.000120796              -0.000396379               0.001368793               0.000972414               0.000000000               0.000000000               0.000000000               0.000000000               0.000159192               0.003700470              -0.000116381              -0.000402861               0.001367764               0.000964904               0.000000000               0.000000000               0.000000000               0.000000000               0.000139572               0.003688824              -0.000107139              -0.000408762               0.001365850               0.000957087               0.000000000               0.000000000               0.000000000               0.000000000               0.000120071               0.003681062              -0.000095935              -0.000415105               0.001365377               0.000950272               0.000000000               0.000000000               0.000000000               0.000000000               0.000095261               0.003677799              -0.000084049              -0.000424001               0.001367254               0.000943253               0.000000000               0.000000000               0.000000000               0.000000000               0.000066110               0.003677811              -0.000070127              -0.000434934               0.001370903               0.000935969               0.000000000               0.000000000               0.000000000               0.000000000               0.000037172               0.003678876              -0.000051414              -0.000445919               0.001374920               0.000929001               0.000000000               0.000000000               0.000000000               0.000000000               0.000014972               0.003672593              -0.000026220              -0.000453458               0.001375338               0.000921880               0.000000000               0.000000000               0.000000000               0.000000000               0.000001460               0.003659018              -0.000009979              -0.000456829               0.001371937               0.000915108               0.000000000               0.000000000               0.000000000               0.000000000               0.001245780               0.003465409              -0.001722808               0.000033989               0.001143795               0.001177784               0.000000000               0.000000000               0.000000000               0.000000000               0.000733956               0.003520145              -0.001254138              -0.000164786               0.001228298               0.001063512               0.000000000               0.000000000               0.000000000               0.000000000               0.000370577               0.003747710              -0.000754172              -0.000329497               0.001359056               0.001029559               0.000000000               0.000000000               0.000000000               0.000000000               0.000263110               0.003749512              -0.000514541              -0.000370022               0.001373165               0.001003143               0.000000000               0.000000000               0.000000000               0.000000000               0.000225112               0.003716163              -0.000373128              -0.000380102               0.001365409               0.000985307               0.000000000               0.000000000               0.000000000               0.000000000               0.000207947               0.003688136              -0.000289059              -0.000383036               0.001357045               0.000974009               0.000000000               0.000000000               0.000000000               0.000000000               0.000195329               0.003678598              -0.000238375              -0.000386576               0.001355046               0.000968470               0.000000000               0.000000000               0.000000000               0.000000000               0.000177826               0.003674741              -0.000201329              -0.000392657               0.001355787               0.000963130               0.000000000               0.000000000               0.000000000               0.000000000               0.000158456               0.003666197              -0.000179833              -0.000398853               0.001355004               0.000956152               0.000000000               0.000000000               0.000000000               0.000000000               0.000137532               0.003652128              -0.000167161              -0.000404941               0.001352344               0.000947404               0.000000000               0.000000000               0.000000000               0.000000000               0.000112128               0.003636242              -0.000147772              -0.000412481               0.001349562               0.000937081               0.000000000               0.000000000               0.000000000               0.000000000               0.000082844               0.003620218              -0.000121079              -0.000421460               0.001347214               0.000925754               0.000000000               0.000000000               0.000000000               0.000000000               0.000051664               0.003604609              -0.000091082              -0.000431201               0.001345258               0.000914057               0.000000000               0.000000000               0.000000000               0.000000000               0.000022211               0.003589582              -0.000060082              -0.000440368               0.001343305               0.000902937               0.000000000               0.000000000               0.000000000               0.000000000              -0.000001394               0.003570713              -0.000031237              -0.000446861               0.001339179               0.000892319               0.000000000               0.000000000               0.000000000               0.000000000              -0.000010071               0.003543221              -0.000008765              -0.000446678               0.001329955               0.000883276               0.000000000               0.000000000               0.000000000               0.000000000              -0.000014391               0.003517169               0.000003398              -0.000445042               0.001320725               0.000875683               0.000000000               0.000000000               0.000000000               0.000000000               0.001216041               0.002819233              -0.001550167               0.000103608               0.000905198               0.001008807               0.000000000               0.000000000               0.000000000               0.000000000               0.000712912               0.003088788              -0.001226584              -0.000118758               0.001069171               0.000950413               0.000000000               0.000000000               0.000000000               0.000000000               0.000333057               0.003490964              -0.000840641              -0.000311474               0.001267468               0.000955994               0.000000000               0.000000000               0.000000000               0.000000000               0.000240978               0.003580119              -0.000610883              -0.000357148               0.001312410               0.000955263               0.000000000               0.000000000               0.000000000               0.000000000               0.000213429               0.003598377              -0.000463500              -0.000369760               0.001322701               0.000952940               0.000000000               0.000000000               0.000000000               0.000000000               0.000204231               0.003609962              -0.000368257              -0.000374658               0.001328195               0.000953537               0.000000000               0.000000000               0.000000000               0.000000000               0.000195985               0.003628209              -0.000308382              -0.000380031               0.001336068               0.000956037               0.000000000               0.000000000               0.000000000               0.000000000               0.000179037               0.003636933              -0.000264403              -0.000387477               0.001341458               0.000953981               0.000000000               0.000000000               0.000000000               0.000000000               0.000158272               0.003626062              -0.000230459              -0.000393905               0.001339977               0.000946072               0.000000000               0.000000000               0.000000000               0.000000000               0.000133782               0.003605473              -0.000203743              -0.000400515               0.001335317               0.000934802               0.000000000               0.000000000               0.000000000               0.000000000               0.000104036               0.003585810              -0.000173569              -0.000409212               0.001331662               0.000922450               0.000000000               0.000000000               0.000000000               0.000000000               0.000067697               0.003563174              -0.000136027              -0.000420009               0.001327716               0.000907706               0.000000000               0.000000000               0.000000000               0.000000000               0.000026487               0.003538575              -0.000093832              -0.000432388               0.001323643               0.000891255               0.000000000               0.000000000               0.000000000               0.000000000              -0.000015087               0.003510020              -0.000054291              -0.000444409               0.001318131               0.000873722               0.000000000               0.000000000               0.000000000               0.000000000              -0.000049009               0.003472362              -0.000023268              -0.000452423               0.001308250               0.000855827               0.000000000               0.000000000               0.000000000               0.000000000              -0.000066089               0.003424705              -0.000003271              -0.000452870               0.001292514               0.000839643               0.000000000               0.000000000               0.000000000               0.000000000              -0.000069039               0.003393008               0.000004667              -0.000450015               0.001280996               0.000830982               0.000000000               0.000000000               0.000000000               0.000000000               0.001142747               0.002197817              -0.001347779               0.000153800               0.000681331               0.000835131               0.000000000               0.000000000               0.000000000               0.000000000               0.000716466               0.002588768              -0.001187280              -0.000054923               0.000881221               0.000826299               0.000000000               0.000000000               0.000000000               0.000000000               0.000348959               0.003119028              -0.000940973              -0.000259019               0.001126005               0.000866986               0.000000000               0.000000000               0.000000000               0.000000000               0.000256584               0.003309535              -0.000729278              -0.000317473               0.001208991               0.000891519               0.000000000               0.000000000               0.000000000               0.000000000               0.000233918               0.003398785              -0.000577402              -0.000337128               0.001245293               0.000908165               0.000000000               0.000000000               0.000000000               0.000000000               0.000231339               0.003467275              -0.000471348              -0.000346657               0.001271299               0.000924642               0.000000000               0.000000000               0.000000000               0.000000000               0.000229607               0.003519295              -0.000395247              -0.000353809               0.001291023               0.000937214               0.000000000               0.000000000               0.000000000               0.000000000               0.000211431               0.003546670              -0.000336953              -0.000364046               0.001303560               0.000939514               0.000000000               0.000000000               0.000000000               0.000000000               0.000185580               0.003550656              -0.000290596              -0.000374239               0.001308286               0.000934048               0.000000000               0.000000000               0.000000000               0.000000000               0.000155461               0.003536579              -0.000250829              -0.000383774               0.001306772               0.000922999               0.000000000               0.000000000               0.000000000               0.000000000               0.000120558               0.003510545              -0.000211512              -0.000393608               0.001301373               0.000907765               0.000000000               0.000000000               0.000000000               0.000000000               0.000078902               0.003480932              -0.000166718              -0.000405527               0.001295475               0.000889947               0.000000000               0.000000000               0.000000000               0.000000000               0.000029209               0.003452022              -0.000118058              -0.000420548               0.001290845               0.000870297               0.000000000               0.000000000               0.000000000               0.000000000              -0.000025176               0.003424604              -0.000073278              -0.000437516               0.001287362               0.000849846               0.000000000               0.000000000               0.000000000               0.000000000              -0.000078974               0.003394565              -0.000037267              -0.000453935               0.001282822               0.000828887               0.000000000               0.000000000               0.000000000               0.000000000              -0.000124825               0.003356716              -0.000012657              -0.000466398               0.001274360               0.000807962               0.000000000               0.000000000               0.000000000               0.000000000              -0.000149426               0.003329043              -0.000000583              -0.000472164               0.001267058               0.000794894               0.000000000               0.000000000               0.000000000               0.000000000               0.000992425               0.001612790              -0.001118304               0.000170558               0.000480738               0.000651296               0.000000000               0.000000000               0.000000000               0.000000000               0.000713814               0.002088772              -0.001113495               0.000006582               0.000694056               0.000700638               0.000000000               0.000000000               0.000000000               0.000000000               0.000410382               0.002705682              -0.001014642              -0.000184318               0.000963324               0.000779006               0.000000000               0.000000000               0.000000000               0.000000000               0.000314414               0.002994333              -0.000843856              -0.000256387               0.001083563               0.000827176               0.000000000               0.000000000               0.000000000               0.000000000               0.000288348               0.003164497              -0.000697325              -0.000287432               0.001150632               0.000863201               0.000000000               0.000000000               0.000000000               0.000000000               0.000281665               0.003287309              -0.000584636              -0.000305289               0.001197521               0.000892233               0.000000000               0.000000000               0.000000000               0.000000000               0.000276191               0.003373397              -0.000493789              -0.000318102               0.001230489               0.000912386               0.000000000               0.000000000               0.000000000               0.000000000               0.000259412               0.003430920              -0.000420318              -0.000331585               0.001254157               0.000922572               0.000000000               0.000000000               0.000000000               0.000000000               0.000231398               0.003466138              -0.000362235              -0.000346492               0.001270865               0.000924373               0.000000000               0.000000000               0.000000000               0.000000000               0.000198641               0.003472734              -0.000313831              -0.000359600               0.001277433               0.000917833               0.000000000               0.000000000               0.000000000               0.000000000               0.000164694               0.003457291              -0.000269406              -0.000370400               0.001275886               0.000905485               0.000000000               0.000000000               0.000000000               0.000000000               0.000125133               0.003432588              -0.000219680              -0.000382148               0.001271567               0.000889419               0.000000000               0.000000000               0.000000000               0.000000000               0.000076949               0.003406182              -0.000166487              -0.000396916               0.001267688               0.000870772               0.000000000               0.000000000               0.000000000               0.000000000               0.000017730               0.003379803              -0.000115155              -0.000415826               0.001265198               0.000849373               0.000000000               0.000000000               0.000000000               0.000000000              -0.000051389               0.003357603              -0.000069282              -0.000438970               0.001265513               0.000826543               0.000000000               0.000000000               0.000000000               0.000000000              -0.000128188               0.003336624              -0.000030122              -0.000465147               0.001267246               0.000802099               0.000000000               0.000000000               0.000000000               0.000000000              -0.000183604               0.003311832              -0.000005462              -0.000482829               0.001264876               0.000782047               0.000000000               0.000000000               0.000000000               0.000000000               0.000772865               0.001104446              -0.000866110               0.000151766               0.000317556               0.000469322               0.000000000               0.000000000               0.000000000               0.000000000               0.000671660               0.001613771              -0.000989382               0.000050149               0.000521201               0.000571351               0.000000000               0.000000000               0.000000000               0.000000000               0.000485423               0.002257049              -0.001021907              -0.000100098               0.000785708               0.000685610               0.000000000               0.000000000               0.000000000               0.000000000               0.000410786               0.002624313              -0.000907561              -0.000173995               0.000932760               0.000758765               0.000000000               0.000000000               0.000000000               0.000000000               0.000380513               0.002865828              -0.000781125              -0.000215536               0.001027112               0.000811576               0.000000000               0.000000000               0.000000000               0.000000000               0.000363165               0.003040928              -0.000670715              -0.000243929               0.001094942               0.000851013               0.000000000               0.000000000               0.000000000               0.000000000               0.000345342               0.003171532              -0.000574397              -0.000266938               0.001146146               0.000879208               0.000000000               0.000000000               0.000000000               0.000000000               0.000324270               0.003273109              -0.000491424              -0.000287537               0.001186871               0.000899334               0.000000000               0.000000000               0.000000000               0.000000000               0.000291958               0.003340842              -0.000425662              -0.000308120               0.001216310               0.000908189               0.000000000               0.000000000               0.000000000               0.000000000               0.000255522               0.003374350              -0.000374266              -0.000325972               0.001233429               0.000907457               0.000000000               0.000000000               0.000000000               0.000000000               0.000218987               0.003386614              -0.000325731              -0.000341206               0.001242595               0.000901389               0.000000000               0.000000000               0.000000000               0.000000000               0.000183094               0.003384154              -0.000272466              -0.000354358               0.001246160               0.000891801               0.000000000               0.000000000               0.000000000               0.000000000               0.000142996               0.003371401              -0.000216694              -0.000367801               0.001246389               0.000878589               0.000000000               0.000000000               0.000000000               0.000000000               0.000090557               0.003351411              -0.000159902              -0.000384967               0.001245448               0.000860481               0.000000000               0.000000000               0.000000000               0.000000000               0.000021970               0.003335436              -0.000102547              -0.000408690               0.001248031               0.000839341               0.000000000               0.000000000               0.000000000               0.000000000              -0.000065021               0.003323066              -0.000047880              -0.000439765               0.001254266               0.000814501               0.000000000               0.000000000               0.000000000               0.000000000              -0.000134490               0.003302103              -0.000014374              -0.000463196               0.001255089               0.000791893               0.000000000               0.000000000               0.000000000               0.000000000               0.000507800               0.000702130              -0.000619415               0.000102657               0.000199821               0.000302479               0.000000000               0.000000000               0.000000000               0.000000000               0.000601410               0.001189529              -0.000824233               0.000076836               0.000370893               0.000447729               0.000000000               0.000000000               0.000000000               0.000000000               0.000560698               0.001806248              -0.000953885              -0.000015521               0.000607250               0.000591729               0.000000000               0.000000000               0.000000000               0.000000000               0.000529149               0.002220999              -0.000898249              -0.000079195               0.000766724               0.000687529               0.000000000               0.000000000               0.000000000               0.000000000               0.000502228               0.002519122              -0.000800166              -0.000126555               0.000881884               0.000755329               0.000000000               0.000000000               0.000000000               0.000000000               0.000472306               0.002748773              -0.000701698              -0.000166482               0.000971742               0.000805260               0.000000000               0.000000000               0.000000000               0.000000000               0.000440902               0.002928399              -0.000611528              -0.000200712               0.001043027               0.000842315               0.000000000               0.000000000               0.000000000               0.000000000               0.000413014               0.003068546              -0.000531309              -0.000228688               0.001099068               0.000870380               0.000000000               0.000000000               0.000000000               0.000000000               0.000377592               0.003173920              -0.000464737              -0.000255142               0.001143010               0.000887868               0.000000000               0.000000000               0.000000000               0.000000000               0.000334165               0.003252091              -0.000412361              -0.000281199               0.001177753               0.000896554               0.000000000               0.000000000               0.000000000               0.000000000               0.000289970               0.003300690              -0.000366403              -0.000303847               0.001201501               0.000897654               0.000000000               0.000000000               0.000000000               0.000000000               0.000253981               0.003324738              -0.000318460              -0.000320349               0.001215018               0.000894669               0.000000000               0.000000000               0.000000000               0.000000000               0.000220620               0.003333826              -0.000262838              -0.000333995               0.001222596               0.000888601               0.000000000               0.000000000               0.000000000               0.000000000               0.000178862               0.003332456              -0.000199832              -0.000349483               0.001227302               0.000877819               0.000000000               0.000000000               0.000000000               0.000000000               0.000121688               0.003327133              -0.000132278              -0.000370258               0.001232452               0.000862195               0.000000000               0.000000000               0.000000000               0.000000000               0.000047013               0.003320633              -0.000065284              -0.000397448               0.001239350               0.000841901               0.000000000               0.000000000               0.000000000               0.000000000              -0.000016420               0.003304815              -0.000025576              -0.000419258               0.001241347               0.000822089               0.000000000               0.000000000               0.000000000               0.000000000               0.000232244               0.000406696              -0.000404995               0.000036254               0.000123479               0.000159733               0.000000000               0.000000000               0.000000000               0.000000000               0.000516351               0.000838875              -0.000633586               0.000088771               0.000250031               0.000338802               0.000000000               0.000000000               0.000000000               0.000000000               0.000632091               0.001394615              -0.000807609               0.000062706               0.000443965               0.000506670               0.000000000               0.000000000               0.000000000               0.000000000               0.000649375               0.001822275              -0.000798277               0.000015730               0.000602175               0.000617905               0.000000000               0.000000000               0.000000000               0.000000000               0.000632010               0.002159656              -0.000730153              -0.000032954               0.000730863               0.000697909               0.000000000               0.000000000               0.000000000               0.000000000               0.000597021               0.002435071              -0.000650576              -0.000080501               0.000838516               0.000758015               0.000000000               0.000000000               0.000000000               0.000000000               0.000557649               0.002656972              -0.000578372              -0.000123003               0.000926649               0.000803646               0.000000000               0.000000000               0.000000000               0.000000000               0.000525193               0.002837413              -0.000512203              -0.000157729               0.000998371               0.000840642               0.000000000               0.000000000               0.000000000               0.000000000               0.000487513               0.002985800              -0.000450912              -0.000190408               0.001058726               0.000868318               0.000000000               0.000000000               0.000000000               0.000000000               0.000440333               0.003106089              -0.000402949              -0.000223136               0.001109731               0.000886595               0.000000000               0.000000000               0.000000000               0.000000000               0.000393887               0.003190975              -0.000367130              -0.000251164               0.001147369               0.000896205               0.000000000               0.000000000               0.000000000               0.000000000               0.000353581               0.003245636              -0.000329516              -0.000273111               0.001172905               0.000899794               0.000000000               0.000000000               0.000000000               0.000000000               0.000318326               0.003281014              -0.000278728              -0.000290754               0.001190579               0.000899825               0.000000000               0.000000000               0.000000000               0.000000000               0.000282854               0.003300933              -0.000215649              -0.000306546               0.001202482               0.000895936               0.000000000               0.000000000               0.000000000               0.000000000               0.000245564               0.003312667              -0.000145882              -0.000321996               0.001211543               0.000889547               0.000000000               0.000000000               0.000000000               0.000000000               0.000200423               0.003317903              -0.000074023              -0.000339578               0.001219149               0.000879571               0.000000000               0.000000000               0.000000000               0.000000000               0.000162607               0.003311079              -0.000034026              -0.000352906               0.001221317               0.000868411               0.000000000               0.000000000               0.000000000               0.000000000              -0.000009325               0.000216151              -0.000232019              -0.000030516               0.000082222               0.000051705               0.000000000               0.000000000               0.000000000               0.000000000               0.000432120               0.000579212              -0.000427724               0.000089642               0.000163188               0.000252830               0.000000000               0.000000000               0.000000000               0.000000000               0.000688426               0.001059145              -0.000588649               0.000125765               0.000311123               0.000436888               0.000000000               0.000000000               0.000000000               0.000000000               0.000753058               0.001480002              -0.000601549               0.000097395               0.000460864               0.000558259               0.000000000               0.000000000               0.000000000               0.000000000               0.000749123               0.001837726              -0.000561292               0.000051205               0.000595501               0.000646705               0.000000000               0.000000000               0.000000000               0.000000000               0.000720020               0.002140903              -0.000507614               0.000002394               0.000712829               0.000715223               0.000000000               0.000000000               0.000000000               0.000000000               0.000682708               0.002398250              -0.000459652              -0.000043766               0.000813997               0.000770231               0.000000000               0.000000000               0.000000000               0.000000000               0.000642928               0.002617607              -0.000411020              -0.000086103               0.000901228               0.000815125               0.000000000               0.000000000               0.000000000               0.000000000               0.000601103               0.002799523              -0.000361404              -0.000124527               0.000974674               0.000850147               0.000000000               0.000000000               0.000000000               0.000000000               0.000556660               0.002945889              -0.000326044              -0.000159488               0.001035116               0.000875628               0.000000000               0.000000000               0.000000000               0.000000000               0.000511479               0.003061727              -0.000302505              -0.000190911               0.001084202               0.000893292               0.000000000               0.000000000               0.000000000               0.000000000               0.000466833               0.003150788              -0.000274971              -0.000218786               0.001123181               0.000904395               0.000000000               0.000000000               0.000000000               0.000000000               0.000428185               0.003212786              -0.000234926              -0.000241028               0.001151261               0.000910232               0.000000000               0.000000000               0.000000000               0.000000000               0.000398894               0.003253312              -0.000184684              -0.000257078               0.001170119               0.000913041               0.000000000               0.000000000               0.000000000               0.000000000               0.000382133               0.003284466              -0.000127515              -0.000267258               0.001183897               0.000916639               0.000000000               0.000000000               0.000000000               0.000000000               0.000374185               0.003304920              -0.000065480              -0.000272795               0.001192561               0.000919766               0.000000000               0.000000000               0.000000000               0.000000000               0.000370071               0.003309438              -0.000032702              -0.000274903               0.001194769               0.000919867               0.000000000               0.000000000               0.000000000               0.000000000              -0.000179335               0.000112023              -0.000103207              -0.000081254               0.000064425              -0.000016829               0.000000000               0.000000000               0.000000000               0.000000000               0.000369414               0.000418797              -0.000214908               0.000086180               0.000110871               0.000197051               0.000000000               0.000000000               0.000000000               0.000000000               0.000721338               0.000837053              -0.000309685               0.000165869               0.000223725               0.000389594               0.000000000               0.000000000               0.000000000               0.000000000               0.000823975               0.001247656              -0.000323269               0.000153032               0.000364870               0.000517903               0.000000000               0.000000000               0.000000000               0.000000000               0.000835976               0.001611970              -0.000305892               0.000111994               0.000499987               0.000611981               0.000000000               0.000000000               0.000000000               0.000000000               0.000814885               0.001928426              -0.000280040               0.000064528               0.000621293               0.000685821               0.000000000               0.000000000               0.000000000               0.000000000               0.000778490               0.002208020              -0.000256723               0.000015931               0.000730689               0.000746620               0.000000000               0.000000000               0.000000000               0.000000000               0.000732988               0.002452479              -0.000229777              -0.000031689               0.000828048               0.000796358               0.000000000               0.000000000               0.000000000               0.000000000               0.000690386               0.002655272              -0.000201846              -0.000073014               0.000909420               0.000836406               0.000000000               0.000000000               0.000000000               0.000000000               0.000648611               0.002817758              -0.000183912              -0.000108990               0.000975573               0.000866583               0.000000000               0.000000000               0.000000000               0.000000000               0.000601496               0.002952620              -0.000171745              -0.000143516               0.001032035               0.000888519               0.000000000               0.000000000               0.000000000               0.000000000               0.000552609               0.003065409              -0.000156673              -0.000175947               0.001080442               0.000904495               0.000000000               0.000000000               0.000000000               0.000000000               0.000511670               0.003153405              -0.000134852              -0.000202299               0.001118557               0.000916259               0.000000000               0.000000000               0.000000000               0.000000000               0.000488026               0.003218949              -0.000106809              -0.000219358               0.001146092               0.000926733               0.000000000               0.000000000               0.000000000               0.000000000               0.000486358               0.003267095              -0.000075466              -0.000226002               0.001164355               0.000938353               0.000000000               0.000000000               0.000000000               0.000000000               0.000507968               0.003297402              -0.000040157              -0.000221687               0.001173019               0.000951332               0.000000000               0.000000000               0.000000000               0.000000000               0.000533479               0.003310293              -0.000021272              -0.000213731               0.001174664               0.000960932               0.000000000               0.000000000               0.000000000               0.000000000              -0.000242741               0.000076045               0.000000000              -0.000100533               0.000058859              -0.000041674               0.000000000               0.000000000               0.000000000               0.000000000               0.000345511               0.000361485               0.000000000               0.000084380               0.000092367               0.000176747               0.000000000               0.000000000               0.000000000               0.000000000               0.000731118               0.000758318               0.000000000               0.000179378               0.000192977               0.000372355               0.000000000               0.000000000               0.000000000               0.000000000               0.000849798               0.001166635              -0.000000000               0.000172843               0.000331260               0.000504103               0.000000000               0.000000000               0.000000000               0.000000000               0.000868361               0.001529744              -0.000000000               0.000134416               0.000465104               0.000599520               0.000000000               0.000000000               0.000000000               0.000000000               0.000850846               0.001850323               0.000000000               0.000087776               0.000587509               0.000675285               0.000000000               0.000000000               0.000000000               0.000000000               0.000813438               0.002138606               0.000000000               0.000037713               0.000700291               0.000738004               0.000000000               0.000000000               0.000000000               0.000000000               0.000766585               0.002390546              -0.000000000              -0.000011349               0.000800624               0.000789275               0.000000000               0.000000000               0.000000000               0.000000000               0.000725656               0.002601889               0.000000000              -0.000053115               0.000884993               0.000831878               0.000000000               0.000000000               0.000000000               0.000000000               0.000684309               0.002770812               0.000000000              -0.000089736               0.000953507               0.000863771               0.000000000               0.000000000               0.000000000               0.000000000               0.000634880               0.002909591               0.000000000              -0.000125619               0.001011727               0.000886108               0.000000000               0.000000000               0.000000000               0.000000000               0.000583933               0.003029425               0.000000000              -0.000159703               0.001063032               0.000903329               0.000000000               0.000000000               0.000000000               0.000000000               0.000540851               0.003129756              -0.000000000              -0.000188400               0.001106041               0.000917642               0.000000000               0.000000000               0.000000000               0.000000000               0.000518294               0.003209376              -0.000000000              -0.000206811               0.001138718               0.000931907               0.000000000               0.000000000               0.000000000               0.000000000               0.000522943               0.003266120              -0.000000000              -0.000212161               0.001159416               0.000947255               0.000000000               0.000000000               0.000000000               0.000000000               0.000555310               0.003298469               0.000000000              -0.000204067               0.001167501               0.000963434               0.000000000               0.000000000               0.000000000               0.000000000               0.000593173               0.003313423              -0.000000000              -0.000191737               0.001168376               0.000976638               0.000000000               0.000000000               0.000000000               0.000000000               0.000000000               0.000000000               0.000000000               0.000000000               0.000000000               0.000000000               0.000000000               0.000000000               0.000000000               0.000000000               0.000000000               0.000000000               0.000000000               0.000000000               0.000000000               0.000000000               0.000000000               0.000000000               0.000000000               0.000000000               0.000000000               0.000000000               0.000000000               0.000000000               0.000000000               0.000000000               0.000000000               0.000000000               0.000000000               0.000000000               0.000000000               0.000000000               0.000000000               0.000000000               0.000000000               0.000000000               0.000000000               0.000000000               0.000000000               0.000000000               0.000000000               0.000000000               0.000000000               0.000000000               0.000000000               0.000000000               0.000000000               0.000000000               0.000000000               0.000000000               0.000000000               0.000000000               0.000000000               0.000000000               0.000000000               0.000000000               0.000000000               0.000000000               0.000000000               0.000000000               0.000000000               0.000000000               0.000000000               0.000000000               0.000000000               0.000000000               0.000000000               0.000000000               0.000000000               0.000000000               0.000000000               0.000000000               0.000000000               0.000000000               0.000000000               0.000000000               0.000000000               0.000000000               0.000000000               0.000000000               0.000000000               0.000000000               0.000000000               0.000000000               0.000000000               0.000000000               0.000000000               0.000000000               0.000000000               0.000000000               0.000000000               0.000000000               0.000000000               0.000000000               0.000000000               0.000000000               0.000000000               0.000000000               0.000000000               0.000000000               0.000000000               0.000000000               0.000000000               0.000000000               0.000000000               0.000000000               0.000000000               0.000000000               0.000000000               0.000000000               0.000000000               0.000000000               0.000000000               0.000000000               0.000000000               0.000000000               0.000000000               0.000000000               0.000000000               0.000000000               0.000000000               0.000000000               0.000000000               0.000000000               0.000000000               0.000000000               0.000000000               0.000000000               0.000000000               0.000000000               0.000000000               0.000000000               0.000000000               0.000000000               0.000000000               0.000000000               0.000000000               0.000000000               0.000000000               0.000000000               0.000000000               0.000000000               0.000000000               0.000000000               0.000000000               0.000000000               0.000000000               0.000000000               0.000000000               0.000000000               0.000000000               0.000000000               0.000000000               0.000000000               0.000000000               0.000000000               0.000000000               0.000000000               0.000000000               0.000000000               0.000000000               0.000000000               0.000000000               0.000000000               0.000000000               0.000000000               0.000000000               0.000000000               0.000000000               0.000000000               0.000697147               0.007513007               0.000565733              -0.000677694               0.002730209               0.002052514               0.000000000               0.000000000               0.000000000               0.000000000               0.000725190               0.006210397               0.000352820              -0.000504352               0.002238229               0.001733877               0.000000000               0.000000000               0.000000000               0.000000000               0.000969416               0.005177868               0.000134635              -0.000283702               0.001820506               0.001536804               0.000000000               0.000000000               0.000000000               0.000000000               0.000992127               0.004612031               0.000034429              -0.000204456               0.001605480               0.001401024               0.000000000               0.000000000               0.000000000               0.000000000               0.000940598               0.004281271              -0.000011631              -0.000182434               0.001487887               0.001305453               0.000000000               0.000000000               0.000000000               0.000000000               0.000863521               0.004075708              -0.000032150              -0.000185643               0.001420437               0.001234794               0.000000000               0.000000000               0.000000000               0.000000000               0.000774326               0.003941911              -0.000041904              -0.000202366               0.001381413               0.001179046               0.000000000               0.000000000               0.000000000               0.000000000               0.000683405               0.003852580              -0.000044218              -0.000225295               0.001359279               0.001133984               0.000000000               0.000000000               0.000000000               0.000000000               0.000595920               0.003791325              -0.000044500              -0.000250445               0.001347244               0.001096799               0.000000000               0.000000000               0.000000000               0.000000000               0.000506800               0.003748988              -0.000044923              -0.000278573               0.001342508               0.001063935               0.000000000               0.000000000               0.000000000               0.000000000               0.000417194               0.003720847              -0.000044136              -0.000308657               0.001343156               0.001034498               0.000000000               0.000000000               0.000000000               0.000000000               0.000333586               0.003703175              -0.000042380              -0.000337801               0.001346980               0.001009178               0.000000000               0.000000000               0.000000000               0.000000000               0.000255092               0.003691378              -0.000038929              -0.000365762               0.001352368               0.000986606               0.000000000               0.000000000               0.000000000               0.000000000               0.000180545               0.003680996              -0.000034645              -0.000392419               0.001357793               0.000965374               0.000000000               0.000000000               0.000000000               0.000000000               0.000114304               0.003672031              -0.000028272              -0.000416139               0.001362711               0.000946572               0.000000000               0.000000000               0.000000000               0.000000000               0.000054624               0.003660000              -0.000017249              -0.000437015               0.001365659               0.000928644               0.000000000               0.000000000               0.000000000               0.000000000               0.000026218               0.003652268              -0.000010231              -0.000446700               0.001366311               0.000919610               0.000000000               0.000000000               0.000000000               0.000000000               0.000800347               0.007124767               0.001068653              -0.000590465               0.002571720               0.001981255               0.000000000               0.000000000               0.000000000               0.000000000               0.000747750               0.005942281               0.000670469              -0.000462378               0.002134867               0.001672489               0.000000000               0.000000000               0.000000000               0.000000000               0.000904711               0.005037839               0.000264221              -0.000290463               0.001776084               0.001485621               0.000000000               0.000000000               0.000000000               0.000000000               0.000891165               0.004541370               0.000080648              -0.000233484               0.001591603               0.001358119               0.000000000               0.000000000               0.000000000               0.000000000               0.000825492               0.004243296              -0.000004090              -0.000220852               0.001488035               0.001267183               0.000000000               0.000000000               0.000000000               0.000000000               0.000747597               0.004052566              -0.000042780              -0.000226221               0.001426249               0.001200028               0.000000000               0.000000000               0.000000000               0.000000000               0.000665721               0.003925789              -0.000061539              -0.000241078               0.001388943               0.001147865               0.000000000               0.000000000               0.000000000               0.000000000               0.000584695               0.003840984              -0.000066648              -0.000260862               0.001367269               0.001106407               0.000000000               0.000000000               0.000000000               0.000000000               0.000507638               0.003782261              -0.000066713              -0.000282418               0.001354880               0.001072463               0.000000000               0.000000000               0.000000000               0.000000000               0.000430576               0.003742335              -0.000067808              -0.000306325               0.001349541               0.001043216               0.000000000               0.000000000               0.000000000               0.000000000               0.000353457               0.003717069              -0.000067248              -0.000332086               0.001349706               0.001017620               0.000000000               0.000000000               0.000000000               0.000000000               0.000280619               0.003701777              -0.000064221              -0.000357489               0.001353076               0.000995587               0.000000000               0.000000000               0.000000000               0.000000000               0.000213214               0.003692608              -0.000058118              -0.000381620               0.001358063               0.000976444               0.000000000               0.000000000               0.000000000               0.000000000               0.000152008               0.003687093              -0.000050958              -0.000403883               0.001363646               0.000959764               0.000000000               0.000000000               0.000000000               0.000000000               0.000097753               0.003686136              -0.000041127              -0.000424109               0.001370069               0.000945961               0.000000000               0.000000000               0.000000000               0.000000000               0.000047075               0.003690293              -0.000024767              -0.000443632               0.001377963               0.000934330               0.000000000               0.000000000               0.000000000               0.000000000               0.000025249               0.003699369              -0.000013734              -0.000452952               0.001384095               0.000931143               0.000000000               0.000000000               0.000000000               0.000000000               0.000942954               0.006534453               0.001464454              -0.000463199               0.002332528               0.001869330               0.000000000               0.000000000               0.000000000               0.000000000               0.000772909               0.005539221               0.000926400              -0.000402561               0.001980575               0.001578014               0.000000000               0.000000000               0.000000000               0.000000000               0.000805739               0.004828927               0.000381335              -0.000301463               0.001710114               0.001408651               0.000000000               0.000000000               0.000000000               0.000000000               0.000747487               0.004427121               0.000142959              -0.000273082               0.001566719               0.001293638               0.000000000               0.000000000               0.000000000               0.000000000               0.000670220               0.004176600               0.000034070              -0.000270742               0.001482433               0.001211691               0.000000000               0.000000000               0.000000000               0.000000000               0.000599194               0.004013219              -0.000016758              -0.000276954               0.001430044               0.001153090               0.000000000               0.000000000               0.000000000               0.000000000               0.000529549               0.003903531              -0.000042458              -0.000289360               0.001397617               0.001108257               0.000000000               0.000000000               0.000000000               0.000000000               0.000459729               0.003828257              -0.000050682              -0.000306133               0.001378117               0.001071984               0.000000000               0.000000000               0.000000000               0.000000000               0.000396940               0.003777306              -0.000051921              -0.000323310               0.001366859               0.001043549               0.000000000               0.000000000               0.000000000               0.000000000               0.000336773               0.003742595              -0.000055236              -0.000341534               0.001361364               0.001019830               0.000000000               0.000000000               0.000000000               0.000000000               0.000277735               0.003720712              -0.000056711              -0.000360937               0.001360537               0.000999600               0.000000000               0.000000000               0.000000000               0.000000000               0.000222914               0.003709285              -0.000054145              -0.000380067               0.001363105               0.000983038               0.000000000               0.000000000               0.000000000               0.000000000               0.000172189               0.003705083              -0.000047749              -0.000398564               0.001367870               0.000969306               0.000000000               0.000000000               0.000000000               0.000000000               0.000126015               0.003708278              -0.000039460              -0.000416278               0.001374840               0.000958562               0.000000000               0.000000000               0.000000000               0.000000000               0.000083285               0.003719546              -0.000030172              -0.000433710               0.001384406               0.000950696               0.000000000               0.000000000               0.000000000               0.000000000               0.000040801               0.003744142              -0.000016960              -0.000452716               0.001398940               0.000946224               0.000000000               0.000000000               0.000000000               0.000000000               0.000026437               0.003773826              -0.000005219              -0.000461813               0.001411867               0.000950054               0.000000000               0.000000000               0.000000000               0.000000000               0.001089356               0.005812735               0.001720708              -0.000318084               0.002043587               0.001725503               0.000000000               0.000000000               0.000000000               0.000000000               0.000789774               0.005051824               0.001104101              -0.000335313               0.001795695               0.001460382               0.000000000               0.000000000               0.000000000               0.000000000               0.000683803               0.004575876               0.000485846              -0.000315558               0.001630463               0.001314905               0.000000000               0.000000000               0.000000000               0.000000000               0.000588183               0.004281302               0.000222912              -0.000314594               0.001531951               0.001217357               0.000000000               0.000000000               0.000000000               0.000000000               0.000510775               0.004086934               0.000101483              -0.000319325               0.001468740               0.001149414               0.000000000               0.000000000               0.000000000               0.000000000               0.000448543               0.003956951               0.000043967              -0.000326414               0.001427775               0.001101361               0.000000000               0.000000000               0.000000000               0.000000000               0.000394588               0.003867377               0.000012667              -0.000335451               0.001400930               0.001065479               0.000000000               0.000000000               0.000000000               0.000000000               0.000342874               0.003805581              -0.000002976              -0.000347119               0.001384221               0.001037102               0.000000000               0.000000000               0.000000000               0.000000000               0.000295702               0.003767460              -0.000007743              -0.000360043               0.001375822               0.001015779               0.000000000               0.000000000               0.000000000               0.000000000               0.000251742               0.003740398              -0.000012828              -0.000373146               0.001371169               0.000998023               0.000000000               0.000000000               0.000000000               0.000000000               0.000212125               0.003723679              -0.000017701              -0.000385912               0.001369851               0.000983939               0.000000000               0.000000000               0.000000000               0.000000000               0.000177186               0.003716950              -0.000017448              -0.000398173               0.001371695               0.000973522               0.000000000               0.000000000               0.000000000               0.000000000               0.000144393               0.003719654              -0.000012226              -0.000410808               0.001376809               0.000966000               0.000000000               0.000000000               0.000000000               0.000000000               0.000110039               0.003731656              -0.000004053              -0.000425191               0.001385603               0.000960412               0.000000000               0.000000000               0.000000000               0.000000000               0.000074829               0.003753054               0.000002640              -0.000441070               0.001398029               0.000956959               0.000000000               0.000000000               0.000000000               0.000000000               0.000038228               0.003786940               0.000004263              -0.000459031               0.001415311               0.000956280               0.000000000               0.000000000               0.000000000               0.000000000               0.000027818               0.003821985               0.000008411              -0.000467315               0.001429754               0.000962439               0.000000000               0.000000000               0.000000000               0.000000000               0.001196109               0.005019699               0.001837245              -0.000178923               0.001732857               0.001553934               0.000000000               0.000000000               0.000000000               0.000000000               0.000787623               0.004525952               0.001210832              -0.000270386               0.001598764               0.001328378               0.000000000               0.000000000               0.000000000               0.000000000               0.000561448               0.004299744               0.000583002              -0.000326924               0.001542208               0.001215284               0.000000000               0.000000000               0.000000000               0.000000000               0.000443647               0.004115650               0.000318729              -0.000348088               0.001487899               0.001139811               0.000000000               0.000000000               0.000000000               0.000000000               0.000374630               0.003977275               0.000191299              -0.000356672               0.001444636               0.001087964               0.000000000               0.000000000               0.000000000               0.000000000               0.000327684               0.003880789               0.000125890              -0.000362216               0.001414322               0.001052106               0.000000000               0.000000000               0.000000000               0.000000000               0.000290174               0.003810848               0.000085654              -0.000367540               0.001392783               0.001025243               0.000000000               0.000000000               0.000000000               0.000000000               0.000254764               0.003766540               0.000060674              -0.000375280               0.001380594               0.001005314               0.000000000               0.000000000               0.000000000               0.000000000               0.000221535               0.003742528               0.000052475              -0.000384740               0.001375744               0.000991004               0.000000000               0.000000000               0.000000000               0.000000000               0.000192311               0.003727439               0.000048738              -0.000393812               0.001373738               0.000979926               0.000000000               0.000000000               0.000000000               0.000000000               0.000169521               0.003717543               0.000043339              -0.000401121               0.001372876               0.000971754               0.000000000               0.000000000               0.000000000               0.000000000               0.000148220               0.003713577               0.000041015              -0.000408613               0.001374051               0.000965438               0.000000000               0.000000000               0.000000000               0.000000000               0.000123692               0.003716658               0.000041658              -0.000418197               0.001378273               0.000960076               0.000000000               0.000000000               0.000000000               0.000000000               0.000093610               0.003727107               0.000043671              -0.000430783               0.001385951               0.000955168               0.000000000               0.000000000               0.000000000               0.000000000               0.000061474               0.003743170               0.000040667              -0.000444843               0.001395992               0.000951149               0.000000000               0.000000000               0.000000000               0.000000000               0.000031310               0.003761919               0.000026296              -0.000458497               0.001406793               0.000948296               0.000000000               0.000000000               0.000000000               0.000000000               0.000019449               0.003774870               0.000017775              -0.000464564               0.001413132               0.000948568               0.000000000               0.000000000               0.000000000               0.000000000               0.001246156               0.004217696               0.001830743              -0.000059906               0.001425852               0.001365947               0.000000000               0.000000000               0.000000000               0.000000000               0.000766557               0.004004523               0.001257581              -0.000213107               0.001405863               0.001192756               0.000000000               0.000000000               0.000000000               0.000000000               0.000452921               0.004021825               0.000672854              -0.000332882               0.001451556               0.001118673               0.000000000               0.000000000               0.000000000               0.000000000               0.000332321               0.003935907               0.000419770              -0.000367367               0.001434412               0.001067045               0.000000000               0.000000000               0.000000000               0.000000000               0.000277282               0.003850323               0.000285713              -0.000377309               0.001409198               0.001031889               0.000000000               0.000000000               0.000000000               0.000000000               0.000247520               0.003787167               0.000210821              -0.000380575               0.001389235               0.001008660               0.000000000               0.000000000               0.000000000               0.000000000               0.000224339               0.003743447               0.000164408              -0.000383803               0.001375738               0.000991935               0.000000000               0.000000000               0.000000000               0.000000000               0.000200486               0.003720723               0.000133036              -0.000389907               0.001370198               0.000980291               0.000000000               0.000000000               0.000000000               0.000000000               0.000179667               0.003710037               0.000120796              -0.000396379               0.001368793               0.000972414               0.000000000               0.000000000               0.000000000               0.000000000               0.000159192               0.003700470               0.000116381              -0.000402861               0.001367764               0.000964904               0.000000000               0.000000000               0.000000000               0.000000000               0.000139572               0.003688824               0.000107139              -0.000408762               0.001365850               0.000957087               0.000000000               0.000000000               0.000000000               0.000000000               0.000120071               0.003681062               0.000095935              -0.000415105               0.001365377               0.000950272               0.000000000               0.000000000               0.000000000               0.000000000               0.000095261               0.003677799               0.000084049              -0.000424001               0.001367254               0.000943253               0.000000000               0.000000000               0.000000000               0.000000000               0.000066110               0.003677811               0.000070127              -0.000434934               0.001370903               0.000935969               0.000000000               0.000000000               0.000000000               0.000000000               0.000037172               0.003678876               0.000051414              -0.000445919               0.001374920               0.000929001               0.000000000               0.000000000               0.000000000               0.000000000               0.000014972               0.003672593               0.000026220              -0.000453458               0.001375338               0.000921880               0.000000000               0.000000000               0.000000000               0.000000000               0.000001460               0.003659018               0.000009979              -0.000456829               0.001371937               0.000915108               0.000000000               0.000000000               0.000000000               0.000000000               0.001245780               0.003465409               0.001722808               0.000033989               0.001143795               0.001177784               0.000000000               0.000000000               0.000000000               0.000000000               0.000733956               0.003520145               0.001254138              -0.000164786               0.001228298               0.001063512               0.000000000               0.000000000               0.000000000               0.000000000               0.000370577               0.003747710               0.000754172              -0.000329497               0.001359056               0.001029559               0.000000000               0.000000000               0.000000000               0.000000000               0.000263110               0.003749512               0.000514541              -0.000370022               0.001373165               0.001003143               0.000000000               0.000000000               0.000000000               0.000000000               0.000225112               0.003716163               0.000373128              -0.000380102               0.001365409               0.000985307               0.000000000               0.000000000               0.000000000               0.000000000               0.000207947               0.003688136               0.000289059              -0.000383036               0.001357045               0.000974009               0.000000000               0.000000000               0.000000000               0.000000000               0.000195329               0.003678598               0.000238375              -0.000386576               0.001355046               0.000968470               0.000000000               0.000000000               0.000000000               0.000000000               0.000177826               0.003674741               0.000201329              -0.000392657               0.001355787               0.000963130               0.000000000               0.000000000               0.000000000               0.000000000               0.000158456               0.003666197               0.000179833              -0.000398853               0.001355004               0.000956152               0.000000000               0.000000000               0.000000000               0.000000000               0.000137532               0.003652128               0.000167161              -0.000404941               0.001352344               0.000947404               0.000000000               0.000000000               0.000000000               0.000000000               0.000112128               0.003636242               0.000147772              -0.000412481               0.001349562               0.000937081               0.000000000               0.000000000               0.000000000               0.000000000               0.000082844               0.003620218               0.000121079              -0.000421460               0.001347214               0.000925754               0.000000000               0.000000000               0.000000000               0.000000000               0.000051664               0.003604609               0.000091082              -0.000431201               0.001345258               0.000914057               0.000000000               0.000000000               0.000000000               0.000000000               0.000022211               0.003589582               0.000060082              -0.000440368               0.001343305               0.000902937               0.000000000               0.000000000               0.000000000               0.000000000              -0.000001394               0.003570713               0.000031237              -0.000446861               0.001339179               0.000892319               0.000000000               0.000000000               0.000000000               0.000000000              -0.000010071               0.003543221               0.000008765              -0.000446678               0.001329955               0.000883276               0.000000000               0.000000000               0.000000000               0.000000000              -0.000014391               0.003517169              -0.000003398              -0.000445042               0.001320725               0.000875683               0.000000000               0.000000000               0.000000000               0.000000000               0.001216041               0.002819233               0.001550167               0.000103608               0.000905198               0.001008807               0.000000000               0.000000000               0.000000000               0.000000000               0.000712912               0.003088788               0.001226584              -0.000118758               0.001069171               0.000950413               0.000000000               0.000000000               0.000000000               0.000000000               0.000333057               0.003490964               0.000840641              -0.000311474               0.001267468               0.000955994               0.000000000               0.000000000               0.000000000               0.000000000               0.000240978               0.003580119               0.000610883              -0.000357148               0.001312410               0.000955263               0.000000000               0.000000000               0.000000000               0.000000000               0.000213429               0.003598377               0.000463500              -0.000369760               0.001322701               0.000952940               0.000000000               0.000000000               0.000000000               0.000000000               0.000204231               0.003609962               0.000368257              -0.000374658               0.001328195               0.000953537               0.000000000               0.000000000               0.000000000               0.000000000               0.000195985               0.003628209               0.000308382              -0.000380031               0.001336068               0.000956037               0.000000000               0.000000000               0.000000000               0.000000000               0.000179037               0.003636933               0.000264403              -0.000387477               0.001341458               0.000953981               0.000000000               0.000000000               0.000000000               0.000000000               0.000158272               0.003626062               0.000230459              -0.000393905               0.001339977               0.000946072               0.000000000               0.000000000               0.000000000               0.000000000               0.000133782               0.003605473               0.000203743              -0.000400515               0.001335317               0.000934802               0.000000000               0.000000000               0.000000000               0.000000000               0.000104036               0.003585810               0.000173569              -0.000409212               0.001331662               0.000922450               0.000000000               0.000000000               0.000000000               0.000000000               0.000067697               0.003563174               0.000136027              -0.000420009               0.001327716               0.000907706               0.000000000               0.000000000               0.000000000               0.000000000               0.000026487               0.003538575               0.000093832              -0.000432388               0.001323643               0.000891255               0.000000000               0.000000000               0.000000000               0.000000000              -0.000015087               0.003510020               0.000054291              -0.000444409               0.001318131               0.000873722               0.000000000               0.000000000               0.000000000               0.000000000              -0.000049009               0.003472362               0.000023268              -0.000452423               0.001308250               0.000855827               0.000000000               0.000000000               0.000000000               0.000000000              -0.000066089               0.003424705               0.000003271              -0.000452870               0.001292514               0.000839643               0.000000000               0.000000000               0.000000000               0.000000000              -0.000069039               0.003393008              -0.000004667              -0.000450015               0.001280996               0.000830982               0.000000000               0.000000000               0.000000000               0.000000000               0.001142747               0.002197817               0.001347779               0.000153800               0.000681331               0.000835131               0.000000000               0.000000000               0.000000000               0.000000000               0.000716466               0.002588768               0.001187280              -0.000054923               0.000881221               0.000826299               0.000000000               0.000000000               0.000000000               0.000000000               0.000348959               0.003119028               0.000940973              -0.000259019               0.001126005               0.000866986               0.000000000               0.000000000               0.000000000               0.000000000               0.000256584               0.003309535               0.000729278              -0.000317473               0.001208991               0.000891519               0.000000000               0.000000000               0.000000000               0.000000000               0.000233918               0.003398785               0.000577402              -0.000337128               0.001245293               0.000908165               0.000000000               0.000000000               0.000000000               0.000000000               0.000231339               0.003467275               0.000471348              -0.000346657               0.001271299               0.000924642               0.000000000               0.000000000               0.000000000               0.000000000               0.000229607               0.003519295               0.000395247              -0.000353809               0.001291023               0.000937214               0.000000000               0.000000000               0.000000000               0.000000000               0.000211431               0.003546670               0.000336953              -0.000364046               0.001303560               0.000939514               0.000000000               0.000000000               0.000000000               0.000000000               0.000185580               0.003550656               0.000290596              -0.000374239               0.001308286               0.000934048               0.000000000               0.000000000               0.000000000               0.000000000               0.000155461               0.003536579               0.000250829              -0.000383774               0.001306772               0.000922999               0.000000000               0.000000000               0.000000000               0.000000000               0.000120558               0.003510545               0.000211512              -0.000393608               0.001301373               0.000907765               0.000000000               0.000000000               0.000000000               0.000000000               0.000078902               0.003480932               0.000166718              -0.000405527               0.001295475               0.000889947               0.000000000               0.000000000               0.000000000               0.000000000               0.000029209               0.003452022               0.000118058              -0.000420548               0.001290845               0.000870297               0.000000000               0.000000000               0.000000000               0.000000000              -0.000025176               0.003424604               0.000073278              -0.000437516               0.001287362               0.000849846               0.000000000               0.000000000               0.000000000               0.000000000              -0.000078974               0.003394565               0.000037267              -0.000453935               0.001282822               0.000828887               0.000000000               0.000000000               0.000000000               0.000000000              -0.000124825               0.003356716               0.000012657              -0.000466398               0.001274360               0.000807962               0.000000000               0.000000000               0.000000000               0.000000000              -0.000149426               0.003329043               0.000000583              -0.000472164               0.001267058               0.000794894               0.000000000               0.000000000               0.000000000               0.000000000               0.000992425               0.001612790               0.001118304               0.000170558               0.000480738               0.000651296               0.000000000               0.000000000               0.000000000               0.000000000               0.000713814               0.002088772               0.001113495               0.000006582               0.000694056               0.000700638               0.000000000               0.000000000               0.000000000               0.000000000               0.000410382               0.002705682               0.001014642              -0.000184318               0.000963324               0.000779006               0.000000000               0.000000000               0.000000000               0.000000000               0.000314414               0.002994333               0.000843856              -0.000256387               0.001083563               0.000827176               0.000000000               0.000000000               0.000000000               0.000000000               0.000288348               0.003164497               0.000697325              -0.000287432               0.001150632               0.000863201               0.000000000               0.000000000               0.000000000               0.000000000               0.000281665               0.003287309               0.000584636              -0.000305289               0.001197521               0.000892233               0.000000000               0.000000000               0.000000000               0.000000000               0.000276191               0.003373397               0.000493789              -0.000318102               0.001230489               0.000912386               0.000000000               0.000000000               0.000000000               0.000000000               0.000259412               0.003430920               0.000420318              -0.000331585               0.001254157               0.000922572               0.000000000               0.000000000               0.000000000               0.000000000               0.000231398               0.003466138               0.000362235              -0.000346492               0.001270865               0.000924373               0.000000000               0.000000000               0.000000000               0.000000000               0.000198641               0.003472734               0.000313831              -0.000359600               0.001277433               0.000917833               0.000000000               0.000000000               0.000000000               0.000000000               0.000164694               0.003457291               0.000269406              -0.000370400               0.001275886               0.000905485               0.000000000               0.000000000               0.000000000               0.000000000               0.000125133               0.003432588               0.000219680              -0.000382148               0.001271567               0.000889419               0.000000000               0.000000000               0.000000000               0.000000000               0.000076949               0.003406182               0.000166487              -0.000396916               0.001267688               0.000870772               0.000000000               0.000000000               0.000000000               0.000000000               0.000017730               0.003379803               0.000115155              -0.000415826               0.001265198               0.000849373               0.000000000               0.000000000               0.000000000               0.000000000              -0.000051389               0.003357603               0.000069282              -0.000438970               0.001265513               0.000826543               0.000000000               0.000000000               0.000000000               0.000000000              -0.000128188               0.003336624               0.000030122              -0.000465147               0.001267246               0.000802099               0.000000000               0.000000000               0.000000000               0.000000000              -0.000183604               0.003311832               0.000005462              -0.000482829               0.001264876               0.000782047               0.000000000               0.000000000               0.000000000               0.000000000               0.000772865               0.001104446               0.000866110               0.000151766               0.000317556               0.000469322               0.000000000               0.000000000               0.000000000               0.000000000               0.000671660               0.001613771               0.000989382               0.000050149               0.000521201               0.000571351               0.000000000               0.000000000               0.000000000               0.000000000               0.000485423               0.002257049               0.001021907              -0.000100098               0.000785708               0.000685610               0.000000000               0.000000000               0.000000000               0.000000000               0.000410786               0.002624313               0.000907561              -0.000173995               0.000932760               0.000758765               0.000000000               0.000000000               0.000000000               0.000000000               0.000380513               0.002865828               0.000781125              -0.000215536               0.001027112               0.000811576               0.000000000               0.000000000               0.000000000               0.000000000               0.000363165               0.003040928               0.000670715              -0.000243929               0.001094942               0.000851013               0.000000000               0.000000000               0.000000000               0.000000000               0.000345342               0.003171532               0.000574397              -0.000266938               0.001146146               0.000879208               0.000000000               0.000000000               0.000000000               0.000000000               0.000324270               0.003273109               0.000491424              -0.000287537               0.001186871               0.000899334               0.000000000               0.000000000               0.000000000               0.000000000               0.000291958               0.003340842               0.000425662              -0.000308120               0.001216310               0.000908189               0.000000000               0.000000000               0.000000000               0.000000000               0.000255522               0.003374350               0.000374266              -0.000325972               0.001233429               0.000907457               0.000000000               0.000000000               0.000000000               0.000000000               0.000218987               0.003386614               0.000325731              -0.000341206               0.001242595               0.000901389               0.000000000               0.000000000               0.000000000               0.000000000               0.000183094               0.003384154               0.000272466              -0.000354358               0.001246160               0.000891801               0.000000000               0.000000000               0.000000000               0.000000000               0.000142996               0.003371401               0.000216694              -0.000367801               0.001246389               0.000878589               0.000000000               0.000000000               0.000000000               0.000000000               0.000090557               0.003351411               0.000159902              -0.000384967               0.001245448               0.000860481               0.000000000               0.000000000               0.000000000               0.000000000               0.000021970               0.003335436               0.000102547              -0.000408690               0.001248031               0.000839341               0.000000000               0.000000000               0.000000000               0.000000000              -0.000065021               0.003323066               0.000047880              -0.000439765               0.001254266               0.000814501               0.000000000               0.000000000               0.000000000               0.000000000              -0.000134490               0.003302103               0.000014374              -0.000463196               0.001255089               0.000791893               0.000000000               0.000000000               0.000000000               0.000000000               0.000507800               0.000702130               0.000619415               0.000102657               0.000199821               0.000302479               0.000000000               0.000000000               0.000000000               0.000000000               0.000601410               0.001189529               0.000824233               0.000076836               0.000370893               0.000447729               0.000000000               0.000000000               0.000000000               0.000000000               0.000560698               0.001806248               0.000953885              -0.000015521               0.000607250               0.000591729               0.000000000               0.000000000               0.000000000               0.000000000               0.000529149               0.002220999               0.000898249              -0.000079195               0.000766724               0.000687529               0.000000000               0.000000000               0.000000000               0.000000000               0.000502228               0.002519122               0.000800166              -0.000126555               0.000881884               0.000755329               0.000000000               0.000000000               0.000000000               0.000000000               0.000472306               0.002748773               0.000701698              -0.000166482               0.000971742               0.000805260               0.000000000               0.000000000               0.000000000               0.000000000               0.000440902               0.002928399               0.000611528              -0.000200712               0.001043027               0.000842315               0.000000000               0.000000000               0.000000000               0.000000000               0.000413014               0.003068546               0.000531309              -0.000228688               0.001099068               0.000870380               0.000000000               0.000000000               0.000000000               0.000000000               0.000377592               0.003173920               0.000464737              -0.000255142               0.001143010               0.000887868               0.000000000               0.000000000               0.000000000               0.000000000               0.000334165               0.003252091               0.000412361              -0.000281199               0.001177753               0.000896554               0.000000000               0.000000000               0.000000000               0.000000000               0.000289970               0.003300690               0.000366403              -0.000303847               0.001201501               0.000897654               0.000000000               0.000000000               0.000000000               0.000000000               0.000253981               0.003324738               0.000318460              -0.000320349               0.001215018               0.000894669               0.000000000               0.000000000               0.000000000               0.000000000               0.000220620               0.003333826               0.000262838              -0.000333995               0.001222596               0.000888601               0.000000000               0.000000000               0.000000000               0.000000000               0.000178862               0.003332456               0.000199832              -0.000349483               0.001227302               0.000877819               0.000000000               0.000000000               0.000000000               0.000000000               0.000121688               0.003327133               0.000132278              -0.000370258               0.001232452               0.000862195               0.000000000               0.000000000               0.000000000               0.000000000               0.000047013               0.003320633               0.000065284              -0.000397448               0.001239350               0.000841901               0.000000000               0.000000000               0.000000000               0.000000000              -0.000016420               0.003304815               0.000025576              -0.000419258               0.001241347               0.000822089               0.000000000               0.000000000               0.000000000               0.000000000               0.000232244               0.000406696               0.000404995               0.000036254               0.000123479               0.000159733               0.000000000               0.000000000               0.000000000               0.000000000               0.000516351               0.000838875               0.000633586               0.000088771               0.000250031               0.000338802               0.000000000               0.000000000               0.000000000               0.000000000               0.000632091               0.001394615               0.000807609               0.000062706               0.000443965               0.000506670               0.000000000               0.000000000               0.000000000               0.000000000               0.000649375               0.001822275               0.000798277               0.000015730               0.000602175               0.000617905               0.000000000               0.000000000               0.000000000               0.000000000               0.000632010               0.002159656               0.000730153              -0.000032954               0.000730863               0.000697909               0.000000000               0.000000000               0.000000000               0.000000000               0.000597021               0.002435071               0.000650576              -0.000080501               0.000838516               0.000758015               0.000000000               0.000000000               0.000000000               0.000000000               0.000557649               0.002656972               0.000578372              -0.000123003               0.000926649               0.000803646               0.000000000               0.000000000               0.000000000               0.000000000               0.000525193               0.002837413               0.000512203              -0.000157729               0.000998371               0.000840642               0.000000000               0.000000000               0.000000000               0.000000000               0.000487513               0.002985800               0.000450912              -0.000190408               0.001058726               0.000868318               0.000000000               0.000000000               0.000000000               0.000000000               0.000440333               0.003106089               0.000402949              -0.000223136               0.001109731               0.000886595               0.000000000               0.000000000               0.000000000               0.000000000               0.000393887               0.003190975               0.000367130              -0.000251164               0.001147369               0.000896205               0.000000000               0.000000000               0.000000000               0.000000000               0.000353581               0.003245636               0.000329516              -0.000273111               0.001172905               0.000899794               0.000000000               0.000000000               0.000000000               0.000000000               0.000318326               0.003281014               0.000278728              -0.000290754               0.001190579               0.000899825               0.000000000               0.000000000               0.000000000               0.000000000               0.000282854               0.003300933               0.000215649              -0.000306546               0.001202482               0.000895936               0.000000000               0.000000000               0.000000000               0.000000000               0.000245564               0.003312667               0.000145882              -0.000321996               0.001211543               0.000889547               0.000000000               0.000000000               0.000000000               0.000000000               0.000200423               0.003317903               0.000074023              -0.000339578               0.001219149               0.000879571               0.000000000               0.000000000               0.000000000               0.000000000               0.000162607               0.003311079               0.000034026              -0.000352906               0.001221317               0.000868411               0.000000000               0.000000000               0.000000000               0.000000000              -0.000009325               0.000216151               0.000232019              -0.000030516               0.000082222               0.000051705               0.000000000               0.000000000               0.000000000               0.000000000               0.000432120               0.000579212               0.000427724               0.000089642               0.000163188               0.000252830               0.000000000               0.000000000               0.000000000               0.000000000               0.000688426               0.001059145               0.000588649               0.000125765               0.000311123               0.000436888               0.000000000               0.000000000               0.000000000               0.000000000               0.000753058               0.001480002               0.000601549               0.000097395               0.000460864               0.000558259               0.000000000               0.000000000               0.000000000               0.000000000               0.000749123               0.001837726               0.000561292               0.000051205               0.000595501               0.000646705               0.000000000               0.000000000               0.000000000               0.000000000               0.000720020               0.002140903               0.000507614               0.000002394               0.000712829               0.000715223               0.000000000               0.000000000               0.000000000               0.000000000               0.000682708               0.002398250               0.000459652              -0.000043766               0.000813997               0.000770231               0.000000000               0.000000000               0.000000000               0.000000000               0.000642928               0.002617607               0.000411020              -0.000086103               0.000901228               0.000815125               0.000000000               0.000000000               0.000000000               0.000000000               0.000601103               0.002799523               0.000361404              -0.000124527               0.000974674               0.000850147               0.000000000               0.000000000               0.000000000               0.000000000               0.000556660               0.002945889               0.000326044              -0.000159488               0.001035116               0.000875628               0.000000000               0.000000000               0.000000000               0.000000000               0.000511479               0.003061727               0.000302505              -0.000190911               0.001084202               0.000893292               0.000000000               0.000000000               0.000000000               0.000000000               0.000466833               0.003150788               0.000274971              -0.000218786               0.001123181               0.000904395               0.000000000               0.000000000               0.000000000               0.000000000               0.000428185               0.003212786               0.000234926              -0.000241028               0.001151261               0.000910232               0.000000000               0.000000000               0.000000000               0.000000000               0.000398894               0.003253312               0.000184684              -0.000257078               0.001170119               0.000913041               0.000000000               0.000000000               0.000000000               0.000000000               0.000382133               0.003284466               0.000127515              -0.000267258               0.001183897               0.000916639               0.000000000               0.000000000               0.000000000               0.000000000               0.000374185               0.003304920               0.000065480              -0.000272795               0.001192561               0.000919766               0.000000000               0.000000000               0.000000000               0.000000000               0.000370071               0.003309438               0.000032702              -0.000274903               0.001194769               0.000919867               0.000000000               0.000000000               0.000000000               0.000000000              -0.000179335               0.000112023               0.000103207              -0.000081254               0.000064425              -0.000016829               0.000000000               0.000000000               0.000000000               0.000000000               0.000369414               0.000418797               0.000214908               0.000086180               0.000110871               0.000197051               0.000000000               0.000000000               0.000000000               0.000000000               0.000721338               0.000837053               0.000309685               0.000165869               0.000223725               0.000389594               0.000000000               0.000000000               0.000000000               0.000000000               0.000823975               0.001247656               0.000323269               0.000153032               0.000364870               0.000517903               0.000000000               0.000000000               0.000000000               0.000000000               0.000835976               0.001611970               0.000305892               0.000111994               0.000499987               0.000611981               0.000000000               0.000000000               0.000000000               0.000000000               0.000814885               0.001928426               0.000280040               0.000064528               0.000621293               0.000685821               0.000000000               0.000000000               0.000000000               0.000000000               0.000778490               0.002208020               0.000256723               0.000015931               0.000730689               0.000746620               0.000000000               0.000000000               0.000000000               0.000000000               0.000732988               0.002452479               0.000229777              -0.000031689               0.000828048               0.000796358               0.000000000               0.000000000               0.000000000               0.000000000               0.000690386               0.002655272               0.000201846              -0.000073014               0.000909420               0.000836406               0.000000000               0.000000000               0.000000000               0.000000000               0.000648611               0.002817758               0.000183912              -0.000108990               0.000975573               0.000866583               0.000000000               0.000000000               0.000000000               0.000000000               0.000601496               0.002952620               0.000171745              -0.000143516               0.001032035               0.000888519               0.000000000               0.000000000               0.000000000               0.000000000               0.000552609               0.003065409               0.000156673              -0.000175947               0.001080442               0.000904495               0.000000000               0.000000000               0.000000000               0.000000000               0.000511670               0.003153405               0.000134852              -0.000202299               0.001118557               0.000916259               0.000000000               0.000000000               0.000000000               0.000000000               0.000488026               0.003218949               0.000106809              -0.000219358               0.001146092               0.000926733               0.000000000               0.000000000               0.000000000               0.000000000               0.000486358               0.003267095               0.000075466              -0.000226002               0.001164355               0.000938353               0.000000000               0.000000000               0.000000000               0.000000000               0.000507968               0.003297402               0.000040157              -0.000221687               0.001173019               0.000951332               0.000000000               0.000000000               0.000000000               0.000000000               0.000533479               0.003310293               0.000021272              -0.000213731               0.001174664               0.000960932               0.000000000               0.000000000               0.000000000               0.000000000              -0.000242741               0.000076045               0.000000000              -0.000100533               0.000058859              -0.000041674               0.000000000               0.000000000               0.000000000               0.000000000               0.000345511               0.000361485               0.000000000               0.000084380               0.000092367               0.000176747               0.000000000               0.000000000               0.000000000               0.000000000               0.000731118               0.000758318               0.000000000               0.000179378               0.000192977               0.000372355               0.000000000               0.000000000               0.000000000               0.000000000               0.000849798               0.001166635               0.000000000               0.000172843               0.000331260               0.000504103               0.000000000               0.000000000               0.000000000               0.000000000               0.000868361               0.001529744               0.000000000               0.000134416               0.000465104               0.000599520               0.000000000               0.000000000               0.000000000               0.000000000               0.000850846               0.001850323               0.000000000               0.000087776               0.000587509               0.000675285               0.000000000               0.000000000               0.000000000               0.000000000               0.000813438               0.002138606               0.000000000               0.000037713               0.000700291               0.000738004               0.000000000               0.000000000               0.000000000               0.000000000               0.000766585               0.002390546               0.000000000              -0.000011349               0.000800624               0.000789275               0.000000000               0.000000000               0.000000000               0.000000000               0.000725656               0.002601889              -0.000000000              -0.000053115               0.000884993               0.000831878               0.000000000               0.000000000               0.000000000               0.000000000               0.000684309               0.002770812              -0.000000000              -0.000089736               0.000953507               0.000863771               0.000000000               0.000000000               0.000000000               0.000000000               0.000634880               0.002909591               0.000000000              -0.000125619               0.001011727               0.000886108               0.000000000               0.000000000               0.000000000               0.000000000               0.000583933               0.003029425              -0.000000000              -0.000159703               0.001063032               0.000903329               0.000000000               0.000000000               0.000000000               0.000000000               0.000540851               0.003129756              -0.000000000              -0.000188400               0.001106041               0.000917642               0.000000000               0.000000000               0.000000000               0.000000000               0.000518294               0.003209376               0.000000000              -0.000206811               0.001138718               0.000931907               0.000000000               0.000000000               0.000000000               0.000000000               0.000522943               0.003266120              -0.000000000              -0.000212161               0.001159416               0.000947255               0.000000000               0.000000000               0.000000000               0.000000000               0.000555310               0.003298469              -0.000000000              -0.000204067               0.001167501               0.000963434               0.000000000               0.000000000               0.000000000               0.000000000               0.000593173               0.003313423              -0.000000000              -0.000191737               0.001168376               0.000976638               0.000000000               0.000000000               0.000000000               0.000000000               0.000658001               0.007647286               0.000000000              -0.000709159               0.002785456               0.002076298               0.000000000               0.000000000               0.000000000               0.000000000               0.000714580               0.006303851               0.000000000              -0.000520013               0.002274600               0.001754587               0.000000000               0.000000000               0.000000000               0.000000000               0.000991443               0.005226465               0.000000000              -0.000281516               0.001835976               0.001554460               0.000000000               0.000000000               0.000000000               0.000000000               0.001031108               0.004636631              -0.000000000              -0.000192913               0.001609833               0.001416920               0.000000000               0.000000000               0.000000000               0.000000000               0.000986061               0.004294270              -0.000000000              -0.000167010               0.001487079               0.001320069               0.000000000               0.000000000               0.000000000               0.000000000               0.000906783               0.004082279               0.000000000              -0.000170241               0.001417493               0.001247252               0.000000000               0.000000000               0.000000000               0.000000000               0.000813443               0.003947257              -0.000000000              -0.000188366               0.001378528               0.001190162               0.000000000               0.000000000               0.000000000               0.000000000               0.000720541               0.003858846              -0.000000000              -0.000212152               0.001356986               0.001144834               0.000000000               0.000000000               0.000000000               0.000000000               0.000630264               0.003797511              -0.000000000              -0.000238339               0.001345271               0.001106931               0.000000000               0.000000000               0.000000000               0.000000000               0.000538079               0.003756121              -0.000000000              -0.000267735               0.001341273               0.001073538               0.000000000               0.000000000               0.000000000               0.000000000               0.000443764               0.003726934               0.000000000              -0.000299455               0.001342117               0.001042663               0.000000000               0.000000000               0.000000000               0.000000000               0.000356341               0.003708380              -0.000000000              -0.000329919               0.001346087               0.001016168               0.000000000               0.000000000               0.000000000               0.000000000               0.000275550               0.003695511              -0.000000000              -0.000358607               0.001351360               0.000992754               0.000000000               0.000000000               0.000000000               0.000000000               0.000195620               0.003683556              -0.000000000              -0.000387086               0.001356869               0.000969782               0.000000000               0.000000000               0.000000000               0.000000000               0.000123317               0.003671007               0.000000000              -0.000412631               0.001361200               0.000948569               0.000000000               0.000000000               0.000000000               0.000000000               0.000059500               0.003653144               0.000000000              -0.000434329               0.001362479               0.000928150               0.000000000               0.000000000               0.000000000               0.000000000               0.000027859               0.003638403              -0.000000000              -0.000444352               0.001360906               0.000916554               0.000000000               0.000000000               0.000000000               0.000000000               0.000697147               0.007513007              -0.000565733              -0.000677694               0.002730209               0.002052514               0.000000000               0.000000000               0.000000000               0.000000000               0.000725190               0.006210397              -0.000352820              -0.000504352               0.002238229               0.001733877               0.000000000               0.000000000               0.000000000               0.000000000               0.000969416               0.005177868              -0.000134635              -0.000283702               0.001820506               0.001536804               0.000000000               0.000000000               0.000000000               0.000000000               0.000992127               0.004612031              -0.000034429              -0.000204456               0.001605480               0.001401024               0.000000000               0.000000000               0.000000000               0.000000000               0.000940598               0.004281271               0.000011631              -0.000182434               0.001487887               0.001305453               0.000000000               0.000000000               0.000000000               0.000000000               0.000863521               0.004075708               0.000032150              -0.000185643               0.001420437               0.001234794               0.000000000               0.000000000               0.000000000               0.000000000               0.000774326               0.003941911               0.000041904              -0.000202366               0.001381413               0.001179046               0.000000000               0.000000000               0.000000000               0.000000000               0.000683405               0.003852580               0.000044218              -0.000225295               0.001359279               0.001133984               0.000000000               0.000000000               0.000000000               0.000000000               0.000595920               0.003791325               0.000044500              -0.000250445               0.001347244               0.001096799               0.000000000               0.000000000               0.000000000               0.000000000               0.000506800               0.003748988               0.000044923              -0.000278573               0.001342508               0.001063935               0.000000000               0.000000000               0.000000000               0.000000000               0.000417194               0.003720847               0.000044136              -0.000308657               0.001343156               0.001034498               0.000000000               0.000000000               0.000000000               0.000000000               0.000333586               0.003703175               0.000042380              -0.000337801               0.001346980               0.001009178               0.000000000               0.000000000               0.000000000               0.000000000               0.000255092               0.003691378               0.000038929              -0.000365762               0.001352368               0.000986606               0.000000000               0.000000000               0.000000000               0.000000000               0.000180545               0.003680996               0.000034645              -0.000392419               0.001357793               0.000965374               0.000000000               0.000000000               0.000000000               0.000000000               0.000114304               0.003672031               0.000028272              -0.000416139               0.001362711               0.000946572               0.000000000               0.000000000               0.000000000               0.000000000               0.000054624               0.003660000               0.000017249              -0.000437015               0.001365659               0.000928644               0.000000000               0.000000000               0.000000000               0.000000000               0.000026218               0.003652268               0.000010231              -0.000446700               0.001366311               0.000919610               0.000000000               0.000000000               0.000000000               0.000000000               0.000800347               0.007124767              -0.001068653              -0.000590465               0.002571720               0.001981255               0.000000000               0.000000000               0.000000000               0.000000000               0.000747750               0.005942281              -0.000670469              -0.000462378               0.002134867               0.001672489               0.000000000               0.000000000               0.000000000               0.000000000               0.000904711               0.005037839              -0.000264221              -0.000290463               0.001776084               0.001485621               0.000000000               0.000000000               0.000000000               0.000000000               0.000891165               0.004541370              -0.000080648              -0.000233484               0.001591603               0.001358119               0.000000000               0.000000000               0.000000000               0.000000000               0.000825492               0.004243296               0.000004090              -0.000220852               0.001488035               0.001267183               0.000000000               0.000000000               0.000000000               0.000000000               0.000747597               0.004052566               0.000042780              -0.000226221               0.001426249               0.001200028               0.000000000               0.000000000               0.000000000               0.000000000               0.000665721               0.003925789               0.000061539              -0.000241078               0.001388943               0.001147865               0.000000000               0.000000000               0.000000000               0.000000000               0.000584695               0.003840984               0.000066648              -0.000260862               0.001367269               0.001106407               0.000000000               0.000000000               0.000000000               0.000000000               0.000507638               0.003782261               0.000066713              -0.000282418               0.001354880               0.001072463               0.000000000               0.000000000               0.000000000               0.000000000               0.000430576               0.003742335               0.000067808              -0.000306325               0.001349541               0.001043216               0.000000000               0.000000000               0.000000000               0.000000000               0.000353457               0.003717069               0.000067248              -0.000332086               0.001349706               0.001017620               0.000000000               0.000000000               0.000000000               0.000000000               0.000280619               0.003701777               0.000064221              -0.000357489               0.001353076               0.000995587               0.000000000               0.000000000               0.000000000               0.000000000               0.000213214               0.003692608               0.000058118              -0.000381620               0.001358063               0.000976444               0.000000000               0.000000000               0.000000000               0.000000000               0.000152008               0.003687093               0.000050958              -0.000403883               0.001363646               0.000959764               0.000000000               0.000000000               0.000000000               0.000000000               0.000097753               0.003686136               0.000041127              -0.000424109               0.001370069               0.000945961               0.000000000               0.000000000               0.000000000               0.000000000               0.000047075               0.003690293               0.000024767              -0.000443632               0.001377963               0.000934330               0.000000000               0.000000000               0.000000000               0.000000000               0.000025249               0.003699369               0.000013734              -0.000452952               0.001384095               0.000931143               0.000000000               0.000000000               0.000000000               0.000000000               0.000942954               0.006534453              -0.001464454              -0.000463199               0.002332528               0.001869330               0.000000000               0.000000000               0.000000000               0.000000000               0.000772909               0.005539221              -0.000926400              -0.000402561               0.001980575               0.001578014               0.000000000               0.000000000               0.000000000               0.000000000               0.000805739               0.004828927              -0.000381335              -0.000301463               0.001710114               0.001408651               0.000000000               0.000000000               0.000000000               0.000000000               0.000747487               0.004427121              -0.000142959              -0.000273082               0.001566719               0.001293638               0.000000000               0.000000000               0.000000000               0.000000000               0.000670220               0.004176600              -0.000034070              -0.000270742               0.001482433               0.001211691               0.000000000               0.000000000               0.000000000               0.000000000               0.000599194               0.004013219               0.000016758              -0.000276954               0.001430044               0.001153090               0.000000000               0.000000000               0.000000000               0.000000000               0.000529549               0.003903531               0.000042458              -0.000289360               0.001397617               0.001108257               0.000000000               0.000000000               0.000000000               0.000000000               0.000459729               0.003828257               0.000050682              -0.000306133               0.001378117               0.001071984               0.000000000               0.000000000               0.000000000               0.000000000               0.000396940               0.003777306               0.000051921              -0.000323310               0.001366859               0.001043549               0.000000000               0.000000000               0.000000000               0.000000000               0.000336773               0.003742595               0.000055236              -0.000341534               0.001361364               0.001019830               0.000000000               0.000000000               0.000000000               0.000000000               0.000277735               0.003720712               0.000056711              -0.000360937               0.001360537               0.000999600               0.000000000               0.000000000               0.000000000               0.000000000               0.000222914               0.003709285               0.000054145              -0.000380067               0.001363105               0.000983038               0.000000000               0.000000000               0.000000000               0.000000000               0.000172189               0.003705083               0.000047749              -0.000398564               0.001367870               0.000969306               0.000000000               0.000000000               0.000000000               0.000000000               0.000126015               0.003708278               0.000039460              -0.000416278               0.001374840               0.000958562               0.000000000               0.000000000               0.000000000               0.000000000               0.000083285               0.003719546               0.000030172              -0.000433710               0.001384406               0.000950696               0.000000000               0.000000000               0.000000000               0.000000000               0.000040801               0.003744142               0.000016960              -0.000452716               0.001398940               0.000946224               0.000000000               0.000000000               0.000000000               0.000000000               0.000026437               0.003773826               0.000005219              -0.000461813               0.001411867               0.000950054               0.000000000               0.000000000               0.000000000               0.000000000               0.001089356               0.005812735              -0.001720708              -0.000318084               0.002043587               0.001725503               0.000000000               0.000000000               0.000000000               0.000000000               0.000789774               0.005051824              -0.001104101              -0.000335313               0.001795695               0.001460382               0.000000000               0.000000000               0.000000000               0.000000000               0.000683803               0.004575876              -0.000485846              -0.000315558               0.001630463               0.001314905               0.000000000               0.000000000               0.000000000               0.000000000               0.000588183               0.004281302              -0.000222912              -0.000314594               0.001531951               0.001217357               0.000000000               0.000000000               0.000000000               0.000000000               0.000510775               0.004086934              -0.000101483              -0.000319325               0.001468740               0.001149414               0.000000000               0.000000000               0.000000000               0.000000000               0.000448543               0.003956951              -0.000043967              -0.000326414               0.001427775               0.001101361               0.000000000               0.000000000               0.000000000               0.000000000               0.000394588               0.003867377              -0.000012667              -0.000335451               0.001400930               0.001065479               0.000000000               0.000000000               0.000000000               0.000000000               0.000342874               0.003805581               0.000002976              -0.000347119               0.001384221               0.001037102               0.000000000               0.000000000               0.000000000               0.000000000               0.000295702               0.003767460               0.000007743              -0.000360043               0.001375822               0.001015779               0.000000000               0.000000000               0.000000000               0.000000000               0.000251742               0.003740398               0.000012828              -0.000373146               0.001371169               0.000998023               0.000000000               0.000000000               0.000000000               0.000000000               0.000212125               0.003723679               0.000017701              -0.000385912               0.001369851               0.000983939               0.000000000               0.000000000               0.000000000               0.000000000               0.000177186               0.003716950               0.000017448              -0.000398173               0.001371695               0.000973522               0.000000000               0.000000000               0.000000000               0.000000000               0.000144393               0.003719654               0.000012226              -0.000410808               0.001376809               0.000966000               0.000000000               0.000000000               0.000000000               0.000000000               0.000110039               0.003731656               0.000004053              -0.000425191               0.001385603               0.000960412               0.000000000               0.000000000               0.000000000               0.000000000               0.000074829               0.003753054              -0.000002640              -0.000441070               0.001398029               0.000956959               0.000000000               0.000000000               0.000000000               0.000000000               0.000038228               0.003786940              -0.000004263              -0.000459031               0.001415311               0.000956280               0.000000000               0.000000000               0.000000000               0.000000000               0.000027818               0.003821985              -0.000008411              -0.000467315               0.001429754               0.000962439               0.000000000               0.000000000               0.000000000               0.000000000               0.001196109               0.005019699              -0.001837245              -0.000178923               0.001732857               0.001553934               0.000000000               0.000000000               0.000000000               0.000000000               0.000787623               0.004525952              -0.001210832              -0.000270386               0.001598764               0.001328378               0.000000000               0.000000000               0.000000000               0.000000000               0.000561448               0.004299744              -0.000583002              -0.000326924               0.001542208               0.001215284               0.000000000               0.000000000               0.000000000               0.000000000               0.000443647               0.004115650              -0.000318729              -0.000348088               0.001487899               0.001139811               0.000000000               0.000000000               0.000000000               0.000000000               0.000374630               0.003977275              -0.000191299              -0.000356672               0.001444636               0.001087964               0.000000000               0.000000000               0.000000000               0.000000000               0.000327684               0.003880789              -0.000125890              -0.000362216               0.001414322               0.001052106               0.000000000               0.000000000               0.000000000               0.000000000               0.000290174               0.003810848              -0.000085654              -0.000367540               0.001392783               0.001025243               0.000000000               0.000000000               0.000000000               0.000000000               0.000254764               0.003766540              -0.000060674              -0.000375280               0.001380594               0.001005314               0.000000000               0.000000000               0.000000000               0.000000000               0.000221535               0.003742528              -0.000052475              -0.000384740               0.001375744               0.000991004               0.000000000               0.000000000               0.000000000               0.000000000               0.000192311               0.003727439              -0.000048738              -0.000393812               0.001373738               0.000979926               0.000000000               0.000000000               0.000000000               0.000000000               0.000169521               0.003717543              -0.000043339              -0.000401121               0.001372876               0.000971754               0.000000000               0.000000000               0.000000000               0.000000000               0.000148220               0.003713577              -0.000041015              -0.000408613               0.001374051               0.000965438               0.000000000               0.000000000               0.000000000               0.000000000               0.000123692               0.003716658              -0.000041658              -0.000418197               0.001378273               0.000960076               0.000000000               0.000000000               0.000000000               0.000000000               0.000093610               0.003727107              -0.000043671              -0.000430783               0.001385951               0.000955168               0.000000000               0.000000000               0.000000000               0.000000000               0.000061474               0.003743170              -0.000040667              -0.000444843               0.001395992               0.000951149               0.000000000               0.000000000               0.000000000               0.000000000               0.000031310               0.003761919              -0.000026296              -0.000458497               0.001406793               0.000948296               0.000000000               0.000000000               0.000000000               0.000000000               0.000019449               0.003774870              -0.000017775              -0.000464564               0.001413132               0.000948568               0.000000000               0.000000000               0.000000000               0.000000000               0.001246156               0.004217696              -0.001830743              -0.000059906               0.001425852               0.001365947               0.000000000               0.000000000               0.000000000               0.000000000               0.000766557               0.004004523              -0.001257581              -0.000213107               0.001405863               0.001192756               0.000000000               0.000000000               0.000000000               0.000000000               0.000452921               0.004021825              -0.000672854              -0.000332882               0.001451556               0.001118673               0.000000000               0.000000000               0.000000000               0.000000000               0.000332321               0.003935907              -0.000419770              -0.000367367               0.001434412               0.001067045               0.000000000               0.000000000               0.000000000               0.000000000               0.000277282               0.003850323              -0.000285713              -0.000377309               0.001409198               0.001031889               0.000000000               0.000000000               0.000000000               0.000000000               0.000247520               0.003787167              -0.000210821              -0.000380575               0.001389235               0.001008660               0.000000000               0.000000000               0.000000000               0.000000000               0.000224339               0.003743447              -0.000164408              -0.000383803               0.001375738               0.000991935               0.000000000               0.000000000               0.000000000               0.000000000               0.000200486               0.003720723              -0.000133036              -0.000389907               0.001370198               0.000980291               0.000000000               0.000000000               0.000000000               0.000000000               0.000179667               0.003710037              -0.000120796              -0.000396379               0.001368793               0.000972414               0.000000000               0.000000000               0.000000000               0.000000000               0.000159192               0.003700470              -0.000116381              -0.000402861               0.001367764               0.000964904               0.000000000               0.000000000               0.000000000               0.000000000               0.000139572               0.003688824              -0.000107139              -0.000408762               0.001365850               0.000957087               0.000000000               0.000000000               0.000000000               0.000000000               0.000120071               0.003681062              -0.000095935              -0.000415105               0.001365377               0.000950272               0.000000000               0.000000000               0.000000000               0.000000000               0.000095261               0.003677799              -0.000084049              -0.000424001               0.001367254               0.000943253               0.000000000               0.000000000               0.000000000               0.000000000               0.000066110               0.003677811              -0.000070127              -0.000434934               0.001370903               0.000935969               0.000000000               0.000000000               0.000000000               0.000000000               0.000037172               0.003678876              -0.000051414              -0.000445919               0.001374920               0.000929001               0.000000000               0.000000000               0.000000000               0.000000000               0.000014972               0.003672593              -0.000026220              -0.000453458               0.001375338               0.000921880               0.000000000               0.000000000               0.000000000               0.000000000               0.000001460               0.003659018              -0.000009979              -0.000456829               0.001371937               0.000915108               0.000000000               0.000000000               0.000000000               0.000000000               0.001245780               0.003465409              -0.001722808               0.000033989               0.001143795               0.001177784               0.000000000               0.000000000               0.000000000               0.000000000               0.000733956               0.003520145              -0.001254138              -0.000164786               0.001228298               0.001063512               0.000000000               0.000000000               0.000000000               0.000000000               0.000370577               0.003747710              -0.000754172              -0.000329497               0.001359056               0.001029559               0.000000000               0.000000000               0.000000000               0.000000000               0.000263110               0.003749512              -0.000514541              -0.000370022               0.001373165               0.001003143               0.000000000               0.000000000               0.000000000               0.000000000               0.000225112               0.003716163              -0.000373128              -0.000380102               0.001365409               0.000985307               0.000000000               0.000000000               0.000000000               0.000000000               0.000207947               0.003688136              -0.000289059              -0.000383036               0.001357045               0.000974009               0.000000000               0.000000000               0.000000000               0.000000000               0.000195329               0.003678598              -0.000238375              -0.000386576               0.001355046               0.000968470               0.000000000               0.000000000               0.000000000               0.000000000               0.000177826               0.003674741              -0.000201329              -0.000392657               0.001355787               0.000963130               0.000000000               0.000000000               0.000000000               0.000000000               0.000158456               0.003666197              -0.000179833              -0.000398853               0.001355004               0.000956152               0.000000000               0.000000000               0.000000000               0.000000000               0.000137532               0.003652128              -0.000167161              -0.000404941               0.001352344               0.000947404               0.000000000               0.000000000               0.000000000               0.000000000               0.000112128               0.003636242              -0.000147772              -0.000412481               0.001349562               0.000937081               0.000000000               0.000000000               0.000000000               0.000000000               0.000082844               0.003620218              -0.000121079              -0.000421460               0.001347214               0.000925754               0.000000000               0.000000000               0.000000000               0.000000000               0.000051664               0.003604609              -0.000091082              -0.000431201               0.001345258               0.000914057               0.000000000               0.000000000               0.000000000               0.000000000               0.000022211               0.003589582              -0.000060082              -0.000440368               0.001343305               0.000902937               0.000000000               0.000000000               0.000000000               0.000000000              -0.000001394               0.003570713              -0.000031237              -0.000446861               0.001339179               0.000892319               0.000000000               0.000000000               0.000000000               0.000000000              -0.000010071               0.003543221              -0.000008765              -0.000446678               0.001329955               0.000883276               0.000000000               0.000000000               0.000000000               0.000000000              -0.000014391               0.003517169               0.000003398              -0.000445042               0.001320725               0.000875683               0.000000000               0.000000000               0.000000000               0.000000000               0.001216041               0.002819233              -0.001550167               0.000103608               0.000905198               0.001008807               0.000000000               0.000000000               0.000000000               0.000000000               0.000712912               0.003088788              -0.001226584              -0.000118758               0.001069171               0.000950413               0.000000000               0.000000000               0.000000000               0.000000000               0.000333057               0.003490964              -0.000840641              -0.000311474               0.001267468               0.000955994               0.000000000               0.000000000               0.000000000               0.000000000               0.000240978               0.003580119              -0.000610883              -0.000357148               0.001312410               0.000955263               0.000000000               0.000000000               0.000000000               0.000000000               0.000213429               0.003598377              -0.000463500              -0.000369760               0.001322701               0.000952940               0.000000000               0.000000000               0.000000000               0.000000000               0.000204231               0.003609962              -0.000368257              -0.000374658               0.001328195               0.000953537               0.000000000               0.000000000               0.000000000               0.000000000               0.000195985               0.003628209              -0.000308382              -0.000380031               0.001336068               0.000956037               0.000000000               0.000000000               0.000000000               0.000000000               0.000179037               0.003636933              -0.000264403              -0.000387477               0.001341458               0.000953981               0.000000000               0.000000000               0.000000000               0.000000000               0.000158272               0.003626062              -0.000230459              -0.000393905               0.001339977               0.000946072               0.000000000               0.000000000               0.000000000               0.000000000               0.000133782               0.003605473              -0.000203743              -0.000400515               0.001335317               0.000934802               0.000000000               0.000000000               0.000000000               0.000000000               0.000104036               0.003585810              -0.000173569              -0.000409212               0.001331662               0.000922450               0.000000000               0.000000000               0.000000000               0.000000000               0.000067697               0.003563174              -0.000136027              -0.000420009               0.001327716               0.000907706               0.000000000               0.000000000               0.000000000               0.000000000               0.000026487               0.003538575              -0.000093832              -0.000432388               0.001323643               0.000891255               0.000000000               0.000000000               0.000000000               0.000000000              -0.000015087               0.003510020              -0.000054291              -0.000444409               0.001318131               0.000873722               0.000000000               0.000000000               0.000000000               0.000000000              -0.000049009               0.003472362              -0.000023268              -0.000452423               0.001308250               0.000855827               0.000000000               0.000000000               0.000000000               0.000000000              -0.000066089               0.003424705              -0.000003271              -0.000452870               0.001292514               0.000839643               0.000000000               0.000000000               0.000000000               0.000000000              -0.000069039               0.003393008               0.000004667              -0.000450015               0.001280996               0.000830982               0.000000000               0.000000000               0.000000000               0.000000000               0.001142747               0.002197817              -0.001347779               0.000153800               0.000681331               0.000835131               0.000000000               0.000000000               0.000000000               0.000000000               0.000716466               0.002588768              -0.001187280              -0.000054923               0.000881221               0.000826299               0.000000000               0.000000000               0.000000000               0.000000000               0.000348959               0.003119028              -0.000940973              -0.000259019               0.001126005               0.000866986               0.000000000               0.000000000               0.000000000               0.000000000               0.000256584               0.003309535              -0.000729278              -0.000317473               0.001208991               0.000891519               0.000000000               0.000000000               0.000000000               0.000000000               0.000233918               0.003398785              -0.000577402              -0.000337128               0.001245293               0.000908165               0.000000000               0.000000000               0.000000000               0.000000000               0.000231339               0.003467275              -0.000471348              -0.000346657               0.001271299               0.000924642               0.000000000               0.000000000               0.000000000               0.000000000               0.000229607               0.003519295              -0.000395247              -0.000353809               0.001291023               0.000937214               0.000000000               0.000000000               0.000000000               0.000000000               0.000211431               0.003546670              -0.000336953              -0.000364046               0.001303560               0.000939514               0.000000000               0.000000000               0.000000000               0.000000000               0.000185580               0.003550656              -0.000290596              -0.000374239               0.001308286               0.000934048               0.000000000               0.000000000               0.000000000               0.000000000               0.000155461               0.003536579              -0.000250829              -0.000383774               0.001306772               0.000922999               0.000000000               0.000000000               0.000000000               0.000000000               0.000120558               0.003510545              -0.000211512              -0.000393608               0.001301373               0.000907765               0.000000000               0.000000000               0.000000000               0.000000000               0.000078902               0.003480932              -0.000166718              -0.000405527               0.001295475               0.000889947               0.000000000               0.000000000               0.000000000               0.000000000               0.000029209               0.003452022              -0.000118058              -0.000420548               0.001290845               0.000870297               0.000000000               0.000000000               0.000000000               0.000000000              -0.000025176               0.003424604              -0.000073278              -0.000437516               0.001287362               0.000849846               0.000000000               0.000000000               0.000000000               0.000000000              -0.000078974               0.003394565              -0.000037267              -0.000453935               0.001282822               0.000828887               0.000000000               0.000000000               0.000000000               0.000000000              -0.000124825               0.003356716              -0.000012657              -0.000466398               0.001274360               0.000807962               0.000000000               0.000000000               0.000000000               0.000000000              -0.000149426               0.003329043              -0.000000583              -0.000472164               0.001267058               0.000794894               0.000000000               0.000000000               0.000000000               0.000000000               0.000992425               0.001612790              -0.001118304               0.000170558               0.000480738               0.000651296               0.000000000               0.000000000               0.000000000               0.000000000               0.000713814               0.002088772              -0.001113495               0.000006582               0.000694056               0.000700638               0.000000000               0.000000000               0.000000000               0.000000000               0.000410382               0.002705682              -0.001014642              -0.000184318               0.000963324               0.000779006               0.000000000               0.000000000               0.000000000               0.000000000               0.000314414               0.002994333              -0.000843856              -0.000256387               0.001083563               0.000827176               0.000000000               0.000000000               0.000000000               0.000000000               0.000288348               0.003164497              -0.000697325              -0.000287432               0.001150632               0.000863201               0.000000000               0.000000000               0.000000000               0.000000000               0.000281665               0.003287309              -0.000584636              -0.000305289               0.001197521               0.000892233               0.000000000               0.000000000               0.000000000               0.000000000               0.000276191               0.003373397              -0.000493789              -0.000318102               0.001230489               0.000912386               0.000000000               0.000000000               0.000000000               0.000000000               0.000259412               0.003430920              -0.000420318              -0.000331585               0.001254157               0.000922572               0.000000000               0.000000000               0.000000000               0.000000000               0.000231398               0.003466138              -0.000362235              -0.000346492               0.001270865               0.000924373               0.000000000               0.000000000               0.000000000               0.000000000               0.000198641               0.003472734              -0.000313831              -0.000359600               0.001277433               0.000917833               0.000000000               0.000000000               0.000000000               0.000000000               0.000164694               0.003457291              -0.000269406              -0.000370400               0.001275886               0.000905485               0.000000000               0.000000000               0.000000000               0.000000000               0.000125133               0.003432588              -0.000219680              -0.000382148               0.001271567               0.000889419               0.000000000               0.000000000               0.000000000               0.000000000               0.000076949               0.003406182              -0.000166487              -0.000396916               0.001267688               0.000870772               0.000000000               0.000000000               0.000000000               0.000000000               0.000017730               0.003379803              -0.000115155              -0.000415826               0.001265198               0.000849373               0.000000000               0.000000000               0.000000000               0.000000000              -0.000051389               0.003357603              -0.000069282              -0.000438970               0.001265513               0.000826543               0.000000000               0.000000000               0.000000000               0.000000000              -0.000128188               0.003336624              -0.000030122              -0.000465147               0.001267246               0.000802099               0.000000000               0.000000000               0.000000000               0.000000000              -0.000183604               0.003311832              -0.000005462              -0.000482829               0.001264876               0.000782047               0.000000000               0.000000000               0.000000000               0.000000000               0.000772865               0.001104446              -0.000866110               0.000151766               0.000317556               0.000469322               0.000000000               0.000000000               0.000000000               0.000000000               0.000671660               0.001613771              -0.000989382               0.000050149               0.000521201               0.000571351               0.000000000               0.000000000               0.000000000               0.000000000               0.000485423               0.002257049              -0.001021907              -0.000100098               0.000785708               0.000685610               0.000000000               0.000000000               0.000000000               0.000000000               0.000410786               0.002624313              -0.000907561              -0.000173995               0.000932760               0.000758765               0.000000000               0.000000000               0.000000000               0.000000000               0.000380513               0.002865828              -0.000781125              -0.000215536               0.001027112               0.000811576               0.000000000               0.000000000               0.000000000               0.000000000               0.000363165               0.003040928              -0.000670715              -0.000243929               0.001094942               0.000851013               0.000000000               0.000000000               0.000000000               0.000000000               0.000345342               0.003171532              -0.000574397              -0.000266938               0.001146146               0.000879208               0.000000000               0.000000000               0.000000000               0.000000000               0.000324270               0.003273109              -0.000491424              -0.000287537               0.001186871               0.000899334               0.000000000               0.000000000               0.000000000               0.000000000               0.000291958               0.003340842              -0.000425662              -0.000308120               0.001216310               0.000908189               0.000000000               0.000000000               0.000000000               0.000000000               0.000255522               0.003374350              -0.000374266              -0.000325972               0.001233429               0.000907457               0.000000000               0.000000000               0.000000000               0.000000000               0.000218987               0.003386614              -0.000325731              -0.000341206               0.001242595               0.000901389               0.000000000               0.000000000               0.000000000               0.000000000               0.000183094               0.003384154              -0.000272466              -0.000354358               0.001246160               0.000891801               0.000000000               0.000000000               0.000000000               0.000000000               0.000142996               0.003371401              -0.000216694              -0.000367801               0.001246389               0.000878589               0.000000000               0.000000000               0.000000000               0.000000000               0.000090557               0.003351411              -0.000159902              -0.000384967               0.001245448               0.000860481               0.000000000               0.000000000               0.000000000               0.000000000               0.000021970               0.003335436              -0.000102547              -0.000408690               0.001248031               0.000839341               0.000000000               0.000000000               0.000000000               0.000000000              -0.000065021               0.003323066              -0.000047880              -0.000439765               0.001254266               0.000814501               0.000000000               0.000000000               0.000000000               0.000000000              -0.000134490               0.003302103              -0.000014374              -0.000463196               0.001255089               0.000791893               0.000000000               0.000000000               0.000000000               0.000000000               0.000507800               0.000702130              -0.000619415               0.000102657               0.000199821               0.000302479               0.000000000               0.000000000               0.000000000               0.000000000               0.000601410               0.001189529              -0.000824233               0.000076836               0.000370893               0.000447729               0.000000000               0.000000000               0.000000000               0.000000000               0.000560698               0.001806248              -0.000953885              -0.000015521               0.000607250               0.000591729               0.000000000               0.000000000               0.000000000               0.000000000               0.000529149               0.002220999              -0.000898249              -0.000079195               0.000766724               0.000687529               0.000000000               0.000000000               0.000000000               0.000000000               0.000502228               0.002519122              -0.000800166              -0.000126555               0.000881884               0.000755329               0.000000000               0.000000000               0.000000000               0.000000000               0.000472306               0.002748773              -0.000701698              -0.000166482               0.000971742               0.000805260               0.000000000               0.000000000               0.000000000               0.000000000               0.000440902               0.002928399              -0.000611528              -0.000200712               0.001043027               0.000842315               0.000000000               0.000000000               0.000000000               0.000000000               0.000413014               0.003068546              -0.000531309              -0.000228688               0.001099068               0.000870380               0.000000000               0.000000000               0.000000000               0.000000000               0.000377592               0.003173920              -0.000464737              -0.000255142               0.001143010               0.000887868               0.000000000               0.000000000               0.000000000               0.000000000               0.000334165               0.003252091              -0.000412361              -0.000281199               0.001177753               0.000896554               0.000000000               0.000000000               0.000000000               0.000000000               0.000289970               0.003300690              -0.000366403              -0.000303847               0.001201501               0.000897654               0.000000000               0.000000000               0.000000000               0.000000000               0.000253981               0.003324738              -0.000318460              -0.000320349               0.001215018               0.000894669               0.000000000               0.000000000               0.000000000               0.000000000               0.000220620               0.003333826              -0.000262838              -0.000333995               0.001222596               0.000888601               0.000000000               0.000000000               0.000000000               0.000000000               0.000178862               0.003332456              -0.000199832              -0.000349483               0.001227302               0.000877819               0.000000000               0.000000000               0.000000000               0.000000000               0.000121688               0.003327133              -0.000132278              -0.000370258               0.001232452               0.000862195               0.000000000               0.000000000               0.000000000               0.000000000               0.000047013               0.003320633              -0.000065284              -0.000397448               0.001239350               0.000841901               0.000000000               0.000000000               0.000000000               0.000000000              -0.000016420               0.003304815              -0.000025576              -0.000419258               0.001241347               0.000822089               0.000000000               0.000000000               0.000000000               0.000000000               0.000232244               0.000406696              -0.000404995               0.000036254               0.000123479               0.000159733               0.000000000               0.000000000               0.000000000               0.000000000               0.000516351               0.000838875              -0.000633586               0.000088771               0.000250031               0.000338802               0.000000000               0.000000000               0.000000000               0.000000000               0.000632091               0.001394615              -0.000807609               0.000062706               0.000443965               0.000506670               0.000000000               0.000000000               0.000000000               0.000000000               0.000649375               0.001822275              -0.000798277               0.000015730               0.000602175               0.000617905               0.000000000               0.000000000               0.000000000               0.000000000               0.000632010               0.002159656              -0.000730153              -0.000032954               0.000730863               0.000697909               0.000000000               0.000000000               0.000000000               0.000000000               0.000597021               0.002435071              -0.000650576              -0.000080501               0.000838516               0.000758015               0.000000000               0.000000000               0.000000000               0.000000000               0.000557649               0.002656972              -0.000578372              -0.000123003               0.000926649               0.000803646               0.000000000               0.000000000               0.000000000               0.000000000               0.000525193               0.002837413              -0.000512203              -0.000157729               0.000998371               0.000840642               0.000000000               0.000000000               0.000000000               0.000000000               0.000487513               0.002985800              -0.000450912              -0.000190408               0.001058726               0.000868318               0.000000000               0.000000000               0.000000000               0.000000000               0.000440333               0.003106089              -0.000402949              -0.000223136               0.001109731               0.000886595               0.000000000               0.000000000               0.000000000               0.000000000               0.000393887               0.003190975              -0.000367130              -0.000251164               0.001147369               0.000896205               0.000000000               0.000000000               0.000000000               0.000000000               0.000353581               0.003245636              -0.000329516              -0.000273111               0.001172905               0.000899794               0.000000000               0.000000000               0.000000000               0.000000000               0.000318326               0.003281014              -0.000278728              -0.000290754               0.001190579               0.000899825               0.000000000               0.000000000               0.000000000               0.000000000               0.000282854               0.003300933              -0.000215649              -0.000306546               0.001202482               0.000895936               0.000000000               0.000000000               0.000000000               0.000000000               0.000245564               0.003312667              -0.000145882              -0.000321996               0.001211543               0.000889547               0.000000000               0.000000000               0.000000000               0.000000000               0.000200423               0.003317903              -0.000074023              -0.000339578               0.001219149               0.000879571               0.000000000               0.000000000               0.000000000               0.000000000               0.000162607               0.003311079              -0.000034026              -0.000352906               0.001221317               0.000868411               0.000000000               0.000000000               0.000000000               0.000000000              -0.000009325               0.000216151              -0.000232019              -0.000030516               0.000082222               0.000051705               0.000000000               0.000000000               0.000000000               0.000000000               0.000432120               0.000579212              -0.000427724               0.000089642               0.000163188               0.000252830               0.000000000               0.000000000               0.000000000               0.000000000               0.000688426               0.001059145              -0.000588649               0.000125765               0.000311123               0.000436888               0.000000000               0.000000000               0.000000000               0.000000000               0.000753058               0.001480002              -0.000601549               0.000097395               0.000460864               0.000558259               0.000000000               0.000000000               0.000000000               0.000000000               0.000749123               0.001837726              -0.000561292               0.000051205               0.000595501               0.000646705               0.000000000               0.000000000               0.000000000               0.000000000               0.000720020               0.002140903              -0.000507614               0.000002394               0.000712829               0.000715223               0.000000000               0.000000000               0.000000000               0.000000000               0.000682708               0.002398250              -0.000459652              -0.000043766               0.000813997               0.000770231               0.000000000               0.000000000               0.000000000               0.000000000               0.000642928               0.002617607              -0.000411020              -0.000086103               0.000901228               0.000815125               0.000000000               0.000000000               0.000000000               0.000000000               0.000601103               0.002799523              -0.000361404              -0.000124527               0.000974674               0.000850147               0.000000000               0.000000000               0.000000000               0.000000000               0.000556660               0.002945889              -0.000326044              -0.000159488               0.001035116               0.000875628               0.000000000               0.000000000               0.000000000               0.000000000               0.000511479               0.003061727              -0.000302505              -0.000190911               0.001084202               0.000893292               0.000000000               0.000000000               0.000000000               0.000000000               0.000466833               0.003150788              -0.000274971              -0.000218786               0.001123181               0.000904395               0.000000000               0.000000000               0.000000000               0.000000000               0.000428185               0.003212786              -0.000234926              -0.000241028               0.001151261               0.000910232               0.000000000               0.000000000               0.000000000               0.000000000               0.000398894               0.003253312              -0.000184684              -0.000257078               0.001170119               0.000913041               0.000000000               0.000000000               0.000000000               0.000000000               0.000382133               0.003284466              -0.000127515              -0.000267258               0.001183897               0.000916639               0.000000000               0.000000000               0.000000000               0.000000000               0.000374185               0.003304920              -0.000065480              -0.000272795               0.001192561               0.000919766               0.000000000               0.000000000               0.000000000               0.000000000               0.000370071               0.003309438              -0.000032702              -0.000274903               0.001194769               0.000919867               0.000000000               0.000000000               0.000000000               0.000000000              -0.000179335               0.000112023              -0.000103207              -0.000081254               0.000064425              -0.000016829               0.000000000               0.000000000               0.000000000               0.000000000               0.000369414               0.000418797              -0.000214908               0.000086180               0.000110871               0.000197051               0.000000000               0.000000000               0.000000000               0.000000000               0.000721338               0.000837053              -0.000309685               0.000165869               0.000223725               0.000389594               0.000000000               0.000000000               0.000000000               0.000000000               0.000823975               0.001247656              -0.000323269               0.000153032               0.000364870               0.000517903               0.000000000               0.000000000               0.000000000               0.000000000               0.000835976               0.001611970              -0.000305892               0.000111994               0.000499987               0.000611981               0.000000000               0.000000000               0.000000000               0.000000000               0.000814885               0.001928426              -0.000280040               0.000064528               0.000621293               0.000685821               0.000000000               0.000000000               0.000000000               0.000000000               0.000778490               0.002208020              -0.000256723               0.000015931               0.000730689               0.000746620               0.000000000               0.000000000               0.000000000               0.000000000               0.000732988               0.002452479              -0.000229777              -0.000031689               0.000828048               0.000796358               0.000000000               0.000000000               0.000000000               0.000000000               0.000690386               0.002655272              -0.000201846              -0.000073014               0.000909420               0.000836406               0.000000000               0.000000000               0.000000000               0.000000000               0.000648611               0.002817758              -0.000183912              -0.000108990               0.000975573               0.000866583               0.000000000               0.000000000               0.000000000               0.000000000               0.000601496               0.002952620              -0.000171745              -0.000143516               0.001032035               0.000888519               0.000000000               0.000000000               0.000000000               0.000000000               0.000552609               0.003065409              -0.000156673              -0.000175947               0.001080442               0.000904495               0.000000000               0.000000000               0.000000000               0.000000000               0.000511670               0.003153405              -0.000134852              -0.000202299               0.001118557               0.000916259               0.000000000               0.000000000               0.000000000               0.000000000               0.000488026               0.003218949              -0.000106809              -0.000219358               0.001146092               0.000926733               0.000000000               0.000000000               0.000000000               0.000000000               0.000486358               0.003267095              -0.000075466              -0.000226002               0.001164355               0.000938353               0.000000000               0.000000000               0.000000000               0.000000000               0.000507968               0.003297402              -0.000040157              -0.000221687               0.001173019               0.000951332               0.000000000               0.000000000               0.000000000               0.000000000               0.000533479               0.003310293              -0.000021272              -0.000213731               0.001174664               0.000960932               0.000000000               0.000000000               0.000000000               0.000000000               0.000000000               0.000000000               0.000000000               0.000000000               0.000000000               0.000000000               0.000000000               0.000000000               0.000000000               0.000000000               0.000000000               0.000000000               0.000000000               0.000000000               0.000000000               0.000000000               0.000000000               0.000000000               0.000000000               0.000000000               0.000000000               0.000000000               0.000000000               0.000000000               0.000000000               0.000000000               0.000000000               0.000000000               0.000000000               0.000000000               0.000000000               0.000000000               0.000000000               0.000000000               0.000000000               0.000000000               0.000000000               0.000000000               0.000000000               0.000000000               0.000000000               0.000000000               0.000000000               0.000000000               0.000000000               0.000000000               0.000000000               0.000000000               0.000000000               0.000000000               0.000000000               0.000000000               0.000000000               0.000000000               0.000000000               0.000000000               0.000000000               0.000000000               0.000000000               0.000000000               0.000000000               0.000000000               0.000000000               0.000000000               0.000000000               0.000000000               0.000000000               0.000000000               0.000000000               0.000000000               0.000000000               0.000000000               0.000000000               0.000000000               0.000000000               0.000000000               0.000000000               0.000000000               0.000000000               0.000000000               0.000000000               0.000000000               0.000000000               0.000000000               0.000000000               0.000000000               0.000000000               0.000000000               0.000000000               0.000000000               0.000000000               0.000000000               0.000000000               0.000000000               0.000000000               0.000000000               0.000000000               0.000000000               0.000000000               0.000000000               0.000000000               0.000000000               0.000000000               0.000000000               0.000000000               0.000000000               0.000000000               0.000000000               0.000000000               0.000000000               0.000000000               0.000000000               0.000000000               0.000000000               0.000000000               0.000000000               0.000000000               0.000000000               0.000000000               0.000000000               0.000000000               0.000000000               0.000000000               0.000000000               0.000000000               0.000000000               0.000000000               0.000000000               0.000000000               0.000000000               0.000000000               0.000000000               0.000000000               0.000000000               0.000000000               0.000000000               0.000000000               0.000000000               0.000000000               0.000000000               0.000000000               0.000000000               0.000000000               0.000000000               0.000000000               0.000000000               0.000000000               0.000000000               0.000000000               0.000000000               0.000000000               0.000000000               0.000000000               0.000000000               0.000000000               0.000000000               0.000000000               0.000000000               0.000000000               0.000000000               0.000000000               0.000000000               0.000000000               0.000000000               0.000000000               0.000000000               0.000000000               0.000000000               0.000000000               0.000000000               0.000000000               0.000000000               0.000000000               0.000000000               0.000000000               0.000000000               0.000000000               0.000000000               0.000000000               0.000000000               0.000000000               0.000000000               0.000000000               0.000000000               0.000000000               0.000000000               0.000000000               0.000000000               0.000000000               0.000000000               0.000000000               0.000000000               0.000000000               0.000000000               0.000000000               0.000000000               0.000000000               0.000000000               0.000000000               0.000000000               0.000000000               0.000000000               0.000000000               0.000000000               0.000000000               0.000000000               0.000000000               0.000000000               0.000000000               0.000000000               0.000000000               0.000000000               0.000000000               0.000000000               0.000000000               0.000000000               0.000000000               0.000000000               0.000000000               0.000000000               0.000000000               0.000000000               0.000000000               0.000000000               0.000000000               0.000000000               0.000000000               0.000000000               0.000000000               0.000000000               0.000000000               0.000000000               0.000000000               0.000000000               0.000000000               0.000000000               0.000000000               0.000000000               0.000000000               0.000000000               0.000000000               0.000000000               0.000000000               0.000000000               0.000000000               0.000000000               0.000000000               0.000000000               0.000000000               0.000000000               0.000000000               0.000000000               0.000000000               0.000000000               0.000000000               0.000000000               0.000000000               0.000000000               0.000000000               0.000000000               0.000000000               0.000000000               0.000000000               0.000000000               0.000000000               0.000000000               0.000000000               0.000000000               0.000000000               0.000000000               0.000000000               0.000000000               0.000000000               0.000000000               0.000000000               0.000000000               0.000000000               0.000000000               0.000000000               0.000000000               0.000000000               0.000000000               0.000000000               0.000000000               0.000000000               0.000000000               0.000000000               0.000000000               0.000000000               0.000000000               0.000000000               0.000000000               0.000000000               0.000000000               0.000000000               0.000000000               0.000000000               0.000000000               0.000000000               0.000000000               0.000000000               0.000000000               0.000000000               0.000000000               0.000000000               0.000000000               0.000000000               0.000000000               0.000000000               0.000000000               0.000000000               0.000000000               0.000000000               0.000000000               0.000000000               0.000000000               0.000000000               0.000000000               0.000000000               0.000000000               0.000000000               0.000000000               0.000000000               0.000000000               0.000000000               0.000000000               0.000000000               0.000000000               0.000000000               0.000000000               0.000000000               0.000000000               0.000000000               0.000000000               0.000000000               0.000000000               0.000000000               0.000000000               0.000000000               0.000000000               0.000697147               0.007513007               0.000565733              -0.000677694               0.002730209               0.002052514               0.000000000               0.000000000               0.000000000               0.000000000               0.000725190               0.006210397               0.000352820              -0.000504352               0.002238229               0.001733877               0.000000000               0.000000000               0.000000000               0.000000000               0.000969416               0.005177868               0.000134635              -0.000283702               0.001820506               0.001536804               0.000000000               0.000000000               0.000000000               0.000000000               0.000992127               0.004612031               0.000034429              -0.000204456               0.001605480               0.001401024               0.000000000               0.000000000               0.000000000               0.000000000               0.000940598               0.004281271              -0.000011631              -0.000182434               0.001487887               0.001305453               0.000000000               0.000000000               0.000000000               0.000000000               0.000863521               0.004075708              -0.000032150              -0.000185643               0.001420437               0.001234794               0.000000000               0.000000000               0.000000000               0.000000000               0.000774326               0.003941911              -0.000041904              -0.000202366               0.001381413               0.001179046               0.000000000               0.000000000               0.000000000               0.000000000               0.000683405               0.003852580              -0.000044218              -0.000225295               0.001359279               0.001133984               0.000000000               0.000000000               0.000000000               0.000000000               0.000595920               0.003791325              -0.000044500              -0.000250445               0.001347244               0.001096799               0.000000000               0.000000000               0.000000000               0.000000000               0.000506800               0.003748988              -0.000044923              -0.000278573               0.001342508               0.001063935               0.000000000               0.000000000               0.000000000               0.000000000               0.000417194               0.003720847              -0.000044136              -0.000308657               0.001343156               0.001034498               0.000000000               0.000000000               0.000000000               0.000000000               0.000333586               0.003703175              -0.000042380              -0.000337801               0.001346980               0.001009178               0.000000000               0.000000000               0.000000000               0.000000000               0.000255092               0.003691378              -0.000038929              -0.000365762               0.001352368               0.000986606               0.000000000               0.000000000               0.000000000               0.000000000               0.000180545               0.003680996              -0.000034645              -0.000392419               0.001357793               0.000965374               0.000000000               0.000000000               0.000000000               0.000000000               0.000114304               0.003672031              -0.000028272              -0.000416139               0.001362711               0.000946572               0.000000000               0.000000000               0.000000000               0.000000000               0.000054624               0.003660000              -0.000017249              -0.000437015               0.001365659               0.000928644               0.000000000               0.000000000               0.000000000               0.000000000               0.000026218               0.003652268              -0.000010231              -0.000446700               0.001366311               0.000919610               0.000000000               0.000000000               0.000000000               0.000000000               0.000800347               0.007124767               0.001068653              -0.000590465               0.002571720               0.001981255               0.000000000               0.000000000               0.000000000               0.000000000               0.000747750               0.005942281               0.000670469              -0.000462378               0.002134867               0.001672489               0.000000000               0.000000000               0.000000000               0.000000000               0.000904711               0.005037839               0.000264221              -0.000290463               0.001776084               0.001485621               0.000000000               0.000000000               0.000000000               0.000000000               0.000891165               0.004541370               0.000080648              -0.000233484               0.001591603               0.001358119               0.000000000               0.000000000               0.000000000               0.000000000               0.000825492               0.004243296              -0.000004090              -0.000220852               0.001488035               0.001267183               0.000000000               0.000000000               0.000000000               0.000000000               0.000747597               0.004052566              -0.000042780              -0.000226221               0.001426249               0.001200028               0.000000000               0.000000000               0.000000000               0.000000000               0.000665721               0.003925789              -0.000061539              -0.000241078               0.001388943               0.001147865               0.000000000               0.000000000               0.000000000               0.000000000               0.000584695               0.003840984              -0.000066648              -0.000260862               0.001367269               0.001106407               0.000000000               0.000000000               0.000000000               0.000000000               0.000507638               0.003782261              -0.000066713              -0.000282418               0.001354880               0.001072463               0.000000000               0.000000000               0.000000000               0.000000000               0.000430576               0.003742335              -0.000067808              -0.000306325               0.001349541               0.001043216               0.000000000               0.000000000               0.000000000               0.000000000               0.000353457               0.003717069              -0.000067248              -0.000332086               0.001349706               0.001017620               0.000000000               0.000000000               0.000000000               0.000000000               0.000280619               0.003701777              -0.000064221              -0.000357489               0.001353076               0.000995587               0.000000000               0.000000000               0.000000000               0.000000000               0.000213214               0.003692608              -0.000058118              -0.000381620               0.001358063               0.000976444               0.000000000               0.000000000               0.000000000               0.000000000               0.000152008               0.003687093              -0.000050958              -0.000403883               0.001363646               0.000959764               0.000000000               0.000000000               0.000000000               0.000000000               0.000097753               0.003686136              -0.000041127              -0.000424109               0.001370069               0.000945961               0.000000000               0.000000000               0.000000000               0.000000000               0.000047075               0.003690293              -0.000024767              -0.000443632               0.001377963               0.000934330               0.000000000               0.000000000               0.000000000               0.000000000               0.000025249               0.003699369              -0.000013734              -0.000452952               0.001384095               0.000931143               0.000000000               0.000000000               0.000000000               0.000000000               0.000942954               0.006534453               0.001464454              -0.000463199               0.002332528               0.001869330               0.000000000               0.000000000               0.000000000               0.000000000               0.000772909               0.005539221               0.000926400              -0.000402561               0.001980575               0.001578014               0.000000000               0.000000000               0.000000000               0.000000000               0.000805739               0.004828927               0.000381335              -0.000301463               0.001710114               0.001408651               0.000000000               0.000000000               0.000000000               0.000000000               0.000747487               0.004427121               0.000142959              -0.000273082               0.001566719               0.001293638               0.000000000               0.000000000               0.000000000               0.000000000               0.000670220               0.004176600               0.000034070              -0.000270742               0.001482433               0.001211691               0.000000000               0.000000000               0.000000000               0.000000000               0.000599194               0.004013219              -0.000016758              -0.000276954               0.001430044               0.001153090               0.000000000               0.000000000               0.000000000               0.000000000               0.000529549               0.003903531              -0.000042458              -0.000289360               0.001397617               0.001108257               0.000000000               0.000000000               0.000000000               0.000000000               0.000459729               0.003828257              -0.000050682              -0.000306133               0.001378117               0.001071984               0.000000000               0.000000000               0.000000000               0.000000000               0.000396940               0.003777306              -0.000051921              -0.000323310               0.001366859               0.001043549               0.000000000               0.000000000               0.000000000               0.000000000               0.000336773               0.003742595              -0.000055236              -0.000341534               0.001361364               0.001019830               0.000000000               0.000000000               0.000000000               0.000000000               0.000277735               0.003720712              -0.000056711              -0.000360937               0.001360537               0.000999600               0.000000000               0.000000000               0.000000000               0.000000000               0.000222914               0.003709285              -0.000054145              -0.000380067               0.001363105               0.000983038               0.000000000               0.000000000               0.000000000               0.000000000               0.000172189               0.003705083              -0.000047749              -0.000398564               0.001367870               0.000969306               0.000000000               0.000000000               0.000000000               0.000000000               0.000126015               0.003708278              -0.000039460              -0.000416278               0.001374840               0.000958562               0.000000000               0.000000000               0.000000000               0.000000000               0.000083285               0.003719546              -0.000030172              -0.000433710               0.001384406               0.000950696               0.000000000               0.000000000               0.000000000               0.000000000               0.000040801               0.003744142              -0.000016960              -0.000452716               0.001398940               0.000946224               0.000000000               0.000000000               0.000000000               0.000000000               0.000026437               0.003773826              -0.000005219              -0.000461813               0.001411867               0.000950054               0.000000000               0.000000000               0.000000000               0.000000000               0.001089356               0.005812735               0.001720708              -0.000318084               0.002043587               0.001725503               0.000000000               0.000000000               0.000000000               0.000000000               0.000789774               0.005051824               0.001104101              -0.000335313               0.001795695               0.001460382               0.000000000               0.000000000               0.000000000               0.000000000               0.000683803               0.004575876               0.000485846              -0.000315558               0.001630463               0.001314905               0.000000000               0.000000000               0.000000000               0.000000000               0.000588183               0.004281302               0.000222912              -0.000314594               0.001531951               0.001217357               0.000000000               0.000000000               0.000000000               0.000000000               0.000510775               0.004086934               0.000101483              -0.000319325               0.001468740               0.001149414               0.000000000               0.000000000               0.000000000               0.000000000               0.000448543               0.003956951               0.000043967              -0.000326414               0.001427775               0.001101361               0.000000000               0.000000000               0.000000000               0.000000000               0.000394588               0.003867377               0.000012667              -0.000335451               0.001400930               0.001065479               0.000000000               0.000000000               0.000000000               0.000000000               0.000342874               0.003805581              -0.000002976              -0.000347119               0.001384221               0.001037102               0.000000000               0.000000000               0.000000000               0.000000000               0.000295702               0.003767460              -0.000007743              -0.000360043               0.001375822               0.001015779               0.000000000               0.000000000               0.000000000               0.000000000               0.000251742               0.003740398              -0.000012828              -0.000373146               0.001371169               0.000998023               0.000000000               0.000000000               0.000000000               0.000000000               0.000212125               0.003723679              -0.000017701              -0.000385912               0.001369851               0.000983939               0.000000000               0.000000000               0.000000000               0.000000000               0.000177186               0.003716950              -0.000017448              -0.000398173               0.001371695               0.000973522               0.000000000               0.000000000               0.000000000               0.000000000               0.000144393               0.003719654              -0.000012226              -0.000410808               0.001376809               0.000966000               0.000000000               0.000000000               0.000000000               0.000000000               0.000110039               0.003731656              -0.000004053              -0.000425191               0.001385603               0.000960412               0.000000000               0.000000000               0.000000000               0.000000000               0.000074829               0.003753054               0.000002640              -0.000441070               0.001398029               0.000956959               0.000000000               0.000000000               0.000000000               0.000000000               0.000038228               0.003786940               0.000004263              -0.000459031               0.001415311               0.000956280               0.000000000               0.000000000               0.000000000               0.000000000               0.000027818               0.003821985               0.000008411              -0.000467315               0.001429754               0.000962439               0.000000000               0.000000000               0.000000000               0.000000000               0.001196109               0.005019699               0.001837245              -0.000178923               0.001732857               0.001553934               0.000000000               0.000000000               0.000000000               0.000000000               0.000787623               0.004525952               0.001210832              -0.000270386               0.001598764               0.001328378               0.000000000               0.000000000               0.000000000               0.000000000               0.000561448               0.004299744               0.000583002              -0.000326924               0.001542208               0.001215284               0.000000000               0.000000000               0.000000000               0.000000000               0.000443647               0.004115650               0.000318729              -0.000348088               0.001487899               0.001139811               0.000000000               0.000000000               0.000000000               0.000000000               0.000374630               0.003977275               0.000191299              -0.000356672               0.001444636               0.001087964               0.000000000               0.000000000               0.000000000               0.000000000               0.000327684               0.003880789               0.000125890              -0.000362216               0.001414322               0.001052106               0.000000000               0.000000000               0.000000000               0.000000000               0.000290174               0.003810848               0.000085654              -0.000367540               0.001392783               0.001025243               0.000000000               0.000000000               0.000000000               0.000000000               0.000254764               0.003766540               0.000060674              -0.000375280               0.001380594               0.001005314               0.000000000               0.000000000               0.000000000               0.000000000               0.000221535               0.003742528               0.000052475              -0.000384740               0.001375744               0.000991004               0.000000000               0.000000000               0.000000000               0.000000000               0.000192311               0.003727439               0.000048738              -0.000393812               0.001373738               0.000979926               0.000000000               0.000000000               0.000000000               0.000000000               0.000169521               0.003717543               0.000043339              -0.000401121               0.001372876               0.000971754               0.000000000               0.000000000               0.000000000               0.000000000               0.000148220               0.003713577               0.000041015              -0.000408613               0.001374051               0.000965438               0.000000000               0.000000000               0.000000000               0.000000000               0.000123692               0.003716658               0.000041658              -0.000418197               0.001378273               0.000960076               0.000000000               0.000000000               0.000000000               0.000000000               0.000093610               0.003727107               0.000043671              -0.000430783               0.001385951               0.000955168               0.000000000               0.000000000               0.000000000               0.000000000               0.000061474               0.003743170               0.000040667              -0.000444843               0.001395992               0.000951149               0.000000000               0.000000000               0.000000000               0.000000000               0.000031310               0.003761919               0.000026296              -0.000458497               0.001406793               0.000948296               0.000000000               0.000000000               0.000000000               0.000000000               0.000019449               0.003774870               0.000017775              -0.000464564               0.001413132               0.000948568               0.000000000               0.000000000               0.000000000               0.000000000               0.001246156               0.004217696               0.001830743              -0.000059906               0.001425852               0.001365947               0.000000000               0.000000000               0.000000000               0.000000000               0.000766557               0.004004523               0.001257581              -0.000213107               0.001405863               0.001192756               0.000000000               0.000000000               0.000000000               0.000000000               0.000452921               0.004021825               0.000672854              -0.000332882               0.001451556               0.001118673               0.000000000               0.000000000               0.000000000               0.000000000               0.000332321               0.003935907               0.000419770              -0.000367367               0.001434412               0.001067045               0.000000000               0.000000000               0.000000000               0.000000000               0.000277282               0.003850323               0.000285713              -0.000377309               0.001409198               0.001031889               0.000000000               0.000000000               0.000000000               0.000000000               0.000247520               0.003787167               0.000210821              -0.000380575               0.001389235               0.001008660               0.000000000               0.000000000               0.000000000               0.000000000               0.000224339               0.003743447               0.000164408              -0.000383803               0.001375738               0.000991935               0.000000000               0.000000000               0.000000000               0.000000000               0.000200486               0.003720723               0.000133036              -0.000389907               0.001370198               0.000980291               0.000000000               0.000000000               0.000000000               0.000000000               0.000179667               0.003710037               0.000120796              -0.000396379               0.001368793               0.000972414               0.000000000               0.000000000               0.000000000               0.000000000               0.000159192               0.003700470               0.000116381              -0.000402861               0.001367764               0.000964904               0.000000000               0.000000000               0.000000000               0.000000000               0.000139572               0.003688824               0.000107139              -0.000408762               0.001365850               0.000957087               0.000000000               0.000000000               0.000000000               0.000000000               0.000120071               0.003681062               0.000095935              -0.000415105               0.001365377               0.000950272               0.000000000               0.000000000               0.000000000               0.000000000               0.000095261               0.003677799               0.000084049              -0.000424001               0.001367254               0.000943253               0.000000000               0.000000000               0.000000000               0.000000000               0.000066110               0.003677811               0.000070127              -0.000434934               0.001370903               0.000935969               0.000000000               0.000000000               0.000000000               0.000000000               0.000037172               0.003678876               0.000051414              -0.000445919               0.001374920               0.000929001               0.000000000               0.000000000               0.000000000               0.000000000               0.000014972               0.003672593               0.000026220              -0.000453458               0.001375338               0.000921880               0.000000000               0.000000000               0.000000000               0.000000000               0.000001460               0.003659018               0.000009979              -0.000456829               0.001371937               0.000915108               0.000000000               0.000000000               0.000000000               0.000000000               0.001245780               0.003465409               0.001722808               0.000033989               0.001143795               0.001177784               0.000000000               0.000000000               0.000000000               0.000000000               0.000733956               0.003520145               0.001254138              -0.000164786               0.001228298               0.001063512               0.000000000               0.000000000               0.000000000               0.000000000               0.000370577               0.003747710               0.000754172              -0.000329497               0.001359056               0.001029559               0.000000000               0.000000000               0.000000000               0.000000000               0.000263110               0.003749512               0.000514541              -0.000370022               0.001373165               0.001003143               0.000000000               0.000000000               0.000000000               0.000000000               0.000225112               0.003716163               0.000373128              -0.000380102               0.001365409               0.000985307               0.000000000               0.000000000               0.000000000               0.000000000               0.000207947               0.003688136               0.000289059              -0.000383036               0.001357045               0.000974009               0.000000000               0.000000000               0.000000000               0.000000000               0.000195329               0.003678598               0.000238375              -0.000386576               0.001355046               0.000968470               0.000000000               0.000000000               0.000000000               0.000000000               0.000177826               0.003674741               0.000201329              -0.000392657               0.001355787               0.000963130               0.000000000               0.000000000               0.000000000               0.000000000               0.000158456               0.003666197               0.000179833              -0.000398853               0.001355004               0.000956152               0.000000000               0.000000000               0.000000000               0.000000000               0.000137532               0.003652128               0.000167161              -0.000404941               0.001352344               0.000947404               0.000000000               0.000000000               0.000000000               0.000000000               0.000112128               0.003636242               0.000147772              -0.000412481               0.001349562               0.000937081               0.000000000               0.000000000               0.000000000               0.000000000               0.000082844               0.003620218               0.000121079              -0.000421460               0.001347214               0.000925754               0.000000000               0.000000000               0.000000000               0.000000000               0.000051664               0.003604609               0.000091082              -0.000431201               0.001345258               0.000914057               0.000000000               0.000000000               0.000000000               0.000000000               0.000022211               0.003589582               0.000060082              -0.000440368               0.001343305               0.000902937               0.000000000               0.000000000               0.000000000               0.000000000              -0.000001394               0.003570713               0.000031237              -0.000446861               0.001339179               0.000892319               0.000000000               0.000000000               0.000000000               0.000000000              -0.000010071               0.003543221               0.000008765              -0.000446678               0.001329955               0.000883276               0.000000000               0.000000000               0.000000000               0.000000000              -0.000014391               0.003517169              -0.000003398              -0.000445042               0.001320725               0.000875683               0.000000000               0.000000000               0.000000000               0.000000000               0.001216041               0.002819233               0.001550167               0.000103608               0.000905198               0.001008807               0.000000000               0.000000000               0.000000000               0.000000000               0.000712912               0.003088788               0.001226584              -0.000118758               0.001069171               0.000950413               0.000000000               0.000000000               0.000000000               0.000000000               0.000333057               0.003490964               0.000840641              -0.000311474               0.001267468               0.000955994               0.000000000               0.000000000               0.000000000               0.000000000               0.000240978               0.003580119               0.000610883              -0.000357148               0.001312410               0.000955263               0.000000000               0.000000000               0.000000000               0.000000000               0.000213429               0.003598377               0.000463500              -0.000369760               0.001322701               0.000952940               0.000000000               0.000000000               0.000000000               0.000000000               0.000204231               0.003609962               0.000368257              -0.000374658               0.001328195               0.000953537               0.000000000               0.000000000               0.000000000               0.000000000               0.000195985               0.003628209               0.000308382              -0.000380031               0.001336068               0.000956037               0.000000000               0.000000000               0.000000000               0.000000000               0.000179037               0.003636933               0.000264403              -0.000387477               0.001341458               0.000953981               0.000000000               0.000000000               0.000000000               0.000000000               0.000158272               0.003626062               0.000230459              -0.000393905               0.001339977               0.000946072               0.000000000               0.000000000               0.000000000               0.000000000               0.000133782               0.003605473               0.000203743              -0.000400515               0.001335317               0.000934802               0.000000000               0.000000000               0.000000000               0.000000000               0.000104036               0.003585810               0.000173569              -0.000409212               0.001331662               0.000922450               0.000000000               0.000000000               0.000000000               0.000000000               0.000067697               0.003563174               0.000136027              -0.000420009               0.001327716               0.000907706               0.000000000               0.000000000               0.000000000               0.000000000               0.000026487               0.003538575               0.000093832              -0.000432388               0.001323643               0.000891255               0.000000000               0.000000000               0.000000000               0.000000000              -0.000015087               0.003510020               0.000054291              -0.000444409               0.001318131               0.000873722               0.000000000               0.000000000               0.000000000               0.000000000              -0.000049009               0.003472362               0.000023268              -0.000452423               0.001308250               0.000855827               0.000000000               0.000000000               0.000000000               0.000000000              -0.000066089               0.003424705               0.000003271              -0.000452870               0.001292514               0.000839643               0.000000000               0.000000000               0.000000000               0.000000000              -0.000069039               0.003393008              -0.000004667              -0.000450015               0.001280996               0.000830982               0.000000000               0.000000000               0.000000000               0.000000000               0.001142747               0.002197817               0.001347779               0.000153800               0.000681331               0.000835131               0.000000000               0.000000000               0.000000000               0.000000000               0.000716466               0.002588768               0.001187280              -0.000054923               0.000881221               0.000826299               0.000000000               0.000000000               0.000000000               0.000000000               0.000348959               0.003119028               0.000940973              -0.000259019               0.001126005               0.000866986               0.000000000               0.000000000               0.000000000               0.000000000               0.000256584               0.003309535               0.000729278              -0.000317473               0.001208991               0.000891519               0.000000000               0.000000000               0.000000000               0.000000000               0.000233918               0.003398785               0.000577402              -0.000337128               0.001245293               0.000908165               0.000000000               0.000000000               0.000000000               0.000000000               0.000231339               0.003467275               0.000471348              -0.000346657               0.001271299               0.000924642               0.000000000               0.000000000               0.000000000               0.000000000               0.000229607               0.003519295               0.000395247              -0.000353809               0.001291023               0.000937214               0.000000000               0.000000000               0.000000000               0.000000000               0.000211431               0.003546670               0.000336953              -0.000364046               0.001303560               0.000939514               0.000000000               0.000000000               0.000000000               0.000000000               0.000185580               0.003550656               0.000290596              -0.000374239               0.001308286               0.000934048               0.000000000               0.000000000               0.000000000               0.000000000               0.000155461               0.003536579               0.000250829              -0.000383774               0.001306772               0.000922999               0.000000000               0.000000000               0.000000000               0.000000000               0.000120558               0.003510545               0.000211512              -0.000393608               0.001301373               0.000907765               0.000000000               0.000000000               0.000000000               0.000000000               0.000078902               0.003480932               0.000166718              -0.000405527               0.001295475               0.000889947               0.000000000               0.000000000               0.000000000               0.000000000               0.000029209               0.003452022               0.000118058              -0.000420548               0.001290845               0.000870297               0.000000000               0.000000000               0.000000000               0.000000000              -0.000025176               0.003424604               0.000073278              -0.000437516               0.001287362               0.000849846               0.000000000               0.000000000               0.000000000               0.000000000              -0.000078974               0.003394565               0.000037267              -0.000453935               0.001282822               0.000828887               0.000000000               0.000000000               0.000000000               0.000000000              -0.000124825               0.003356716               0.000012657              -0.000466398               0.001274360               0.000807962               0.000000000               0.000000000               0.000000000               0.000000000              -0.000149426               0.003329043               0.000000583              -0.000472164               0.001267058               0.000794894               0.000000000               0.000000000               0.000000000               0.000000000               0.000992425               0.001612790               0.001118304               0.000170558               0.000480738               0.000651296               0.000000000               0.000000000               0.000000000               0.000000000               0.000713814               0.002088772               0.001113495               0.000006582               0.000694056               0.000700638               0.000000000               0.000000000               0.000000000               0.000000000               0.000410382               0.002705682               0.001014642              -0.000184318               0.000963324               0.000779006               0.000000000               0.000000000               0.000000000               0.000000000               0.000314414               0.002994333               0.000843856              -0.000256387               0.001083563               0.000827176               0.000000000               0.000000000               0.000000000               0.000000000               0.000288348               0.003164497               0.000697325              -0.000287432               0.001150632               0.000863201               0.000000000               0.000000000               0.000000000               0.000000000               0.000281665               0.003287309               0.000584636              -0.000305289               0.001197521               0.000892233               0.000000000               0.000000000               0.000000000               0.000000000               0.000276191               0.003373397               0.000493789              -0.000318102               0.001230489               0.000912386               0.000000000               0.000000000               0.000000000               0.000000000               0.000259412               0.003430920               0.000420318              -0.000331585               0.001254157               0.000922572               0.000000000               0.000000000               0.000000000               0.000000000               0.000231398               0.003466138               0.000362235              -0.000346492               0.001270865               0.000924373               0.000000000               0.000000000               0.000000000               0.000000000               0.000198641               0.003472734               0.000313831              -0.000359600               0.001277433               0.000917833               0.000000000               0.000000000               0.000000000               0.000000000               0.000164694               0.003457291               0.000269406              -0.000370400               0.001275886               0.000905485               0.000000000               0.000000000               0.000000000               0.000000000               0.000125133               0.003432588               0.000219680              -0.000382148               0.001271567               0.000889419               0.000000000               0.000000000               0.000000000               0.000000000               0.000076949               0.003406182               0.000166487              -0.000396916               0.001267688               0.000870772               0.000000000               0.000000000               0.000000000               0.000000000               0.000017730               0.003379803               0.000115155              -0.000415826               0.001265198               0.000849373               0.000000000               0.000000000               0.000000000               0.000000000              -0.000051389               0.003357603               0.000069282              -0.000438970               0.001265513               0.000826543               0.000000000               0.000000000               0.000000000               0.000000000              -0.000128188               0.003336624               0.000030122              -0.000465147               0.001267246               0.000802099               0.000000000               0.000000000               0.000000000               0.000000000              -0.000183604               0.003311832               0.000005462              -0.000482829               0.001264876               0.000782047               0.000000000               0.000000000               0.000000000               0.000000000               0.000772865               0.001104446               0.000866110               0.000151766               0.000317556               0.000469322               0.000000000               0.000000000               0.000000000               0.000000000               0.000671660               0.001613771               0.000989382               0.000050149               0.000521201               0.000571351               0.000000000               0.000000000               0.000000000               0.000000000               0.000485423               0.002257049               0.001021907              -0.000100098               0.000785708               0.000685610               0.000000000               0.000000000               0.000000000               0.000000000               0.000410786               0.002624313               0.000907561              -0.000173995               0.000932760               0.000758765               0.000000000               0.000000000               0.000000000               0.000000000               0.000380513               0.002865828               0.000781125              -0.000215536               0.001027112               0.000811576               0.000000000               0.000000000               0.000000000               0.000000000               0.000363165               0.003040928               0.000670715              -0.000243929               0.001094942               0.000851013               0.000000000               0.000000000               0.000000000               0.000000000               0.000345342               0.003171532               0.000574397              -0.000266938               0.001146146               0.000879208               0.000000000               0.000000000               0.000000000               0.000000000               0.000324270               0.003273109               0.000491424              -0.000287537               0.001186871               0.000899334               0.000000000               0.000000000               0.000000000               0.000000000               0.000291958               0.003340842               0.000425662              -0.000308120               0.001216310               0.000908189               0.000000000               0.000000000               0.000000000               0.000000000               0.000255522               0.003374350               0.000374266              -0.000325972               0.001233429               0.000907457               0.000000000               0.000000000               0.000000000               0.000000000               0.000218987               0.003386614               0.000325731              -0.000341206               0.001242595               0.000901389               0.000000000               0.000000000               0.000000000               0.000000000               0.000183094               0.003384154               0.000272466              -0.000354358               0.001246160               0.000891801               0.000000000               0.000000000               0.000000000               0.000000000               0.000142996               0.003371401               0.000216694              -0.000367801               0.001246389               0.000878589               0.000000000               0.000000000               0.000000000               0.000000000               0.000090557               0.003351411               0.000159902              -0.000384967               0.001245448               0.000860481               0.000000000               0.000000000               0.000000000               0.000000000               0.000021970               0.003335436               0.000102547              -0.000408690               0.001248031               0.000839341               0.000000000               0.000000000               0.000000000               0.000000000              -0.000065021               0.003323066               0.000047880              -0.000439765               0.001254266               0.000814501               0.000000000               0.000000000               0.000000000               0.000000000              -0.000134490               0.003302103               0.000014374              -0.000463196               0.001255089               0.000791893               0.000000000               0.000000000               0.000000000               0.000000000               0.000507800               0.000702130               0.000619415               0.000102657               0.000199821               0.000302479               0.000000000               0.000000000               0.000000000               0.000000000               0.000601410               0.001189529               0.000824233               0.000076836               0.000370893               0.000447729               0.000000000               0.000000000               0.000000000               0.000000000               0.000560698               0.001806248               0.000953885              -0.000015521               0.000607250               0.000591729               0.000000000               0.000000000               0.000000000               0.000000000               0.000529149               0.002220999               0.000898249              -0.000079195               0.000766724               0.000687529               0.000000000               0.000000000               0.000000000               0.000000000               0.000502228               0.002519122               0.000800166              -0.000126555               0.000881884               0.000755329               0.000000000               0.000000000               0.000000000               0.000000000               0.000472306               0.002748773               0.000701698              -0.000166482               0.000971742               0.000805260               0.000000000               0.000000000               0.000000000               0.000000000               0.000440902               0.002928399               0.000611528              -0.000200712               0.001043027               0.000842315               0.000000000               0.000000000               0.000000000               0.000000000               0.000413014               0.003068546               0.000531309              -0.000228688               0.001099068               0.000870380               0.000000000               0.000000000               0.000000000               0.000000000               0.000377592               0.003173920               0.000464737              -0.000255142               0.001143010               0.000887868               0.000000000               0.000000000               0.000000000               0.000000000               0.000334165               0.003252091               0.000412361              -0.000281199               0.001177753               0.000896554               0.000000000               0.000000000               0.000000000               0.000000000               0.000289970               0.003300690               0.000366403              -0.000303847               0.001201501               0.000897654               0.000000000               0.000000000               0.000000000               0.000000000               0.000253981               0.003324738               0.000318460              -0.000320349               0.001215018               0.000894669               0.000000000               0.000000000               0.000000000               0.000000000               0.000220620               0.003333826               0.000262838              -0.000333995               0.001222596               0.000888601               0.000000000               0.000000000               0.000000000               0.000000000               0.000178862               0.003332456               0.000199832              -0.000349483               0.001227302               0.000877819               0.000000000               0.000000000               0.000000000               0.000000000               0.000121688               0.003327133               0.000132278              -0.000370258               0.001232452               0.000862195               0.000000000               0.000000000               0.000000000               0.000000000               0.000047013               0.003320633               0.000065284              -0.000397448               0.001239350               0.000841901               0.000000000               0.000000000               0.000000000               0.000000000              -0.000016420               0.003304815               0.000025576              -0.000419258               0.001241347               0.000822089               0.000000000               0.000000000               0.000000000               0.000000000               0.000232244               0.000406696               0.000404995               0.000036254               0.000123479               0.000159733               0.000000000               0.000000000               0.000000000               0.000000000               0.000516351               0.000838875               0.000633586               0.000088771               0.000250031               0.000338802               0.000000000               0.000000000               0.000000000               0.000000000               0.000632091               0.001394615               0.000807609               0.000062706               0.000443965               0.000506670               0.000000000               0.000000000               0.000000000               0.000000000               0.000649375               0.001822275               0.000798277               0.000015730               0.000602175               0.000617905               0.000000000               0.000000000               0.000000000               0.000000000               0.000632010               0.002159656               0.000730153              -0.000032954               0.000730863               0.000697909               0.000000000               0.000000000               0.000000000               0.000000000               0.000597021               0.002435071               0.000650576              -0.000080501               0.000838516               0.000758015               0.000000000               0.000000000               0.000000000               0.000000000               0.000557649               0.002656972               0.000578372              -0.000123003               0.000926649               0.000803646               0.000000000               0.000000000               0.000000000               0.000000000               0.000525193               0.002837413               0.000512203              -0.000157729               0.000998371               0.000840642               0.000000000               0.000000000               0.000000000               0.000000000               0.000487513               0.002985800               0.000450912              -0.000190408               0.001058726               0.000868318               0.000000000               0.000000000               0.000000000               0.000000000               0.000440333               0.003106089               0.000402949              -0.000223136               0.001109731               0.000886595               0.000000000               0.000000000               0.000000000               0.000000000               0.000393887               0.003190975               0.000367130              -0.000251164               0.001147369               0.000896205               0.000000000               0.000000000               0.000000000               0.000000000               0.000353581               0.003245636               0.000329516              -0.000273111               0.001172905               0.000899794               0.000000000               0.000000000               0.000000000               0.000000000               0.000318326               0.003281014               0.000278728              -0.000290754               0.001190579               0.000899825               0.000000000               0.000000000               0.000000000               0.000000000               0.000282854               0.003300933               0.000215649              -0.000306546               0.001202482               0.000895936               0.000000000               0.000000000               0.000000000               0.000000000               0.000245564               0.003312667               0.000145882              -0.000321996               0.001211543               0.000889547               0.000000000               0.000000000               0.000000000               0.000000000               0.000200423               0.003317903               0.000074023              -0.000339578               0.001219149               0.000879571               0.000000000               0.000000000               0.000000000               0.000000000               0.000162607               0.003311079               0.000034026              -0.000352906               0.001221317               0.000868411               0.000000000               0.000000000               0.000000000               0.000000000              -0.000009325               0.000216151               0.000232019              -0.000030516               0.000082222               0.000051705               0.000000000               0.000000000               0.000000000               0.000000000               0.000432120               0.000579212               0.000427724               0.000089642               0.000163188               0.000252830               0.000000000               0.000000000               0.000000000               0.000000000               0.000688426               0.001059145               0.000588649               0.000125765               0.000311123               0.000436888               0.000000000               0.000000000               0.000000000               0.000000000               0.000753058               0.001480002               0.000601549               0.000097395               0.000460864               0.000558259               0.000000000               0.000000000               0.000000000               0.000000000               0.000749123               0.001837726               0.000561292               0.000051205               0.000595501               0.000646705               0.000000000               0.000000000               0.000000000               0.000000000               0.000720020               0.002140903               0.000507614               0.000002394               0.000712829               0.000715223               0.000000000               0.000000000               0.000000000               0.000000000               0.000682708               0.002398250               0.000459652              -0.000043766               0.000813997               0.000770231               0.000000000               0.000000000               0.000000000               0.000000000               0.000642928               0.002617607               0.000411020              -0.000086103               0.000901228               0.000815125               0.000000000               0.000000000               0.000000000               0.000000000               0.000601103               0.002799523               0.000361404              -0.000124527               0.000974674               0.000850147               0.000000000               0.000000000               0.000000000               0.000000000               0.000556660               0.002945889               0.000326044              -0.000159488               0.001035116               0.000875628               0.000000000               0.000000000               0.000000000               0.000000000               0.000511479               0.003061727               0.000302505              -0.000190911               0.001084202               0.000893292               0.000000000               0.000000000               0.000000000               0.000000000               0.000466833               0.003150788               0.000274971              -0.000218786               0.001123181               0.000904395               0.000000000               0.000000000               0.000000000               0.000000000               0.000428185               0.003212786               0.000234926              -0.000241028               0.001151261               0.000910232               0.000000000               0.000000000               0.000000000               0.000000000               0.000398894               0.003253312               0.000184684              -0.000257078               0.001170119               0.000913041               0.000000000               0.000000000               0.000000000               0.000000000               0.000382133               0.003284466               0.000127515              -0.000267258               0.001183897               0.000916639               0.000000000               0.000000000               0.000000000               0.000000000               0.000374185               0.003304920               0.000065480              -0.000272795               0.001192561               0.000919766               0.000000000               0.000000000               0.000000000               0.000000000               0.000370071               0.003309438               0.000032702              -0.000274903               0.001194769               0.000919867               0.000000000               0.000000000               0.000000000               0.000000000              -0.000179335               0.000112023               0.000103207              -0.000081254               0.000064425              -0.000016829               0.000000000               0.000000000               0.000000000               0.000000000               0.000369414               0.000418797               0.000214908               0.000086180               0.000110871               0.000197051               0.000000000               0.000000000               0.000000000               0.000000000               0.000721338               0.000837053               0.000309685               0.000165869               0.000223725               0.000389594               0.000000000               0.000000000               0.000000000               0.000000000               0.000823975               0.001247656               0.000323269               0.000153032               0.000364870               0.000517903               0.000000000               0.000000000               0.000000000               0.000000000               0.000835976               0.001611970               0.000305892               0.000111994               0.000499987               0.000611981               0.000000000               0.000000000               0.000000000               0.000000000               0.000814885               0.001928426               0.000280040               0.000064528               0.000621293               0.000685821               0.000000000               0.000000000               0.000000000               0.000000000               0.000778490               0.002208020               0.000256723               0.000015931               0.000730689               0.000746620               0.000000000               0.000000000               0.000000000               0.000000000               0.000732988               0.002452479               0.000229777              -0.000031689               0.000828048               0.000796358               0.000000000               0.000000000               0.000000000               0.000000000               0.000690386               0.002655272               0.000201846              -0.000073014               0.000909420               0.000836406               0.000000000               0.000000000               0.000000000               0.000000000               0.000648611               0.002817758               0.000183912              -0.000108990               0.000975573               0.000866583               0.000000000               0.000000000               0.000000000               0.000000000               0.000601496               0.002952620               0.000171745              -0.000143516               0.001032035               0.000888519               0.000000000               0.000000000               0.000000000               0.000000000               0.000552609               0.003065409               0.000156673              -0.000175947               0.001080442               0.000904495               0.000000000               0.000000000               0.000000000               0.000000000               0.000511670               0.003153405               0.000134852              -0.000202299               0.001118557               0.000916259               0.000000000               0.000000000               0.000000000               0.000000000               0.000488026               0.003218949               0.000106809              -0.000219358               0.001146092               0.000926733               0.000000000               0.000000000               0.000000000               0.000000000               0.000486358               0.003267095               0.000075466              -0.000226002               0.001164355               0.000938353               0.000000000               0.000000000               0.000000000               0.000000000               0.000507968               0.003297402               0.000040157              -0.000221687               0.001173019               0.000951332               0.000000000               0.000000000               0.000000000               0.000000000               0.000533479               0.003310293               0.000021272              -0.000213731               0.001174664               0.000960932               0.000000000               0.000000000               0.000000000               0.000000000               0.000000000               0.000000000               0.000000000               0.000000000               0.000000000               0.000000000               0.000000000               0.000000000               0.000000000               0.000000000               0.000000000               0.000000000               0.000000000               0.000000000               0.000000000               0.000000000               0.000000000               0.000000000               0.000000000               0.000000000               0.000000000               0.000000000               0.000000000               0.000000000               0.000000000               0.000000000               0.000000000               0.000000000               0.000000000               0.000000000               0.000000000               0.000000000               0.000000000               0.000000000               0.000000000               0.000000000               0.000000000               0.000000000               0.000000000               0.000000000               0.000000000               0.000000000               0.000000000               0.000000000               0.000000000               0.000000000               0.000000000               0.000000000               0.000000000               0.000000000               0.000000000               0.000000000               0.000000000               0.000000000               0.000000000               0.000000000               0.000000000               0.000000000               0.000000000               0.000000000               0.000000000               0.000000000               0.000000000               0.000000000               0.000000000               0.000000000               0.000000000               0.000000000               0.000000000               0.000000000               0.000000000               0.000000000               0.000000000               0.000000000               0.000000000               0.000000000               0.000000000               0.000000000               0.000000000               0.000000000               0.000000000               0.000000000               0.000000000               0.000000000               0.000000000               0.000000000               0.000000000               0.000000000               0.000000000               0.000000000               0.000000000               0.000000000               0.000000000               0.000000000               0.000000000               0.000000000               0.000000000               0.000000000               0.000000000               0.000000000               0.000000000               0.000000000               0.000000000               0.000000000               0.000000000               0.000000000               0.000000000               0.000000000               0.000000000               0.000000000               0.000000000               0.000000000               0.000000000               0.000000000               0.000000000               0.000000000               0.000000000               0.000000000               0.000000000               0.000000000               0.000000000               0.000000000               0.000000000               0.000000000               0.000000000               0.000000000               0.000000000               0.000000000               0.000000000               0.000000000               0.000000000               0.000000000               0.000000000               0.000000000               0.000000000               0.000000000               0.000000000               0.000000000               0.000000000               0.000000000               0.000000000               0.000000000               0.000000000               0.000000000               0.000000000               0.000000000               0.000000000               0.000000000               0.000000000               0.000000000               0.000000000               0.000000000               0.000000000               0.000000000               0.000000000               0.000000000               0.000000000               0.000000000               0.000000000               0.000000000               0.000000000               0.000000000               0.000000000               0.000000000               0.000000000               0.000000000               0.000000000               0.000000000               0.000000000               0.000000000 </DataArray>
</PointData>
</Piece>
</UnstructuredGrid> </VTKFile>
